# 
# 07/02/2024 12:42:51
# The parameters defined in the project are:
# ,P213 - Specific Heat [J kg^-1 C^-1],P214 - Temperature Magnitude [C],P1 - Normal Stress Average [MPa],P2 - Normal Stress 2 Average [MPa],P3 - Normal Stress 3 Average [MPa],P4 - Normal Stress 4 Average [MPa],P5 - Normal Stress 5 Average [MPa],P6 - Normal Stress 6 Average [MPa],P7 - Normal Stress 7 Average [MPa],P8 - Normal Stress 8 Average [MPa],P9 - Normal Stress 9 Average [MPa],P10 - Normal Stress 10 Average [MPa],P11 - Normal Stress 11 Average [MPa],P12 - Normal Stress 12 Average [MPa],P13 - Normal Stress 13 Average [MPa],P14 - Normal Stress 14 Average [MPa],P15 - Normal Stress 15 Average [MPa],P16 - Normal Stress 16 Average [MPa],P17 - Normal Stress 17 Average [MPa],P18 - Normal Stress 18 Average [MPa],P19 - Normal Stress 19 Average [MPa],P20 - Normal Stress 20 Average [MPa],P21 - Normal Stress 21 Average [MPa],P22 - Normal Stress 22 Average [MPa],P23 - Normal Stress 23 Average [MPa],P24 - Normal Stress 24 Average [MPa],P25 - Normal Stress 25 Average [MPa],P26 - Normal Stress 26 Average [MPa],P27 - Normal Stress 27 Average [MPa],P28 - Normal Stress 28 Average [MPa],P29 - Normal Stress 29 Average [MPa],P30 - Normal Stress 30 Average [MPa],P31 - Normal Stress 31 Average [MPa],P32 - Normal Stress 32 Average [MPa],P33 - Normal Stress 33 Average [MPa],P34 - Normal Stress 34 Average [MPa],P35 - Normal Stress 35 Average [MPa],P36 - Normal Stress 36 Average [MPa],P37 - Normal Stress 37 Average [MPa],P38 - Normal Stress 38 Average [MPa],P39 - Normal Stress 39 Average [MPa],P40 - Normal Stress 40 Average [MPa],P41 - Normal Stress 41 Average [MPa],P42 - Normal Stress 42 Average [MPa],P43 - Normal Stress 43 Average [MPa],P44 - Normal Stress 44 Average [MPa],P45 - Normal Stress 45 Average [MPa],P46 - Normal Stress 46 Average [MPa],P47 - Normal Stress 47 Average [MPa],P48 - Normal Stress 48 Average [MPa],P49 - Normal Stress 49 Average [MPa],P50 - Normal Stress 50 Average [MPa],P51 - Normal Stress 51 Average [MPa],P52 - Normal Stress 52 Average [MPa],P53 - Normal Stress 53 Average [MPa],P54 - Normal Stress 54 Average [MPa],P55 - Normal Stress 55 Average [MPa],P56 - Normal Stress 56 Average [MPa],P57 - Normal Stress 57 Average [MPa],P58 - Normal Stress 58 Average [MPa],P59 - Normal Stress 59 Average [MPa],P60 - Normal Stress 60 Average [MPa],P61 - Normal Stress 61 Average [MPa],P62 - Normal Stress 62 Average [MPa],P63 - Normal Stress 63 Average [MPa],P64 - Normal Stress 64 Average [MPa],P65 - Normal Stress 65 Average [MPa],P66 - Normal Stress 66 Average [MPa],P67 - Normal Stress 67 Average [MPa],P68 - Normal Stress 68 Average [MPa],P69 - Normal Stress 69 Average [MPa],P70 - Normal Stress 70 Average [MPa],P71 - Normal Stress 71 Average [MPa],P72 - Normal Stress 72 Average [MPa],P73 - Normal Stress 73 Average [MPa],P74 - Normal Stress 74 Average [MPa],P75 - Normal Stress 75 Average [MPa],P76 - Normal Stress 76 Average [MPa],P77 - Normal Stress 77 Average [MPa],P78 - Normal Stress 78 Average [MPa],P79 - Normal Stress 79 Average [MPa],P80 - Normal Stress 80 Average [MPa],P81 - Normal Stress 81 Average [MPa],P82 - Normal Stress 82 Average [MPa],P83 - Normal Stress 83 Average [MPa],P84 - Normal Stress 84 Average [MPa],P85 - Normal Stress 85 Average [MPa],P86 - Normal Stress 86 Average [MPa],P87 - Normal Stress 87 Average [MPa],P88 - Normal Stress 88 Average [MPa],P89 - Normal Stress 89 Average [MPa],P90 - Normal Stress 90 Average [MPa],P91 - Normal Stress 91 Average [MPa],P92 - Normal Stress 92 Average [MPa],P93 - Normal Stress 93 Average [MPa],P94 - Normal Stress 94 Average [MPa],P95 - Normal Stress 95 Average [MPa],P96 - Normal Stress 96 Average [MPa],P97 - Normal Stress 97 Average [MPa],P98 - Normal Stress 98 Average [MPa],P99 - Normal Stress 99 Average [MPa],P100 - Normal Stress 100 Average [MPa],P103 - Normal Stress 103 Average [MPa],P104 - Normal Stress 104 Average [MPa],P105 - Normal Stress 105 Average [MPa],P106 - Normal Stress 106 Average [MPa],P107 - Normal Stress 107 Average [MPa],P108 - Normal Stress 108 Average [MPa],P109 - Normal Stress 109 Average [MPa],P110 - Normal Stress 110 Average [MPa],P111 - Normal Stress 111 Average [MPa],P112 - Normal Stress 112 Average [MPa],P113 - Normal Stress 113 Average [MPa],P114 - Normal Stress 114 Average [MPa],P115 - Normal Stress 115 Average [MPa],P116 - Normal Stress 116 Average [MPa],P117 - Normal Stress 117 Average [MPa],P118 - Normal Stress 118 Average [MPa],P119 - Normal Stress 119 Average [MPa],P120 - Normal Stress 120 Average [MPa],P121 - Normal Stress 121 Average [MPa],P122 - Normal Stress 122 Average [MPa],P123 - Normal Stress 123 Average [MPa],P124 - Normal Stress 124 Average [MPa],P125 - Normal Stress 125 Average [MPa],P126 - Normal Stress 126 Average [MPa],P127 - Normal Stress 127 Average [MPa],P128 - Normal Stress 128 Average [MPa],P129 - Normal Stress 129 Average [MPa],P130 - Normal Stress 130 Average [MPa],P131 - Normal Stress 131 Average [MPa],P132 - Normal Stress 132 Average [MPa],P133 - Normal Stress 133 Average [MPa],P134 - Normal Stress 134 Average [MPa],P135 - Normal Stress 135 Average [MPa],P136 - Normal Stress 136 Average [MPa],P137 - Normal Stress 137 Average [MPa],P138 - Normal Stress 138 Average [MPa],P139 - Normal Stress 139 Average [MPa],P140 - Normal Stress 140 Average [MPa],P141 - Normal Stress 141 Average [MPa],P142 - Normal Stress 142 Average [MPa],P143 - Normal Stress 143 Average [MPa],P144 - Normal Stress 144 Average [MPa],P145 - Normal Stress 145 Average [MPa],P146 - Normal Stress 146 Average [MPa],P147 - Normal Stress 147 Average [MPa],P148 - Normal Stress 148 Average [MPa],P149 - Normal Stress 149 Average [MPa],P150 - Normal Stress 150 Average [MPa],P151 - Normal Stress 151 Average [MPa],P152 - Normal Stress 152 Average [MPa],P153 - Normal Stress 153 Average [MPa],P154 - Normal Stress 154 Average [MPa],P155 - Normal Stress 155 Average [MPa],P156 - Normal Stress 156 Average [MPa],P157 - Normal Stress 157 Average [MPa],P158 - Normal Stress 158 Average [MPa],P159 - Normal Stress 159 Average [MPa],P160 - Normal Stress 160 Average [MPa],P161 - Normal Stress 161 Average [MPa],P162 - Normal Stress 162 Average [MPa],P163 - Normal Stress 163 Average [MPa],P164 - Normal Stress 164 Average [MPa],P165 - Normal Stress 165 Average [MPa],P166 - Normal Stress 166 Average [MPa],P167 - Normal Stress 167 Average [MPa],P168 - Normal Stress 168 Average [MPa],P169 - Normal Stress 169 Average [MPa],P170 - Normal Stress 170 Average [MPa],P171 - Normal Stress 171 Average [MPa],P172 - Normal Stress 172 Average [MPa],P173 - Normal Stress 173 Average [MPa],P174 - Normal Stress 174 Average [MPa],P175 - Normal Stress 175 Average [MPa],P176 - Normal Stress 176 Average [MPa],P177 - Normal Stress 177 Average [MPa],P178 - Normal Stress 178 Average [MPa],P179 - Normal Stress 179 Average [MPa],P180 - Normal Stress 180 Average [MPa],P181 - Normal Stress 181 Average [MPa],P182 - Normal Stress 182 Average [MPa],P183 - Normal Stress 183 Average [MPa],P184 - Normal Stress 184 Average [MPa],P185 - Normal Stress 185 Average [MPa],P186 - Normal Stress 186 Average [MPa],P187 - Normal Stress 187 Average [MPa],P188 - Normal Stress 188 Average [MPa],P189 - Normal Stress 189 Average [MPa],P190 - Normal Stress 190 Average [MPa],P191 - Normal Stress 191 Average [MPa],P192 - Normal Stress 192 Average [MPa],P193 - Normal Stress 193 Average [MPa],P194 - Normal Stress 194 Average [MPa],P195 - Normal Stress 195 Average [MPa],P196 - Normal Stress 196 Average [MPa],P197 - Normal Stress 197 Average [MPa],P198 - Normal Stress 198 Average [MPa],P199 - Normal Stress 199 Average [MPa],P200 - Normal Stress 200 Average [MPa],P201 - Total Deformation Average [mm],P202 - Total Deformation 2 Average [mm],P203 - Total Deformation 3 Average [mm],P204 - Total Deformation 4 Average [mm],P205 - Total Deformation 5 Average [mm],P206 - Total Deformation 6 Average [mm],P207 - Total Deformation 7 Average [mm],P208 - Total Deformation 8 Average [mm],P209 - Total Deformation 9 Average [mm],P210 - Total Deformation 10 Average [mm],P211 - Total Deformation 11 Average [mm],P212 - Total Deformation 12 Average [mm]
# 
# The following header line defines the name of the columns by reference to the parameters.
Name,P213,P214,P1,P2,P3,P4,P5,P6,P7,P8,P9,P10,P11,P12,P13,P14,P15,P16,P17,P18,P19,P20,P21,P22,P23,P24,P25,P26,P27,P28,P29,P30,P31,P32,P33,P34,P35,P36,P37,P38,P39,P40,P41,P42,P43,P44,P45,P46,P47,P48,P49,P50,P51,P52,P53,P54,P55,P56,P57,P58,P59,P60,P61,P62,P63,P64,P65,P66,P67,P68,P69,P70,P71,P72,P73,P74,P75,P76,P77,P78,P79,P80,P81,P82,P83,P84,P85,P86,P87,P88,P89,P90,P91,P92,P93,P94,P95,P96,P97,P98,P99,P100,P103,P104,P105,P106,P107,P108,P109,P110,P111,P112,P113,P114,P115,P116,P117,P118,P119,P120,P121,P122,P123,P124,P125,P126,P127,P128,P129,P130,P131,P132,P133,P134,P135,P136,P137,P138,P139,P140,P141,P142,P143,P144,P145,P146,P147,P148,P149,P150,P151,P152,P153,P154,P155,P156,P157,P158,P159,P160,P161,P162,P163,P164,P165,P166,P167,P168,P169,P170,P171,P172,P173,P174,P175,P176,P177,P178,P179,P180,P181,P182,P183,P184,P185,P186,P187,P188,P189,P190,P191,P192,P193,P194,P195,P196,P197,P198,P199,P200,P201,P202,P203,P204,P205,P206,P207,P208,P209,P210,P211,P212
DP 53,52,0.0065,-32.927319263943239,-32.613402810553666,-32.299486357164128,-31.985569903774753,-31.671653450385378,-31.357736996996124,-31.043820543606959,-30.729904090217868,-30.415987636828909,-30.102071183439985,-29.788154730051183,-29.474238276662444,-29.160321823273819,-28.846405369885268,-28.532488916496828,-28.21857246310844,-27.904656009720167,-27.590739556331982,-27.276823102943876,-26.962906649555872,-26.651258280548319,-26.360022885353505,-26.068787490158698,-25.777552094963934,-25.486316699769162,-25.195081304574419,-24.903845909379733,-24.612610514185022,-24.321375118990353,-24.0301397237957,-23.738904328601095,-23.447668933406465,-23.156433538211882,-22.865198143017306,-22.573962747822772,-22.282727352628235,-21.991491957433759,-21.700256562239264,-21.409021167044802,-21.117785771850372,-20.835871301301857,-20.591240969856752,-20.346610638411459,-20.101980306965995,-19.857349975520322,-19.612719644074488,-19.368089312628445,-19.123458981182232,-18.878828649735848,-18.634198318289261,-18.389567986842483,-18.144937655395527,-17.900307323948393,-17.655676992501078,-17.411046661053572,-17.166416329605877,-16.921785998158004,-16.67715566670995,-16.432525335261705,-16.187895003813288,-15.963822346699214,-15.787718244085719,-15.611614141471984,-15.435510038858084,-15.259405936243978,-15.083301833629672,-14.907197731015165,-14.731093628400437,-14.554989525785542,-14.378885423170443,-14.202781320555141,-14.026677217939632,-13.850573115323908,-13.674469012708014,-13.498364910091906,-13.322260807475613,-13.146156704859081,-12.970052602242383,-12.793948499625472,-12.617844397008364,-12.477182426036906,-12.389684490053947,-12.302186554070648,-12.214688618086992,-12.127190682102992,-12.03969274611863,-11.952194810133919,-11.86469687414886,-11.777198938163458,-11.689701002177697,-11.602203066191581,-11.514705130205121,-11.427207194218308,-11.339709258231153,-11.252211322243639,-11.164713386255782,-11.077215450267554,-10.989717514278993,-10.902219578290072,-10.81472164230081,-10.818816184811229,-10.8379537905995,-10.857091396387329,-10.876229002174748,-10.895366607961728,-10.914504213748266,-10.93364181953438,-10.952779425320067,-10.971917031105315,-10.99105463689013,-11.010192242674517,-11.029329848458469,-11.048467454241992,-11.067605060025082,-11.086742665807751,-11.10588027158998,-11.125017877371763,-11.14415548315313,-11.2364456692298,-11.377505394594539,-11.518565119958669,-11.659624845322211,-11.800684570685165,-11.941744296047526,-12.082804021409283,-12.223863746770455,-12.364923472131014,-12.505983197490997,-12.647042922850369,-12.788102648209158,-12.929162373567353,-13.070222098924948,-13.211281824281942,-13.352341549638343,-13.493401274994161,-13.634461000349374,-13.775520725703979,-13.916580451058008,-14.151703267047685,-14.427140106311709,-14.702576945575103,-14.97801378483792,-15.253450624100147,-15.528887463361773,-15.80432430262279,-16.079761141883225,-16.355197981143053,-16.630634820402285,-16.906071659660924,-17.181508498918969,-17.456945338176407,-17.732382177433259,-18.007819016689506,-18.283255855945164,-18.558692695200229,-18.834129534454675,-19.109566373708553,-19.385003212961806,-19.775077149636591,-20.193811715129893,-20.612546280622396,-21.031280846114072,-21.45001541160492,-21.86874997709495,-22.287484542584185,-22.706219108072535,-23.124953673560114,-23.543688239046848,-23.962422804532814,-24.381157370017903,-24.799891935502153,-25.218626500985632,-25.637361066468277,-26.056095631950104,-26.474830197431089,-26.893564762911282,-27.312299328390619,-27.731033893869171,-28.283779034705038,-28.851415646904535,-29.419052259103125,-29.986688871300785,-30.554325483497585,-31.121962095693483,-31.689598707888475,-32.25723532008255,-32.824871932275734,-33.392508544468029,-33.960145156659429,-34.527781768849962,-35.095418381039543,-35.663054993228243,-36.23069160541602,-36.798328217602936,-37.365964829788943,-37.933601441974034,-38.501238054158293,-39.068874666341522,0,0.0435419675563689,0.0823414447974515,0.127258038809216,0.188158621441506,0.266192167624652,0.361765497608832,0.475117953357335,0.606446921377173,0.755699796917819,0.861733536239824,1.10912983245479
DP 54,122.68965816186771,0.003131671491140717,-32.017971390902957,-31.444942099742573,-30.871912808581424,-30.298883517419519,-29.725854226256811,-29.152824935093349,-28.579795643929128,-28.006766352764117,-27.433737061598361,-26.860707770431798,-26.287678479264535,-25.714649188096455,-25.141619896927622,-24.568590605757997,-23.995561314587622,-23.422532023416498,-22.849502732244577,-22.276473441071882,-21.703444149898427,-21.130414858724198,-20.561561245114959,-20.030289124299692,-19.499017003483655,-18.967744882666814,-18.4364727618492,-17.905200641030774,-17.373928520211567,-16.842656399391579,-16.311384278570777,-15.780112157749205,-15.248840036926845,-14.717567916103683,-14.186295795279731,-13.655023674454993,-13.123751553629479,-12.592479432803163,-12.061207311976052,-11.529935191148155,-10.998663070319466,-10.467390949489996,-9.953309238909096,-9.5079899817675582,-9.0626707246251819,-8.6173514674819511,-8.1720322103378731,-7.7267129531929486,-7.2813936960471723,-6.8360744389005532,-6.3907551817530805,-5.9454359246047588,-5.5001166674555906,-5.05479741030558,-4.6094781531547149,-4.1641588960030065,-3.7188396388504454,-3.2735203816970371,-2.8282011245427832,-2.3828818673876806,-1.9375626102317338,-1.4922433530749371,-1.0847286154972833,-0.76542561472990223,-0.44612261396164926,-0.12681961319253424,0.19248338757744579,0.511786388348293,0.83108938912000618,1.150392389892585,1.4696953906660319,1.7889983914403396,2.1083013922155156,2.4276043929915572,2.7469073937684634,3.0662103945462391,3.3855133953248786,3.7048163961043841,4.0241193968847551,4.3434223976659965,4.6627253984480985,4.9820283992310666,5.236271274202851,5.3929224230453841,5.5495735718888293,5.7062247207331982,5.8628758695784677,6.0195270184246628,6.17617816727176,6.3328293161197768,6.4894804649687048,6.6461316138185573,6.802782762669306,6.9594339115209731,7.1160850603735675,7.272736209227058,7.4293873580814696,7.5860385069367959,7.7426896557930309,7.899340804650187,8.0559919535082543,8.2126431023672328,8.19498839124898,8.1565959083152073,8.118203425382374,8.079810942450484,8.04141845951955,8.0030259765895551,7.9646334936605108,7.9262410107324071,7.8878485278052519,7.8494560448790391,7.8110635619537732,7.772671079029454,7.7342785961060772,7.6958861131836569,7.6574936302621683,7.6191011473416363,7.58070866442205,7.5423161815034021,7.3705003984096624,7.1097336466204295,6.8489668948322127,6.5882001430450075,6.327433391258837,6.0666666394736728,5.8058998876895371,5.54513313590641,5.2843663841243149,5.023599632343223,4.7628328805631694,4.5020661287841257,4.2412993770061052,3.9805326252291064,3.7197658734531225,3.4589991216781586,3.1982323699042094,2.937465618131291,2.6766988663593891,2.4159321145885051,1.9841914505964249,1.479173944114748,0.97415643763407878,0.46913893115442323,-0.035878575324236626,-0.54089608180186666,-1.0459135882784945,-1.5509310947541306,-2.0559486012287369,-2.5609661077023524,-3.0659836141749484,-3.5710011206465393,-4.0760186271171159,-4.5810361335866956,-5.0860536400552485,-5.5910711465228058,-6.096088652989355,-6.6011061594548828,-7.106123665919414,-7.6111411723829363,-8.3241540594158909,-9.0891682491038512,-9.8541824387906942,-10.619196628476415,-11.384210818161019,-12.149225007844493,-12.914239197526863,-13.679253387208091,-14.444267576888224,-15.209281766567228,-15.974295956245093,-16.73931014592187,-17.504324335597477,-18.269338525272005,-19.03435271494541,-19.799366904617678,-20.564381094288841,-21.329395283958871,-22.094409473627792,-22.859423663295573,-23.867150877187559,-24.901848753956159,-25.936546630723587,-26.971244507489839,-28.005942384254954,-29.040640261018925,-30.075338137781706,-31.11003601454334,-32.144733891303858,-33.179431768063175,-34.214129644821362,-35.248827521578391,-36.283525398334262,-37.318223275088975,-38.352921151842523,-39.387619028594926,-40.422316905346186,-41.457014782096245,-42.491712658845223,-43.526410535592952,0,0.027013319286643814,0.068524841116444538,0.13426056887765114,0.23110640783999142,0.35960036923794264,0.51986599029628344,0.71178523081017053,0.93496831556206716,1.1886290431100806,1.3767394734226119,1.8144299130888686
DP 55,97.358911218031125,0.0012560045398411184,-10.782976456567463,-10.607695658547668,-10.432414860527668,-10.257134062507474,-10.081853264487068,-9.9065724664664625,-9.7312916684456567,-9.55601087042464,-9.38073007240342,-9.2054492743820084,-9.0301684763603784,-8.8548876783385566,-8.6796068803165287,-8.5043260822942877,-8.3290452842718512,-8.1537644862492176,-7.97848368822637,-7.8032028902033206,-7.6279220921800741,-7.452641294156618,-7.2786308816089589,-7.1160540584274283,-6.9534772352456686,-6.7909004120636993,-6.6283235888815177,-6.4657467656991177,-6.3031699425165124,-6.1405931193336869,-5.9780162961506562,-5.8154394729674079,-5.6528626497839429,-5.4902858266002683,-5.32770900341638,-5.1651321802322743,-5.00255535704796,-4.8399785338634311,-4.6774017106786872,-4.5148248874937336,-4.3522480643085606,-4.1896712411231789,-4.0323272323290089,-3.8959147284104,-3.7595022244915448,-3.6230897205724477,-3.4866772166531139,-3.350264712733531,-3.2138522088137114,-3.077439704893647,-2.9410272009733447,-2.8046146970527963,-2.6682021931320055,-2.5317896892109726,-2.395377185289699,-2.2589646813681825,-2.122552177446424,-1.9861396735244237,-1.8497271696021809,-1.7133146656796978,-1.5769021617569725,-1.4404896578340036,-1.3156040499816126,-1.217614896144132,-1.1196257423064011,-1.0216365884684235,-0.92364743463019838,-0.82565828079172432,-0.727669126953002,-0.62967997311403123,-0.531690819274813,-0.43370166543534616,-0.3357125115956322,-0.23772335775567044,-0.139734203915459,-0.041745050075000283,0.056244103765706696,0.15423325760666212,0.25222241144786528,0.35021156528931668,0.44820071913101672,0.54618987297296429,0.62430389043289525,0.67260473365760642,0.72090557688258816,0.76920642010784057,0.81750726333336377,0.86580810655915685,0.9141089497852205,0.96240979301155616,1.0107106362381597,1.0590114794650349,1.1073123226921811,1.1556131659195976,1.2039140091472837,1.252214852375241,1.3005156956034702,1.3488165388319668,1.3971173820607363,1.4454182252897767,1.4937190685190853,1.5420199117486657,1.5376275820108534,1.5262103685775048,1.5147931551444405,1.5033759417116606,1.4919587282791649,1.4805415148469543,1.4691243014150297,1.4577070879833862,1.44628987455203,1.4348726611209555,1.4234554476901666,1.4120382342596629,1.4006210208294425,1.3892038073995072,1.3777865939698575,1.36636938054049,1.3549521671114082,1.3435349536826118,1.291176610865012,1.2115235368135027,1.1318704627623082,1.0522173887114261,0.97256431466085957,0.89291124061060567,0.81325816656066974,0.73360509251104833,0.65395201846173889,0.57429894441274509,0.49464587036406971,0.41499279631570524,0.33533972226765718,0.25568664821992426,0.17603357417250434,0.096380500125400573,0.016727426078609532,-0.062925647967864665,-0.14257872201402358,-0.22223179605986804,-0.35445713968834797,-0.50921416588453539,-0.66397119208041167,-0.81872821827597364,-0.97348524447122753,-1.1282422706661637,-1.2829992968607897,-1.437756323055108,-1.5925133492491081,-1.7472703754428021,-1.9020274016361791,-2.0567844278292471,-2.2115414540219986,-2.3662984802144456,-2.5210555064065718,-2.6758125325983912,-2.8305695587898954,-2.9853265849810908,-3.1400836111719745,-3.2948406373625443,-3.5136537149301748,-3.7484815621788488,-3.9833094094271719,-4.2181372566751332,-4.4529651039227431,-4.6877929511699925,-4.9226207984168928,-5.1574486456634263,-5.3922764929096072,-5.627104340155439,-5.861932187400904,-6.0967600346460191,-6.3315878818907665,-6.5664157291351826,-6.8012435763792141,-7.0360714236228965,-7.2708992708662308,-7.5057271181092116,-7.7405549653518246,-7.9753828125940887,-8.28503703616488,-8.6030060874079179,-8.9209751386505918,-9.2389441898928766,-9.5569132411348043,-9.8748822923763537,-10.192851343617537,-10.510820394858335,-10.828789446098778,-11.14675849733884,-11.464727548578546,-11.782696599817861,-12.100665651056826,-12.4186347022954,-12.736603753533609,-13.054572804771453,-13.372541856008935,-13.690510907246018,-14.008479958482763,-14.326449009719099,0,0.0097588768146478384,0.023216802233293782,0.043732165742457335,0.073834125295207928,0.11370413500011345,0.16337318166700004,0.222805259398492,0.29188989373360363,0.37040023500793667,0.42850179607001043,0.56388868264533842
DP 56,83.914892457707552,0.0043688754191995253,-33.240330807475978,-32.742865852672594,-32.245400897868691,-31.747935943064302,-31.250470988259448,-30.753006033454096,-30.255541078648235,-29.758076123841906,-29.260611169035087,-28.763146214227788,-28.26568125942,-27.768216304611684,-27.2707513498029,-26.773286394993637,-26.275821440183861,-25.778356485373628,-25.280891530562883,-24.783426575751658,-24.285961620939926,-23.788496666127717,-23.294632028963555,-22.833170590953245,-22.371709152942383,-21.910247714931014,-21.44878627691913,-20.98732483890668,-20.525863400893734,-20.064401962880247,-19.602940524866227,-19.141479086851707,-18.680017648836628,-18.218556210821031,-17.757094772804912,-17.295633334788274,-16.834171896771089,-16.3727104587534,-15.911249020735152,-15.449787582716393,-14.988326144697107,-14.526864706677298,-14.08023016941973,-13.692903935952588,-13.305577702484836,-12.918251469016427,-12.530925235547382,-12.143599002077707,-11.756272768607388,-11.368946535136436,-10.981620301664837,-10.594294068192617,-10.206967834719736,-9.8196416012462251,-9.43231536777208,-9.0449891342972961,-8.6576629008218653,-8.270336667345811,-7.8830104338691029,-7.4956842003917661,-7.1083579669137924,-6.7210317334351775,-6.3663841546810014,-6.0879877999061911,-5.8095914451307094,-5.5311950903545819,-5.2527987355777945,-4.9744023808003535,-4.69600602602225,-4.4176096712434934,-4.139213316464077,-3.8608169616840047,-3.5824206069032778,-3.304024252121899,-3.0256278973398558,-2.74723154255716,-2.4688351877738066,-2.1904388329897939,-1.9120424782051271,-1.6336461234198005,-1.3552497686338203,-1.0768534138471855,-0.854825748633845,-0.71735244980862567,-0.57987915098266651,-0.44240585215596545,-0.30493255332852126,-0.16745925450033647,-0.0299859556714128,0.10748734315825509,0.24496064198866,0.38243394081981091,0.51990723965170282,0.65738053848433209,0.79485383731770443,0.93232713615181873,1.0698004349866757,1.2072737338222703,1.3447470326586111,1.4822203314956903,1.6196936303335105,1.7571669291720711,1.745900324312436,1.7138987022217902,1.6818970801319351,1.6498954580428657,1.6178938359545951,1.5858922138671123,1.5538905917804271,1.5218889696945237,1.4898873476094192,1.457885725525103,1.4258841034415803,1.3938824813588513,1.3618808592769096,1.3298792371957611,1.2978776151154068,1.2658759930358405,1.2338743709570665,1.2018727488790886,1.0536207643706939,0.82786670686744435,0.60211264936509867,0.37635859186364384,0.15060453436309179,-0.075149523136568988,-0.30090358063532213,-0.526657638133181,-0.75241169563014465,-0.97816575312620724,-1.203919810621364,-1.4296738681156311,-1.655427925609,-1.8811819831014625,-2.1069360405930353,-2.3326900980837051,-2.5584441555734823,-2.7841982130623548,-3.0099522705503254,-3.2357063280374008,-3.6108262324919034,-4.0499620882653149,-4.4890979440378365,-4.9282337998094592,-5.3673696555802026,-5.80650551135003,-6.245641367118977,-6.6847772228870417,-7.1239130786541995,-7.5630489344204781,-8.0021847901858543,-8.4413206459503414,-8.880456501713935,-9.3195923574766457,-9.7587282132384434,-10.197864068999364,-10.636999924759376,-11.076135780518507,-11.515271636276749,-11.95440749203409,-12.575601303157562,-13.242311754178584,-13.909022205198573,-14.575732656217486,-15.242443107235394,-15.909153558252218,-16.575864009268034,-17.242574460282764,-17.909284911296467,-18.575995362309136,-19.242705813320757,-19.909416264331345,-20.57612671534083,-21.242837166349315,-21.909547617356754,-22.576258068363138,-23.242968519368457,-23.909678970372767,-24.576389421376017,-25.243099872378188,-26.122544143742825,-27.025627740478466,-27.928711337213098,-28.83179493394654,-29.73487853067893,-30.637962127410198,-31.5410457241404,-32.444129320869472,-33.347212917597467,-34.250296514324383,-35.153380111050154,-36.056463707774867,-36.959547304498443,-37.862630901220982,-38.76571449794239,-39.6687980946627,-40.571881691381904,-41.474965288099966,-42.378048884817012,-43.281132481532929,0,0.0320914318666294,0.072479888361693,0.13172732580805976,0.21818602686653693,0.33246913928102517,0.47466636592528194,0.64468639566808084,0.84224966051244732,1.0667571091758976,1.2324550687974773,1.6190095399103577
DP 57,129.65856037764613,0.0024170149034183153,-25.699819966904776,-25.231233847080375,-24.762647727255334,-24.294061607429636,-23.825475487603313,-23.356889367776336,-22.888303247948716,-22.419717128120446,-21.951131008291547,-21.482544888462016,-21.013958768631817,-20.545372648800981,-20.07678652896951,-19.608200409137403,-19.139614289304635,-18.671028169471228,-18.202442049637188,-17.733855929802484,-17.265269809967165,-16.796683690131182,-16.331520107011308,-15.897159677854461,-15.462799248696946,-15.028438819538778,-14.594078390379952,-14.159717961220469,-13.725357532060313,-13.290997102899516,-12.856636673738043,-12.422276244575936,-11.987915815413142,-11.553555386249716,-11.119194957085625,-10.684834527920867,-10.250474098755454,-9.8161136695893756,-9.3817532404226487,-8.9473928112552628,-8.5130323820872125,-8.0786719529185085,-7.6583948562374315,-7.2944517551067181,-6.9305086539753056,-6.5665655528431905,-6.2026224517103712,-5.83867935057685,-5.474736249442631,-5.1107931483077129,-4.7468500471720949,-4.3829069460357735,-4.01896384489875,-3.6550207437610269,-3.2910776426226027,-2.9271345414834795,-2.5631914403436533,-2.1992483392031246,-1.8353052380618986,-1.4713621369199723,-1.1074190357773459,-0.74347593463401784,-0.41048573096842733,-0.14971992999907471,0.11104587097099651,0.37181167194178061,0.632577472913279,0.893343273885494,1.1541090748584226,1.4148748758320688,1.6756406768064298,1.9364064777815035,2.1971722787572916,2.4579380797337969,2.7187038807110167,2.9794696816889532,3.240235482667603,3.5010012836469673,3.7617670846270497,4.0225328856078448,4.2832986865893581,4.5440644875715819,4.7516062576112938,4.8793107235192714,5.0070151894279968,5.1347196553374719,5.2624241212476992,5.3901285871586806,5.5178330530704036,5.6455375189828825,5.7732419848961127,5.9009464508100962,6.0286509167248266,6.156355382640303,6.2840598485565318,6.41176431447351,6.5394687803912417,6.6671732463097255,6.79487771222896,6.9225821781489447,7.0502866440696756,7.1779911099911571,7.1625786989604281,7.13087254001058,7.0991663810614956,7.0674602221131755,7.0357540631656388,7.0040479042188757,6.972341745272896,6.9406355863276756,6.9089294273832449,6.8772232684395833,6.8455171094966962,6.8138109505545863,6.7821047916132446,6.75039863267268,6.7186924737328919,6.6869863147938773,6.6552801558556416,6.6235739969181795,6.4829193784508519,6.2696307372877591,6.0563420961254941,5.8430534549640569,5.6297648138034493,5.4164761726436748,5.2031875314847307,4.989898890326625,4.7766102491693418,4.5633216080128918,4.350032966857281,4.1367443257024927,3.9234556845485393,3.7101670433954177,3.4968784022431225,3.2835897610916676,3.0703011199410368,2.8570124787912405,2.6437238376422778,2.4304351964941469,2.0776561888978278,1.6650937121263079,1.2525312353556064,0.839968758585733,0.42740628181666995,0.014843805048446982,-0.39771867171895925,-0.81028114848555743,-1.2228436252513164,-1.6354061020162667,-2.0479685787803845,-2.4605310555436861,-2.873093532306159,-3.2856560090678246,-3.6982184858286482,-4.1107809625886631,-4.5233434393478493,-4.93590591610621,-5.3484683928637544,-5.7610308696204777,-6.3431756579026466,-6.9677180277196875,-7.5922603975358287,-8.2168027673510586,-8.8413451371653835,-9.4658875069787971,-10.090429876791305,-10.714972246602889,-11.339514616413569,-11.964056986223367,-12.588599356032221,-13.213141725840192,-13.837684095647226,-14.462226465453387,-15.086768835258617,-15.711311205062946,-16.335853574866345,-16.960395944668864,-17.584938314470474,-18.209480684271156,-19.0318241294678,-19.8761475493205,-20.720470969172272,-21.564794389023074,-22.409117808872946,-23.2534412287219,-24.097764648569914,-24.94208806841695,-25.786411488263116,-26.630734908108305,-27.475058327952592,-28.319381747795919,-29.163705167638287,-30.008028587479789,-30.852352007320292,-31.696675427159885,-32.540998846998527,-33.385322266836219,-34.229645686673024,-35.073969106508848,0,0.02141102230167501,0.054978058742471331,0.10847624233185235,0.18733889033662185,0.29200289149266156,0.42257387988044814,0.57895613410102131,0.76082806131316094,0.96754179197865031,1.1208809519189122,1.4775644994185242
DP 58,174.8226719358714,0.005876166025266482,-76.181667097354335,-74.674998168158652,-73.1683292389608,-71.66166030976072,-70.154991380558457,-68.648322451353948,-67.14165352214728,-65.634984592938252,-64.128315663727179,-62.621646734513781,-61.11497780529821,-59.6083088760804,-58.101639946860409,-56.594971017638187,-55.088302088413748,-53.581633159187113,-52.074964229958262,-50.5682953007272,-49.061626371493929,-47.554957442258448,-46.059557295386909,-44.6655772549825,-43.27159721457587,-41.877617174166986,-40.483637133755856,-39.089657093342488,-37.695677052926918,-36.301697012509059,-34.907716972088977,-33.513736931666671,-32.119756891242112,-30.725776850815283,-29.331796810386255,-27.937816769954996,-26.543836729521452,-25.149856689085684,-23.755876648647678,-22.361896608207427,-20.967916567764931,-19.573936527320232,-18.226136806554106,-17.063060547055368,-15.899984287554334,-14.736908028050944,-13.573831768545285,-12.410755509037312,-11.247679249527021,-10.084602990014416,-8.9215267304995187,-7.7584504709822948,-6.5953742114627634,-5.4322979519409058,-4.26922169241675,-3.1061454328902851,-1.9430691733615046,-0.77999291383041514,0.38308334570298375,1.546159605238689,2.7092358647766996,3.8723121243170273,4.9346032012394812,5.7617256765651552,6.5888481518931776,7.4159706272235528,8.2430931025562764,9.0702155778913571,9.897338053228788,10.724460528568571,11.551583003910711,12.378705479255188,13.205827954602027,14.03295042995121,14.860072905302756,15.687195380656666,16.514317856012909,17.3414403313715,18.168562806732456,18.995685282095774,19.822807757461415,20.649930232829433,21.30525733481841,21.702887317104047,22.100517299392049,22.498147281682495,22.895777263975358,23.293407246270633,23.691037228568359,24.088667210868479,24.486297193171009,24.883927175475943,25.281557157783343,25.679187140093127,26.076817122405334,26.474447104719932,26.872077087037006,27.269707069356432,27.667337051678324,28.06496703400262,28.462597016329337,28.860226998658444,28.779506105462492,28.66769078865191,28.555875471843809,28.44406015503818,28.332244838235013,28.220429521434308,28.108614204636098,27.996798887840331,27.884983571047073,27.773168254256245,27.661352937467878,27.54953762068201,27.437722303898617,27.325906987117676,27.214091670339183,27.102276353563216,26.990461036789668,26.878645720018621,26.422126310988407,25.73579874341679,25.049471175847742,24.363143608281291,23.676816040717448,22.990488473156205,22.304160905597602,21.617833338041574,20.931505770488133,20.245178202937296,19.558850635389103,18.872523067843485,18.186195500300478,17.499867932760083,16.813540365222245,16.127212797687061,15.440885230154445,14.754557662624455,14.068230095097064,13.381902527572294,12.258291119343998,10.947266446119947,9.6362417728984511,8.32521709967953,7.0141924264631585,5.7031677532494021,4.3921430800382035,3.0811184068295234,1.7700937336234719,0.45906906041994355,-0.85195561278098531,-2.16298028597936,-3.4740049591751432,-4.7850296323684,-6.0960543055590364,-7.4070789787471369,-8.7181036519326511,-10.02912832511559,-11.340152998295975,-12.651177671473784,-14.48993677230818,-16.460635715358858,-18.43133465840673,-20.402033601451841,-22.37273254449418,-24.343431487533721,-26.314130430570522,-28.28482937360447,-30.255528316635669,-32.226227259664121,-34.196926202689724,-36.167625145712613,-38.138324088732638,-40.109023031749949,-42.079721974764432,-44.050420917776165,-46.021119860785106,-47.991818803791304,-49.962517746794617,-51.933216689795259,-54.516523193225055,-57.167903637230694,-59.819284081233484,-62.470664525233332,-65.1220449692305,-67.773425413224714,-70.424805857216072,-73.076186301204558,-75.7275667451903,-78.378947189173132,-81.0303276331531,-83.681708077130381,-86.333088521104585,-88.984468965076047,-91.635849409044667,-94.287229853010459,-96.938610296973422,-99.58999074093343,-102.24137118489077,-104.89275162884499,0,0.06004195694027787,0.16175468544983959,0.32784411680865833,0.57318650115148306,0.899166061921601,1.3061817849631474,1.79394462253401,2.3614082226586963,3.0064668133965942,3.4853924424376732,4.5980820215350633
DP 59,79.718838156963869,0.001489269862878381,-10.854668138533768,-10.69756089499543,-10.540453651456959,-10.383346407918328,-10.226239164379573,-10.06913192084067,-9.9120246773016234,-9.7549174337624276,-9.5978101902230932,-9.44070294668362,-9.2835957031440035,-9.126488459604241,-8.9693812160643418,-8.8122739725242916,-8.6551667289841028,-8.4980594854437772,-8.3409522419032953,-8.1838449983626784,-8.0267377548219212,-7.86963051128101,-7.7136597150382862,-7.5679170519021541,-7.4221743887658613,-7.276431725629422,-7.1306890624928174,-6.9849463993560619,-6.8392037362191473,-6.6934610730820765,-6.5477184099448529,-6.4019757468074729,-6.2562330836699349,-6.1104904205322415,-5.96474775739439,-5.8190050942563873,-5.673262431118224,-5.52751976797991,-5.3817771048414347,-5.236034441702806,-5.0902917785640236,-4.9445491154250805,-4.8034873329120833,-4.6811492941282351,-4.558811255344196,-4.436473216559957,-4.3141351777755226,-4.1917971389909008,-4.0694591002060791,-3.9471210614210617,-3.824783022635851,-3.7024449838504441,-3.5801069450648444,-3.4577689062790475,-3.3354308674930579,-3.2130928287068712,-3.0907547899204872,-2.9684167511339123,-2.8460787123471407,-2.7237406735601781,-2.6014026347730179,-2.4790645959856619,-2.3670440777858333,-2.2790980993693797,-2.1911521209527236,-2.103206142535869,-2.0152601641188124,-1.9273141857015559,-1.8393682072840982,-1.7514222288664372,-1.6634762504485778,-1.575530272030518,-1.487584293612257,-1.3996383151937957,-1.3116923367751303,-1.2237463583562671,-1.1358003799372018,-1.0478544015179352,-0.95990842309846824,-0.8719624446787998,-0.78401646625893129,-0.69607048783886172,-0.62592171867076241,-0.58246918394004576,-0.5390166492091002,-0.49556411447792326,-0.45211157974651534,-0.40865904501487682,-0.36520651028300904,-0.3217539755509094,-0.27830144081858055,-0.23484890608602033,-0.19139637135322982,-0.14794383662020921,-0.10449130188695729,-0.0610387671534758,-0.017586232419763145,0.0258663023141796,0.069318837048352663,0.11277137178275783,0.1562239065173919,0.19967644125225634,0.19624033684654843,0.18617528696648208,0.17611023708666271,0.16604518720709072,0.15598013732776761,0.14591508744869239,0.13585003756986591,0.12578498769128404,0.11571993781295274,0.10565488793486798,0.095589838057032417,0.085524788179444908,0.075459738302103854,0.065394688425011477,0.055329638548167311,0.045264588671570495,0.0351995387952215,0.02513448891912138,-0.021644655744106834,-0.092900441981979012,-0.16415622821956494,-0.23541201445686943,-0.30666780069388827,-0.37792358693062461,-0.4491793731670739,-0.52043515940323992,-0.59169094563912261,-0.66294673187471942,-0.73420251811002968,-0.8054583043450585,-0.87671409057980276,-0.94796987681426037,-1.0192256630484355,-1.0904814492823249,-1.1617372355159321,-1.2329930217492526,-1.3042488079822885,-1.3755045942150397,-1.4939376014927646,-1.6325900548292354,-1.7712425081654233,-1.9098949615013259,-2.0485474148369511,-2.187199868172288,-2.3258523215073419,-2.4645047748421161,-2.6031572281766069,-2.7418096815108162,-2.8804621348447408,-3.0191145881783839,-3.1577670415117409,-3.2964194948448209,-3.4350719481776135,-3.5737244015101242,-3.7123768548423515,-3.851029308174295,-3.9896817615059574,-4.1283342148373379,-4.32449535327107,-4.535034342458534,-4.745573331645665,-4.9561123208324656,-5.1666513100189251,-5.3771902992050506,-5.5877292883908432,-5.7982682775762973,-6.0088072667614192,-6.21934625594621,-6.4298852451306621,-6.6404242343147768,-6.8509632234985531,-7.061502212682008,-7.2720412018651173,-7.4825801910479,-7.6931191802303411,-7.9036581694124441,-8.1141971585942159,-8.3247361477756581,-8.6024766228253711,-8.8876846354163774,-9.17289264800703,-9.4581006605973226,-9.7433086731872844,-10.028516685776863,-10.313724698366105,-10.598932710954987,-10.884140723543528,-11.169348736131711,-11.45455674871954,-11.739764761307022,-12.024972773894143,-12.310180786480919,-12.595388799067344,-12.880596811653414,-13.165804824239141,-13.45101283682448,-13.736220849409511,-14.02142886199416,0,0.010759452938944236,0.023833713697223154,0.042694225013240696,0.070138012464549079,0.10637661504598817,0.15144088384150378,0.2053046826806513,0.26788538312623456,0.339000452313212,0.39141466471871672,0.51374324026316409
DP 60,177.10692180558345,0.0039180176278246744,-51.214432279280629,-50.198515221526364,-49.182598163770571,-48.166681106013364,-47.150764048254636,-46.134846990494367,-45.118929932732719,-44.103012874969444,-43.087095817204748,-42.07117875943851,-41.05526170167083,-40.039344643901615,-39.023427586130929,-38.00751052835875,-36.991593470585073,-35.975676412809875,-34.959759355033228,-33.943842297255046,-32.927925239475357,-31.912008181694258,-30.903701993379485,-29.96389434968636,-29.024086705991703,-28.08427906229554,-27.14447141859787,-26.204663774898695,-25.264856131197988,-24.325048487495796,-23.385240843792062,-22.445433200086828,-21.505625556380092,-20.565817912671836,-19.626010268962066,-18.686202625250779,-17.746394981537989,-16.806587337823689,-15.866779694107883,-14.926972050390546,-13.987164406671692,-13.047356762951351,-12.138728964535851,-11.354822020947184,-10.570915077356963,-9.7870081337651911,-9.0031011901718614,-8.2191942465769738,-7.4352873029805284,-6.6513803593825234,-5.8674734157829596,-5.0835664721818414,-4.299659528579161,-3.5157525849749165,-2.73184564136912,-1.9479386977617645,-1.164031754152852,-0.38012481054237918,0.40378213306964861,1.1876890766832313,1.9715960202983693,2.7555029639150672,3.4713942555326756,4.0285802161497335,4.5857661767683879,5.14295213738862,5.7001380980104326,6.2573240586338352,6.8145100192588339,7.3716959798854118,7.9288819405135706,8.4860679011433113,9.043253861774641,9.6004398224075658,10.157625783042064,10.714811743678153,11.271997704315835,11.829183664955085,12.386369625595934,12.943555586238361,13.500741546882384,14.057927507527985,14.499246502038098,14.76676230933429,15.034278116632098,15.301793923931527,15.569309731232593,15.836825538535287,16.104341345839618,16.371857153145569,16.639372960453148,16.906888767762364,17.174404575073197,17.441920382385664,17.709436189699762,17.976951997015473,18.244467804332835,18.511983611651814,18.779499418972417,19.047015226294675,19.314531033618543,19.582046840944017,19.526203274812289,19.450362037804936,19.37452080079925,19.29867956379524,19.222838326792871,19.146997089792176,19.071155852793165,18.99531461579577,18.919473378800074,18.843632141806033,18.767790904813648,18.691949667822936,18.616108430833883,18.540267193846489,18.464425956860772,18.388584719876707,18.312743482894312,18.236902245913576,17.928898243202887,17.466115405913783,17.003332568626423,16.540549731340825,16.077766894056971,15.614984056774857,15.152201219494508,14.689418382215912,14.226635544939061,13.763852707663952,13.30106987039062,12.838287033119027,12.37550419584918,11.912721358581111,11.449938521314754,10.987155684050183,10.52437284678734,10.061590009526258,9.5988071722669357,9.13602433500937,8.378916911687039,7.4956664057523152,6.6124158998193172,5.7291653938880627,4.8459148879585063,3.9626643820307184,3.0794138761046543,2.1961633701802827,1.31291286425768,0.42966235833677685,-0.45358814758237803,-1.3368386534998129,-2.2200891594155032,-3.103339665329492,-3.9865901712417195,-4.86984067715224,-5.7530911830610245,-6.6363416889680664,-7.5195921948733959,-8.4028427007769988,-9.6411138170907371,-10.968144280656164,-12.295174744219734,-13.622205207781422,-14.949235671341244,-16.276266134899195,-17.60329659845528,-18.930327062009464,-20.257357525561812,-21.5843879891123,-22.911418452660879,-24.238448916207631,-25.565479379752443,-26.892509843295453,-28.219540306836549,-29.546570770375819,-30.873601233913153,-32.200631697448657,-33.527662160982295,-34.854692624514044,-36.593700020923947,-38.378486958852591,-40.163273896779366,-41.948060834704172,-43.732847772627117,-45.517634710548073,-47.30242164846716,-49.087208586384278,-50.871995524299564,-52.656782462212867,-54.44156940012433,-56.226356338033852,-58.011143275941414,-59.795930213847157,-61.58071715175091,-63.365504089652759,-65.150291027552782,-66.935077965450716,-68.719864903346888,-70.504651841241071,0,0.040271537719949964,0.10865757241649214,0.22041223714503078,0.3855035728329182,0.604864228330936,0.878764250145009,1.2070094199188861,1.5888945721028183,2.0230011490323103,2.3453119504591222,3.0941065837627657
DP 61,78.648453467300669,0.0026920046087056115,-19.398405762295603,-19.120231900485958,-18.842058038676065,-18.563884176865923,-18.285710315055542,-18.007536453244914,-17.72936259143404,-17.451188729622906,-17.173014867811542,-16.894841005999911,-16.61666714418806,-16.338493282375943,-16.060319420563577,-15.78214555875098,-15.503971696938136,-15.225797835125025,-14.947623973311684,-14.669450111498099,-14.391276249684264,-14.113102387870178,-13.836940651989101,-13.578888239701882,-13.320835827414392,-13.062783415126624,-12.804731002838592,-12.546678590550282,-12.288626178261714,-12.030573765972873,-11.772521353683755,-11.514468941394369,-11.256416529104703,-10.998364116814782,-10.740311704524583,-10.48225929223411,-10.224206879943376,-9.9661544676523626,-9.708102055361076,-9.4500496430695282,-9.191997230777698,-8.9339448184856067,-8.68417926308731,-8.46756152691335,-8.2509437907390559,-8.0343260545643957,-7.8177083183894158,-7.60109058221409,-7.3844728460384195,-7.1678551098624084,-6.9512373736860624,-6.7346196375093665,-6.5180019013323305,-6.301384165154956,-6.0847664289772361,-5.8681486927991715,-5.6515309566207694,-5.4349132204420254,-5.2182954842629377,-5.0016777480835115,-4.7850600119037416,-4.56844227572363,-4.3700913850639393,-4.2143637094943074,-4.0586360339243219,-3.902908358353983,-3.7471806827832892,-3.5914530072122468,-3.4357253316408483,-3.2799976560690993,-3.1242699804969982,-2.9685423049245436,-2.8128146293517391,-2.6570869537785806,-2.5013592782050682,-2.3456316026312054,-2.1899039270569896,-2.03417625148242,-1.8784485759074996,-1.7227209003322246,-1.5669932247565994,-1.4112655491806227,-1.287047447292851,-1.2100944505287523,-1.1331414537642504,-1.0561884569993392,-0.97923546023402219,-0.90228246346829832,-0.82532946670217,-0.74837646993563389,-0.67142347316869389,-0.59447047640134443,-0.5175174796335904,-0.44056448286543021,-0.36361148609686311,-0.28665848932789062,-0.20970549255850926,-0.13275249578872481,-0.055799499018533073,0.021153497752066642,0.098106494523072352,0.17505949129448234,0.16903068290291343,0.15122838106451564,0.13342607922655492,0.11562377738903151,0.097821475551947992,0.080019173715300693,0.062216871879095269,0.044414570043320396,0.026612268207989145,0.008809966373091992,-0.0089923354613651828,-0.026794637295382961,-0.044596939128966451,-0.062399240962111059,-0.080201542794815284,-0.098003844627083669,-0.11580614645891393,-0.13360844829030613,-0.21641486934995,-0.34255839395117976,-0.46870191855190296,-0.59484544315212684,-0.72098896775184562,-0.84713249235106247,-0.973276016949771,-1.0994195415479775,-1.2255630661456824,-1.3517065907428807,-1.4778501153395724,-1.6039936399357637,-1.7301371645314516,-1.8562806891266317,-1.9824242137213117,-2.1085677383154842,-2.2347112629091574,-2.3608547875023214,-2.4869983120949826,-2.6131418366871411,-2.8228199946197274,-3.0682998376760211,-3.3137796807318165,-3.5592595237871079,-3.8047393668419049,-4.0502192098961913,-4.2956990529499723,-4.54117889600327,-4.7866587390560547,-5.0321385821083435,-5.2776184251601244,-5.5230982682114087,-5.7685781112621886,-6.0140579543124737,-6.259537797362249,-6.5050176404115279,-6.7504974834603075,-6.9959773265085845,-7.241457169556357,-7.4869370126036259,-7.8342415916957684,-8.207003557881448,-8.5797655240665378,-8.95252749025103,-9.3252894564349376,-9.6980514226182386,-10.07081338880095,-10.443575354983055,-10.816337321164568,-11.1890992873455,-11.561861253525814,-11.934623219705561,-12.307385185884671,-12.680147152063226,-13.052909118241171,-13.425671084418529,-13.798433050595277,-14.171195016771444,-14.543956982947003,-14.916718949121966,-15.4084751654352,-15.91345421482457,-16.418433264213341,-16.923412313601457,-17.428391362988954,-17.933370412375826,-18.438349461762055,-18.943328511147662,-19.448307560532651,-19.953286609917008,-20.458265659300757,-20.963244708683831,-21.468223758066319,-21.973202807448164,-22.478181856829409,-22.98316090621,-23.488139955589972,-23.993119004969291,-24.498098054348034,-25.003077103726092,0,0.019369074060351692,0.042682721671753063,0.076154767129916368,0.12481722467061664,0.18905439987605019,0.26892265091119255,0.36437731401466278,0.47527509703271043,0.60129639691598058,0.6941398069126502,0.910849816391631
DP 62,175.67755770569948,0.0020743951034648011,-26.976796924841821,-26.442666326568627,-25.908535728294638,-25.374405130019891,-24.840274531744324,-24.306143933467997,-23.772013335190863,-23.237882736912976,-22.70375213863429,-22.169621540354829,-21.635490942074561,-21.101360343793523,-20.567229745511696,-20.033099147229073,-19.498968548945673,-18.964837950661483,-18.430707352376544,-17.896576754090781,-17.362446155804243,-16.828315557516927,-16.298182302725955,-15.804025517254592,-15.309868731782418,-14.815711946309461,-14.321555160835697,-13.827398375361154,-13.333241589885809,-12.839084804409666,-12.344928018932738,-11.850771233455015,-11.356614447976488,-10.862457662497167,-10.368300877017059,-9.8741440915361487,-9.379987306054451,-8.8858305205719574,-8.3916737350886628,-7.89751694960458,-7.4033601641196993,-6.9092033786340252,-6.43142624138425,-6.0191684712054467,-5.6069107010258206,-5.1946529308453755,-4.7823951606641133,-4.3701373904820286,-3.9578796202991229,-3.5456218501154009,-3.1333640799308613,-2.7211063097455006,-2.308848539559321,-1.8965907693723194,-1.4843329991845022,-1.072075228995863,-0.65981745880640552,-0.24755968861612862,0.16469808157496654,0.57695585176687869,0.9892136219596096,1.4014713921531596,1.777988635692771,2.0711101909454683,2.3642317461990046,2.6573533014533686,2.9504748567085706,3.2435964119646048,3.5367179672214739,3.8298395224791726,4.1229610777377079,4.4160826329970755,4.7092041882572779,5.0023257435183153,5.2954472987801831,5.5885688540428884,5.8816904093064339,6.1748119645707957,6.4679335198360022,6.7610550751020462,7.0541766303689224,7.3472981856366211,7.57951059752171,7.7203578550107705,7.8612051125006843,8.00205236999145,8.1428996274830681,8.2837468849755442,8.424594142468889,8.5654413999630847,8.70628865745813,8.8471359149540376,8.9879831724508055,9.12883042994842,9.2696776874469009,9.4105249449462338,9.55137220244643,9.6922194599474825,9.8330667174493787,9.973913974952147,10.114761232455761,10.255608489960236,10.226714585684787,10.186987231111576,10.147259876539248,10.107532521967793,10.067805167397205,10.028077812827492,9.9883504582586653,9.9486231036907036,9.9088957491236229,9.8691683945574162,9.8294410399920835,9.7897136854276265,9.7499863308640418,9.7102589763013274,9.6705316217395048,9.6308042671785454,9.59107691261847,9.5513495580592576,9.3894729249536191,9.14616151517927,8.9028501054058253,8.6595386956333069,8.4162272858617122,8.17291587609103,7.9296044663212912,7.6862930565524623,7.4429816467845518,7.199670237017564,6.9563588272515133,6.71304741748637,6.469736007722152,6.2264245979588617,5.9831131881964836,5.739801778435039,5.4964903686745075,5.2531789589149014,5.0098675491562181,4.7665561393984568,4.3683256375780761,3.9036991472690064,3.4390726569608407,2.9744461666535935,2.5098196763472416,2.04519318604182,1.5805666957373041,1.1159402054336822,0.65131371513099,0.18668722482919187,-0.27793926547168557,-0.74256575577165729,-1.2071922460707112,-1.6718187363688692,-2.136445226666102,-2.6010717169624331,-3.0656982072578511,-3.5303246975523535,-3.9949511878459547,-4.4595776781386425,-5.1111318538881667,-5.8094201595949562,-6.5077084653007722,-7.2059967710055925,-7.9042850767094368,-8.6025733824122916,-9.3008616881141748,-9.9991499938150454,-10.697438299514941,-11.395726605213879,-12.094014910911778,-12.792303216608747,-13.490591522304674,-14.188879827999662,-14.887168133693635,-15.585456439386647,-16.283744745078664,-16.9820330507697,-17.680321356459736,-18.3786096621488,-19.293860564303124,-20.233220700252424,-21.17258083620073,-22.111940972147973,-23.051301108094268,-23.990661244039536,-24.930021379983778,-25.869381515927014,-26.808741651869276,-27.748101787810484,-28.687461923750696,-29.62682205968995,-30.566182195628119,-31.505542331565366,-32.444902467501528,-33.384262603436753,-34.323622739370919,-35.26298287530404,-36.202343011236273,-37.141703147167377,0,0.021243216515991797,0.057262755442402412,0.11609701716584256,0.20300737651116066,0.31848441830434354,0.46266976102992019,0.63546115005960524,0.83648760108740983,1.0650029070975349,1.2346661700286208,1.6288393256274771
DP 63,139.47592957609558,0.0051536087333750322,-57.63162116999456,-56.55684808382037,-55.482074997644681,-54.407301911467421,-53.332528825288705,-52.257755739108433,-51.1829826529267,-50.108209566743405,-49.033436480558585,-47.958663394372316,-46.883890308184547,-45.8091172219952,-44.734344135804392,-43.659571049612026,-42.584797963418218,-41.510024877222847,-40.435251791025941,-39.3604787048276,-38.285705618627709,-37.210932532426284,-36.1440390903488,-35.148063190216533,-34.152087290082719,-33.156111389947384,-32.160135489810479,-31.164159589672057,-30.168183689532086,-29.172207789390541,-28.176231889247507,-27.180255989102889,-26.184280088956765,-25.188304188809077,-24.192328288659851,-23.196352388509077,-22.200376488356774,-21.204400588202919,-20.208424688047522,-19.212448787890576,-18.216472887732095,-17.220496987572083,-16.256926808395072,-15.422981044694197,-14.589035280991675,-13.755089517287542,-12.921143753581781,-12.087197989874392,-11.25325222616539,-10.419306462454744,-9.5853606987424875,-8.751414935028599,-7.9174691713130931,-7.0835234075959468,-6.249577643877184,-5.415631880156786,-4.5816861164347733,-3.7477403527111286,-2.9137945889858625,-2.079848825258976,-1.2459030615304649,-0.411957297800326,0.350849478846444,0.94766304422089742,1.5444766095970204,2.1412901749747908,2.7381037403542181,3.3349173057353081,3.9317308711180536,4.52854443650246,5.1253580018885181,5.7221715672762343,6.3189851326656088,6.9157986980566308,7.5126122634493235,8.10942582884367,8.7062393942396756,9.3030529596373341,9.8998665250366535,10.496680090437632,11.09349365584027,11.690307221244563,12.164960738636408,12.45637129728938,12.747781855944071,13.039192414600498,13.330602973258655,13.622013531918528,13.913424090580145,14.204834649243477,14.496245207908538,14.78765576657533,15.079066325243852,15.370476883914106,15.661887442586087,15.953298001259785,16.244708559935219,16.53611911861238,16.82752967729127,17.118940235971891,17.410350794654221,17.701761353338309,17.662747736227026,17.588859487076995,17.514971237928723,17.441082988782235,17.367194739637526,17.293306490494594,17.219418241353456,17.145529992214076,17.071641743076476,16.997753493940657,16.923865244806635,16.849976995674378,16.776088746543888,16.702200497415209,16.628312248288278,16.554423999163134,16.480535750039767,16.406647500918183,16.083490077698347,15.594149278165153,15.104808478633865,14.615467679104503,14.126126879576987,13.636786080051397,13.147445280527698,12.658104481005905,12.168763681486004,11.679422881968001,11.190082082451902,10.700741282937694,10.211400483425388,9.7220596839149938,9.2327188844064683,8.7433780848998719,8.2540372853951531,7.7646964858923431,7.2753556863914257,6.7860148868924215,5.9779875241292215,5.0333759024198441,4.0887642807123408,3.1441526590067252,2.1995410373029562,1.25492941560111,0.31031779390112496,-0.63429382779701793,-1.5789054494932393,-2.5235170711876203,-3.4681286928801045,-4.4127403145707227,-5.3573519362594455,-6.3019635579463253,-7.2465751796312921,-8.1911868013144069,-9.1357984229956237,-10.080410044674974,-11.025021666352458,-11.969633288028053,-13.301243142297357,-14.729607127187101,-16.157971112074772,-17.586335096960376,-19.01469908184394,-20.443063066725426,-21.87142705160489,-23.299791036482215,-24.728155021357527,-26.156519006230809,-27.584882991101967,-29.013246975971118,-30.441610960838126,-31.869974945703159,-33.298338930566096,-34.726702915426976,-36.155066900285775,-37.58343088514254,-39.011794869997239,-40.440158854849862,-42.319578929373378,-44.2491210843737,-46.178663239372,-48.108205394368163,-50.037747549362159,-51.967289704354073,-53.896831859343813,-55.826374014331471,-57.75591616931704,-59.685458324300463,-61.615000479281818,-63.544542634260971,-65.474084789238077,-67.403626944213073,-69.333169099185838,-71.2627112541566,-73.192253409125215,-75.12179556409167,-77.051337719056136,-78.980879874018271,0,0.047299120745090885,0.12320601994539299,0.24508017618475511,0.42485261363972238,0.66352015686065757,0.96133816093876989,1.3180898148229367,1.7330315623637307,2.204666291808187,2.5546285143974536,3.3683983465444163
DP 64,92.700052009280839,0.00199963594995082,-16.507443741882167,-16.245775149720252,-15.984106557558079,-15.722437965395603,-15.460769373232834,-15.199100781069779,-14.937432188906445,-14.675763596742796,-14.414095004578865,-14.15242641241464,-13.89075782025014,-13.629089228085345,-13.367420635920249,-13.105752043754872,-12.844083451589205,-12.582414859423251,-12.320746267256991,-12.059077675090455,-11.797409082923622,-11.535740490756497,-11.275967164680809,-11.033251412578945,-10.790535660476774,-10.547819908374308,-10.305104156271526,-10.062388404168438,-9.81967265206504,-9.5769568999613313,-9.3342411478573286,-9.091525395753024,-8.8488096436484032,-8.6060938915434786,-8.363378139438236,-8.1206623873327057,-7.8779466352268583,-7.6352308831207063,-7.3925151310142514,-7.149799378907483,-6.907083626800409,-6.6643678746930313,-6.4294592554470738,-6.225779536623663,-6.0220998177999032,-5.8184200989757811,-5.6147403801513143,-5.4110606613264878,-5.20738094250131,-5.003701223675777,-4.8000215048498918,-4.5963417860236495,-4.3926620671970547,-4.1889823483701072,-3.9853026295428036,-3.7816229107151473,-3.5779431918871389,-3.3742634730587708,-3.1705837542300537,-2.9669040354009852,-2.76322431657156,-2.5595445977417843,-2.3730657493671581,-2.2267228073441383,-2.0803798653207517,-1.9340369232970056,-1.7876939812728951,-1.6413510392484221,-1.4950080972235855,-1.3486651551983846,-1.2023222131728226,-1.0559792711468963,-0.90963632912060877,-0.76329338709395855,-0.61695044506694241,-0.47060750303956489,-0.3242645610118241,-0.17792161898371961,-0.031578676955252544,0.11476426507357854,0.26110720710277163,0.4074501491323273,0.52412927758525185,0.59631198469832891,0.66849469181180532,0.740677398925682,0.81286010603996051,0.88504281315463706,0.9572255202697123,1.0294082273851888,1.101590934501065,1.1737736416173414,1.2459563487340157,1.3181390558510921,1.3903217629685687,1.4625044700864407,1.534687177204717,1.6068698843233893,1.6790525914424628,1.7512352985619402,1.8234180056818121,1.8956007128020858,1.8892650848618626,1.8722941237236912,1.8553231625859439,1.8383522014486138,1.8213812403117111,1.804410279175227,1.7874393180391681,1.7704683569035287,1.7534973957683131,1.7365264346335187,1.7195554734991476,1.7025845123651984,1.6856135512316723,1.6686425900985662,1.6516716289658857,1.6347006678336233,1.617729706701786,1.6007587455703722,1.5226530240369547,1.4037898324695375,1.2849266409025921,1.1660634493361155,1.0472002577701092,0.92833706620457213,0.80947387463950893,0.69061068307491569,0.57174749151079107,0.452884299947137,0.3340211083839591,0.21515791682124782,0.096294725259006314,-0.022568466302760892,-0.14143165786406112,-0.26029484942488773,-0.37915804098524736,-0.49802123254513303,-0.61688442410454725,-0.73574761566349156,-0.93313220310198886,-1.1641698776294966,-1.3952075521565364,-1.626245226683108,-1.8572829012092187,-2.0883205757348535,-2.3193582502600214,-2.5503959247847345,-2.7814335993089672,-3.0124712738327433,-3.2435089483560438,-3.4745466228788828,-3.7055842974012543,-3.93662197192316,-4.1676596464445934,-4.398697320965562,-4.629734995486066,-4.8607726700060976,-5.0918103445256646,-5.3228480190447645,-5.6495741689046213,-6.0002235681807052,-6.3508729674562536,-6.7015223667312682,-7.05217176600574,-7.4028211652796791,-7.7534705645530808,-8.1041199638259425,-8.4547693630982614,-8.80541876237006,-9.1560681616412971,-9.506717560912012,-9.8573669601821852,-10.208016359451834,-10.558665758720924,-10.909315157989484,-11.259964557257513,-11.610613956524999,-11.961263355791949,-12.311912755058351,-12.774353361418072,-13.249216387088458,-13.724079412758289,-14.198942438427537,-14.673805464096253,-15.148668489764388,-15.62353151543198,-16.098394541098997,-16.573257566765456,-17.048120592431363,-17.522983618096692,-17.9978466437615,-18.4727096694257,-18.947572695089363,-19.422435720752446,-19.897298746414993,-20.372161772076964,-20.847024797738371,-21.321887823399241,-21.796750849059535,0,0.015232858413905466,0.03565259275321795,0.066434376035347423,0.1115352360646782,0.17123848403200048,0.24558945341350052,0.33453541624903849,0.43791619649517494,0.55539965792030288,0.64228044783816807,0.84480219773659937
DP 65,88.483582911662467,0.0029702704056559421,-23.609983246606291,-23.245243864722379,-22.880504482838049,-22.515765100953384,-22.151025719068297,-21.786286337182844,-21.421546955297003,-21.056807573410776,-20.692068191524168,-20.327328809637162,-19.962589427749794,-19.597850045862028,-19.233110663973875,-18.868371282085352,-18.503631900196424,-18.138892518307117,-17.774153136417443,-17.409413754527364,-17.044674372636909,-16.679934990746073,-16.317836018698294,-15.979500984824147,-15.641165950949572,-15.3028309170746,-14.964495883199231,-14.626160849323421,-14.287825815447217,-13.949490781570614,-13.611155747693582,-13.272820713816161,-12.934485679938318,-12.59615064606006,-12.257815612181409,-11.919480578302341,-11.581145544422863,-11.242810510542977,-10.904475476662677,-10.566140442781979,-10.227805408900858,-9.8894703750193322,-9.5620126880150131,-9.2780649025992528,-8.9941171171830163,-8.7101693317662932,-8.42622154634909,-8.1422737609313991,-7.8583259755132326,-7.5743781900945857,-7.2904304046754529,-7.00648261925584,-6.7225348338357422,-6.4385870484151564,-6.1546392629940989,-5.8706914775725574,-5.5867436921505309,-5.3027959067280221,-5.0188481213050364,-4.7349003358815613,-4.4509525504576111,-4.1670047650331776,-3.9070246439921368,-3.7029698283399357,-3.4989150126872364,-3.2948601970340445,-3.0908053813803593,-2.8867505657261723,-2.6826957500714963,-2.4786409344163212,-2.2745861187606549,-2.070531303104489,-1.8664764874478315,-1.6624216717906786,-1.4583668561330285,-1.2543120404748835,-1.0502572248162438,-0.84620240915710843,-0.64214759349747674,-0.43809277783735068,-0.23403796217672967,-0.02998314651561482,0.13273171838046222,0.23343568023949679,0.33413964209908009,0.43484360395921662,0.53554756581990515,0.63625152768114634,0.73695548954293533,0.8376594514052772,0.93836341326816819,1.0390673751316153,1.1397713369956082,1.2404752988601551,1.3411792607252506,1.4418832225908993,1.5425871844570989,1.64329114632385,1.7439951081911536,1.8446990700590082,1.9454030319274127,2.0461069937963674,2.0375503712342997,2.013986694917437,1.9904230186011629,1.966859342285469,1.943295665970362,1.9197319896558398,1.8961683133419056,1.8726046370285503,1.8490409607157838,1.8254772844036002,1.8019136080920044,1.7783499317809925,1.7547862554705658,1.7312225791607239,1.707658902851467,1.6840952265427955,1.6605315502347082,1.6369678739272091,1.5281760328017813,1.3625640724712178,1.1969521121413143,1.0313401518120624,0.86572819148346847,0.70011623115553034,0.53450427082825436,0.36889231050163396,0.20328035017566598,0.037668389850358586,-0.12794357047428576,-0.29355553079827951,-0.45916749112161442,-0.62477945144428826,-0.79039141176631189,-0.95600337208767117,-1.1216153324083808,-1.2872272927284287,-1.4528392530478162,-1.6184512133665485,-1.8935522537455878,-2.2155786640227482,-2.5376050742992611,-2.8596314845751127,-3.1816578948503254,-3.5036843051248714,-3.8257107153987655,-4.147737125672025,-4.4697635359446082,-4.7917899462165581,-5.1138163564878463,-5.4358427667584843,-5.7578691770284651,-6.079895587297802,-6.4019219975664763,-6.7239484078345,-7.0459748181018789,-7.3680012283685947,-7.690027638634664,-8.0120540489000849,-8.4675199165526287,-8.9563472251694058,-9.4451745337854316,-9.93400184240069,-10.422829151015204,-10.911656459628954,-11.400483768241953,-11.889311076854188,-12.378138385465659,-12.866965694076395,-13.355793002686356,-13.844620311295563,-14.333447619904016,-14.822274928511725,-15.311102237118655,-15.799929545724822,-16.288756854330263,-16.777584162934932,-17.266411471538838,-17.755238780142,-18.399976579984081,-19.062039405178886,-19.724102230372928,-20.386165055566153,-21.048227880758581,-21.710290705950225,-22.372353531141083,-23.034416356331118,-23.696479181520409,-24.358542006708877,-25.020604831896573,-25.682667657083474,-26.344730482269576,-27.006793307454885,-27.668856132639394,-28.330918957823133,-28.992981783006055,-29.655044608188209,-30.317107433369543,-30.979170258550095,0,0.022230478383590609,0.051190016486824259,0.094327532715491991,0.15742622800326736,0.24090289114487265,0.34482074711578153,0.4691086649192534,0.6135509418635936,0.77769483041764331,0.89898110554870037,1.1818061887863127
DP 66,173.37119217551214,0.00551996582099993,-71.186208556023772,-69.781059536210108,-68.375910516394327,-66.970761496576458,-65.56561247675657,-64.16046345693465,-62.755314437110627,-61.350165417284479,-59.945016397456357,-58.539867377626145,-57.134718357793851,-55.729569337959546,-54.32442031812311,-52.919271298284734,-51.514122278444148,-50.108973258601587,-48.703824238756894,-47.298675218910212,-45.893526199061476,-44.488377179210616,-43.093727336066429,-41.793571075726057,-40.493414815383566,-39.193258555039016,-37.893102294692369,-36.592946034343655,-35.292789773992851,-33.992633513639952,-32.692477253284956,-31.392320992927853,-30.092164732568708,-28.792008472207424,-27.491852211844073,-26.191695951478646,-24.891539691111138,-23.591383430741505,-22.29122717036979,-20.991070909996008,-19.690914649620129,-18.390758389242176,-17.133634321944434,-16.048641060735235,-14.963647799523901,-13.878654538310402,-12.79366127709476,-11.708668015876947,-10.623674754656982,-9.5386814934348649,-8.4536882322105988,-7.3686949709841727,-6.2837017097555847,-5.198708448524842,-4.1137151872919473,-3.0287219260568965,-1.9437286648196894,-0.858735403580327,0.22625785766118853,1.311251118904853,2.3962443801506748,3.4812376413986481,4.4722858386097606,5.2441259264280937,6.0159660142486215,6.7878061020713476,7.5596461898962648,8.33148627772337,9.1033263655526717,9.8751664533841659,10.647006541217868,11.418846629053739,12.190686716891822,12.962526804732089,13.734366892574554,14.506206980419211,15.278047068266067,16.049887156115116,16.821727243966354,17.593567331819788,18.365407419675417,19.137247507533235,19.748892964769635,20.120242690572034,20.491592416376683,20.862942142183588,21.234291867992766,21.605641593804187,21.97699131961787,22.348341045433816,22.719690771251983,23.091040497072456,23.462390222895149,23.833739948720087,24.205089674547338,24.576439400376774,24.947789126208512,25.319138852042492,25.690488577878728,26.061838303717231,26.433188029557972,26.804537755400993,26.73047701793174,26.626581879362309,26.522686740795169,26.418791602230346,26.31489646366785,26.211001325107642,26.10710618654975,26.003211047994153,25.899315909440855,25.795420770889859,25.691525632341182,25.587630493794812,25.483735355250733,25.379840216708974,25.275945078169492,25.172049939632334,25.068154801097464,24.964259662564949,24.53865908888357,23.89858315704852,23.258507225215908,22.618431293385679,21.978355361557927,21.338279429732577,20.698203497909692,20.058127566089205,19.418051634271166,18.777975702455539,18.137899770642367,17.497823838831632,16.8577479070233,16.217671975217431,15.577596043413946,14.937520111612935,14.297444179814315,13.657368248018161,13.017292316224415,12.377216384433119,11.328869338477235,10.105543444947321,8.8822175514197941,7.6588916578946762,6.4355657643719377,5.2122398708516355,3.988913977333723,2.7655880838181659,1.542262190305064,0.31893629679431579,-0.904389596714007,-2.1277154902199431,-3.3510413837234605,-4.5743672772246162,-5.7976931707233268,-7.0210190642196748,-8.2443449577135954,-9.4676708512051224,-10.690996744694267,-11.914322638181007,-13.630527852917416,-15.469958721447389,-17.309389589974749,-19.148820458499507,-20.988251327021693,-22.827682195541279,-24.667113064058285,-26.506543932572633,-28.345974801084409,-30.185405669593617,-32.024836538100153,-33.864267406604156,-35.703698275105523,-37.543129143604354,-39.382560012100505,-41.221990880594078,-43.061421749085085,-44.900852617573527,-46.740283486059262,-48.57971435454251,-50.991414087106669,-53.46670525922066,-55.941996431332093,-58.417287603440776,-60.892578775546887,-63.3678699476502,-65.84316111975096,-68.318452291849,-70.793743463944452,-73.269034636037176,-75.744325808127314,-78.219616980214738,-80.694908152299561,-83.170199324381727,-85.645490496461164,-88.120781668537973,-90.596072840612166,-93.071364012683574,-95.54665518475251,-98.021946356818532,0,0.056187221927604412,0.15121916762367157,0.30632177592084259,0.53542504510198263,0.83982059285763766,1.2198794533790747,1.675331647035871,2.2052006212340083,2.8075221397325762,3.254710797129067,4.2936938260868054
DP 67,171.79578649581623,0.0050744621668168269,-65.0623380828506,-63.780810049356006,-62.499282015859492,-61.217753982361167,-59.936225948860923,-58.654697915358831,-57.373169881854878,-56.091641848348935,-54.8101138148412,-53.528585781331635,-52.247057747820079,-50.965529714306719,-49.684001680791468,-48.402473647274277,-47.12094561375531,-45.839417580234411,-44.557889546711642,-43.276361513186956,-41.99483347966045,-40.713305446132004,-39.441342707400523,-38.255468526009139,-37.069594344615872,-35.883720163220737,-34.697845981823647,-33.511971800424682,-32.3260976190238,-31.140223437621025,-29.954349256216332,-28.768475074809732,-27.582600893401271,-26.396726711990848,-25.21085253057856,-24.024978349164357,-22.839104167748257,-21.653229986330246,-20.467355804910319,-19.281481623488506,-18.095607442064782,-16.909733260639168,-15.763070514642468,-14.7732553635541,-13.783440212463768,-12.793625061371468,-11.803809910277218,-10.813994759180988,-9.8241796080828,-8.8343644569826463,-7.8445493058805207,-6.8547341547764358,-5.8649190036703827,-4.8751038525623569,-3.8852887014523732,-2.8954735503404256,-1.9056583992265077,-0.91584324811062445,0.07397190300722177,1.0637870541270285,2.0536022052488021,3.04341735637254,3.9476008166552696,4.6519743002690968,5.3563477838849289,6.0607212675027506,6.765094751122577,7.4694682347444115,8.1738417183682444,8.8782152019940686,9.5825886856219071,10.286962169251735,10.991335652883565,11.69570913651739,12.400082620153229,13.104456103791069,13.80882958743091,14.513203071072752,15.217576554716587,15.921950038362422,16.626323522010264,17.330697005660095,17.888995319316496,18.228177426132739,18.56735953295107,18.906541639771447,19.245723746593875,19.584905853418366,19.924087960244929,20.263270067073535,20.602452173904204,20.941634280736935,21.280816387571718,21.619998494408566,21.959180601247468,22.298362708088433,22.637544814931449,22.976726921776518,23.315909028623668,23.655091135472844,23.994273242324105,24.333455349177434,24.267096308180154,24.172715450793838,24.078334593409604,23.983953736027484,23.889572878647485,23.795192021269557,23.700811163893746,23.606430306520053,23.512049449148428,23.417668591778945,23.323287734411561,23.228906877046267,23.134526019683086,23.040145162321977,22.945764304963003,22.851383447606135,22.757002590251371,22.662621732898714,22.274617824146372,21.690860588808231,21.107103353472308,20.523346118138591,19.939588882807104,19.355831647477835,18.772074412150776,18.188317176825954,17.604559941503325,17.020802706182945,16.437045470864781,15.85328823554882,15.269531000235078,14.685773764923567,14.10201652961427,13.518259294307208,12.934502059002337,12.350744823699692,11.766987588399287,11.183230353101088,10.226682472047,9.1103621375480586,7.9940418030512861,6.8777214685567269,5.761401134064327,4.6450807995741545,3.5287604650861648,2.4124401306003262,1.2961197961167255,0.17979946163527985,-0.93652087284395147,-2.0528412073210056,-3.16916154179585,-4.2854818762685385,-5.4018022107389907,-6.5181225452072873,-7.634442879673375,-8.7507632141372618,-9.8670835485989823,-10.983403883058504,-12.549930875935773,-14.229014852711398,-15.908098829484668,-17.587182806255541,-19.266266783024061,-20.945350759790205,-22.624434736553976,-24.303518713315334,-25.982602690074369,-27.661686666831031,-29.340770643585277,-31.019854620337185,-32.698938597086645,-34.378022573833846,-36.057106550578588,-37.736190527320993,-39.415274504060967,-41.094358480798654,-42.77344245753391,-44.452526434266808,-46.654444590198452,-48.914460923731447,-51.174477257262005,-53.434493590790161,-55.694509924315838,-57.954526257839134,-60.214542591359944,-62.474558924878323,-64.734575258394329,-66.994591591907891,-69.254607925419052,-71.514624258927682,-73.774640592433954,-76.034656925937853,-78.294673259439222,-80.554689592938232,-82.814705926434769,-85.074722259928862,-87.334738593420667,-89.594754926909886,0,0.051435962822367842,0.13827828433580586,0.27993567732327157,0.48916907622641093,0.767157044979654,1.1142370681863867,1.5301620660410749,2.0140413979726874,2.564082861748799,2.9724496698610205,3.9212639798715183
DP 68,214.59745544326981,0.0014116257354015835,-20.808621115684151,-20.378562683304786,-19.948504250924795,-19.518445818544176,-19.088387386162914,-18.65832895378102,-18.228270521398507,-17.798212089015344,-17.368153656631552,-16.938095224247153,-16.508036791862079,-16.077978359476415,-15.647919927090079,-15.217861494703136,-14.787803062315547,-14.357744629927325,-13.927686197538476,-13.497627765149009,-13.067569332758874,-12.637510900368136,-12.210778072215716,-11.813975996563673,-11.417173920910987,-11.020371845257689,-10.623569769603735,-10.226767693949148,-9.8299656182939223,-9.433163542638054,-9.0363614669815586,-8.63955939132441,-8.2427573156666369,-7.8459552400082133,-7.44915316434916,-7.052351088689468,-6.6555490130291419,-6.2587469373681719,-5.8619448617065659,-5.4651427860443276,-5.0683407103814444,-4.6715386347179262,-4.288282797298395,-3.9592125530708029,-3.63014230884256,-3.3010720646136682,-2.9720018203841265,-2.6429315761539387,-2.3138613319230985,-1.9847910876916113,-1.6557208434594726,-1.3266505992266853,-0.99758035499324793,-0.66851011075915889,-0.33943986652442226,-0.010369622289035782,0.3187006219470005,0.64777086618368707,0.97684111042102184,1.3059113546590035,1.6349815988976368,1.9640518431369169,2.2638447790277176,2.4953230729841622,2.7268013669412703,2.9582796608990418,3.1897579548574648,3.4212362488165571,3.652714542776307,3.8841928367367151,4.1156711306977831,4.3471494246595173,4.5786277186219051,4.8101060125849529,5.041584306548665,5.2730626005130361,5.5045408944780743,5.7360191884437617,5.9674974824101126,6.1989757763771305,6.4304540703448012,6.66193236431313,6.84412609929339,6.9523918311658131,7.0606575630389043,7.1689232949126724,7.2771890267871111,7.3854547586622266,7.4937204905380117,7.6019862224144639,7.7102519542915946,7.8185176861693977,7.9267834180478731,8.0350491499270174,8.143314881806841,8.2515806136873344,8.3598463455685064,8.468112077450348,8.576377809332854,8.6846435412160456,8.7929092730999017,8.9011750049844416,8.865797931279829,8.82999368306806,8.7941894348569871,8.7583851866465938,8.72258093843688,8.6867766902278465,8.65097244201951,8.6151681938118525,8.5793639456048751,8.54355969739859,8.5077554491929828,8.47195120098806,8.43614695278382,8.40034270458027,8.3645384563774012,8.3287342081752183,8.2929299599737227,8.2571257117728969,8.125267839644577,7.9293727050302127,7.7334775704165644,7.5375824358036256,7.3416873011914108,7.1457921665799,6.9498970319691189,6.7540018973590445,6.5581067627496843,6.3622116281410426,6.1663164935331141,5.9704213589259068,5.7745262243194126,5.5786310897136362,5.3827359551085641,5.18684082050422,4.9909456859005781,4.7950505512976616,4.5991554166954636,4.4032602820939806,4.0871795821406041,3.7195891598711177,3.3519987376023335,2.984408315334258,2.6168178930668811,2.2492274708002253,1.8816370485342671,1.5140466262690029,1.1464562040044617,0.7788657817406125,0.41127535947747773,0.043684937215044094,-0.32390548504667738,-0.69149590730770549,-1.0590863295680142,-1.4266767518276251,-1.7942671740865268,-2.1618575963447211,-2.5294480186022161,-2.897038440859,-3.4080616224436491,-3.9549446885508939,-4.5018277546573851,-5.0487108207631168,-5.5955938868680963,-6.1424769529723111,-6.6893600190757789,-7.23624308517848,-7.7831261512804248,-8.3300092173816349,-8.8768922834820554,-9.42377534958174,-9.97065841568065,-10.517541481778817,-11.064424547876214,-11.611307613972876,-12.158190680068765,-12.705073746163915,-13.251956812258285,-13.7988398783519,-14.511004826032442,-15.241536163082241,-15.97206750013131,-16.702598837179554,-17.433130174227074,-18.163661511273805,-18.894192848319744,-19.624724185364922,-20.35525552240933,-21.085786859452966,-21.81631819649585,-22.546849533537941,-23.277380870579243,-24.007912207619814,-24.738443544659596,-25.468974881698625,-26.19950621873685,-26.930037555774295,-27.660568892811003,-28.391100229846884,0,0.015756963653390393,0.043304587414309544,0.088749397385523177,0.1559389106219142,0.24525930703996557,0.3568286715868017,0.49056922398421521,0.646189385686948,0.82310237899041627,0.95448710413028293,1.2595572502566696
DP 69,273.93418787416073,0.0034468106287482338,-59.369667334301958,-58.08348550516039,-56.797303676016945,-55.511121846871781,-54.224940017724755,-52.938758188575918,-51.652576359425261,-50.366394530272906,-49.080212701118654,-47.794030871962605,-46.507849042804779,-45.221667213645077,-43.935485384483627,-42.649303555320344,-41.363121726155271,-40.0769398969884,-38.790758067819709,-37.5045762386492,-36.218394409476907,-34.93221258030281,-33.656630612024962,-32.476448393772657,-31.296266175518564,-30.116083957262656,-28.935901739004898,-27.755719520745334,-26.575537302483966,-25.395355084220796,-24.21517286595579,-23.034990647688968,-21.854808429420352,-20.674626211149903,-19.494443992877631,-18.314261774603558,-17.134079556327688,-15.953897338049966,-14.773715119770463,-13.593532901489125,-12.413350683205977,-11.233168464921015,-10.095672126913101,-9.1289213274129573,-8.1621705279109715,-7.1954197284071615,-6.2286689289015271,-5.2619181293940622,-4.295167329884765,-3.3284165303736368,-2.361665730860683,-1.3949149313459004,-0.42816413182928414,0.53858666768916874,1.5053374672094437,2.4720882667315518,3.4388390662554862,4.4055898657812529,5.37234066530885,6.339091464838269,7.305842264369514,8.2725930639025957,9.1487825222676822,9.81365933121365,10.478536140161486,11.14341294911117,11.8082897580627,12.473166567016122,13.138043375971376,13.8029201849285,14.467796993887465,15.132673802848299,15.797550611810982,16.462427420775537,17.127304229741949,17.792181038710225,18.45705784768035,19.121934656652314,19.786811465626158,20.451688274601871,21.116565083579424,21.781441892558838,22.297547638607355,22.590493274703991,22.883438910802486,23.176384546902874,23.469330183005145,23.7622758191093,24.055221455215332,24.348167091323237,24.641112727433015,24.934058363544686,25.227003999658237,25.519949635773681,25.81289527189098,26.105840908010162,26.398786544131241,26.691732180254178,26.984677816379037,27.277623452505729,27.570569088634329,27.863514724764777,27.685841332928941,27.556182050066809,27.426522767206635,27.296863484348336,27.167204201491941,27.037544918637451,26.907885635784879,26.778226352934187,26.648567070085431,26.518907787238547,26.389248504393592,26.259589221550545,26.129929938709395,26.000270655870139,25.870611373032816,25.740952090197386,25.611292807363846,25.481633524532214,25.078673239903186,24.493507981904155,23.908342723907111,23.323177465912039,22.73801220791896,22.152846949927838,21.567681691938713,20.982516433951552,20.397351175966381,19.812185917983172,19.227020660001997,18.641855402022724,18.056690144045479,17.47152488607022,16.886359628096891,16.301194370125579,15.716029112156217,15.130863854188874,14.545698596223488,13.960533338260095,13.043276447126191,11.983690086076049,10.924103725027864,9.8645173639816264,8.8049310029373249,7.7453446418950112,6.6857582808546345,5.6261719198161746,4.5665855587797113,3.5069991977451553,2.44741283671258,1.3878264756819405,0.32824011465326863,-0.73134624637348689,-1.7909326073982503,-2.8505189684210923,-3.9101053294419712,-4.9696916904608877,-6.0292780514778777,-7.0888644124929039,-8.5351619153709031,-10.07814177279459,-11.621121630216221,-13.164101487635763,-14.707081345053226,-16.250061202468618,-17.793041059881951,-19.336020917293165,-20.879000774702348,-22.421980632109445,-23.964960489514439,-25.507940346917412,-27.050920204318203,-28.593900061717047,-30.13687991911371,-31.679859776508373,-33.222839633900939,-34.765819491291431,-36.3087993486798,-37.851779206066155,-39.833109063896956,-41.863149081068151,-43.893189098237258,-45.923229115404233,-47.953269132569091,-49.983309149731859,-52.0133491668925,-54.04338918405098,-56.0734292012074,-58.103469218361738,-60.133509235513905,-62.163549252664048,-64.193589269812037,-66.223629286957873,-68.253669304101635,-70.283709321243279,-72.313749338382834,-74.343789355520244,-76.3738293726556,-78.403869389788753,0,0.04199759348535409,0.11719173917159662,0.24228248952479109,0.42737620721354397,0.673555388879985,0.98116511184357391,1.3499937937913074,1.7792274873343348,2.2672276866475172,2.6296990747328044,3.4709159897842259
DP 70,184.00670920092668,0.0021590515181259128,-28.91007190565189,-28.331635554416962,-27.753199203181225,-27.174762851944624,-26.596326500707153,-26.017890149468847,-25.439453798229671,-24.861017446989646,-24.282581095748778,-23.704144744507044,-23.125708393264471,-22.547272042021063,-21.968835690776753,-21.39039933953163,-20.811962988285629,-20.233526637038793,-19.655090285791083,-19.076653934542534,-18.498217583293133,-17.919781232042876,-17.345700627803602,-16.810822158393819,-16.275943688983197,-15.741065219571706,-15.20618675015934,-14.671308280746121,-14.136429811332038,-13.601551341917089,-13.066672872501286,-12.531794403084625,-11.996915933667086,-11.462037464248699,-10.927158994829442,-10.392280525409316,-9.8574020559883362,-9.3225235865664935,-8.7876451171437822,-8.2527666477202182,-7.71788817829578,-7.1830097088704923,-6.6659591557575144,-6.220221110468537,-5.7744830651786678,-5.32874501988791,-4.8830069745962721,-4.4372689293037508,-3.9915308840103356,-3.5457928387160349,-3.1000547934208553,-2.6543167481247845,-2.208578702827829,-1.7628406575299824,-1.3171026122312548,-0.87136456693163866,-0.4256265216311369,0.020111523670251243,0.46584956897252483,0.9115876142756828,1.3573256595797234,1.8030637048846552,2.2099709027842116,2.526271566608584,2.8425722304338676,3.1588728942600466,3.4751735580871239,3.7914742219151059,4.1077748857439911,4.424075549573776,4.74037621340447,5.0566768772360557,5.3729775410685434,5.6892782049019361,6.0055788687362277,6.3218795325714225,6.6381801964075242,6.9544808602445221,7.2707815240824232,7.5870821879212267,7.9033828517609273,8.2196835156015329,8.4699602888080427,8.6211996658765528,8.77243904294598,8.9236784200163441,9.0749177970876271,9.2261571741598321,9.3773965512329625,9.5286359283070148,9.6798753053819979,9.8311146824578959,9.98235405953471,10.133593436612468,10.284832813691143,10.436072190770739,10.587311567851266,10.738550944932708,10.889790322015072,11.041029699098377,11.192269076182596,11.34350845326774,11.309164496762323,11.265178669685204,11.221192842609009,11.177207015533765,11.133221188459462,11.089235361386121,11.045249534313712,11.001263707242241,10.957277880171713,10.913292053102133,10.869306226033501,10.825320398965811,10.781334571899055,10.737348744833248,10.693362917768383,10.649377090704467,10.605391263641499,10.561405436579468,10.385709770094618,10.122205469075805,9.8587011680579941,9.5951968670411674,9.3316925660253442,9.0681882650104964,8.8046839639966432,8.5411796629837919,8.2776753619719265,8.01417106096105,7.7506667599511818,7.4871624589422847,7.2236581579343824,6.9601538569274881,6.6966495559215717,6.43314525491665,6.1696409539127171,5.9061366529097787,5.6426323519078361,5.3791280509068917,4.9489934220920118,4.4474435456140071,3.945893669136975,3.44434379266093,2.94279391618585,2.44124403971177,1.9396941632386624,1.4381442867665157,0.936594410295371,0.4350445338251866,-0.0665053426440074,-0.56805521911222845,-1.069605095579462,-1.571154972045735,-2.0727048485110049,-2.5742547249753147,-3.0758046014386342,-3.5773544779009767,-4.0789043543623444,-4.58045423082273,-5.2826637480887246,-6.0350405463953605,-6.7874173447009349,-7.539794143005456,-8.292170941308914,-9.0445477396113141,-9.7969245379126768,-10.549301336212963,-11.301678134512201,-12.054054932810388,-12.8064317311075,-13.558808529403565,-14.311185327698546,-15.063562125992522,-15.815938924285414,-16.568315722577236,-17.320692520868018,-18.073069319157746,-18.8254461174464,-19.577822915734025,-20.562797970777847,-21.573619719416794,-22.584441468054678,-23.595263216691436,-24.606084965327153,-25.616906713961793,-26.627728462595321,-27.638550211227763,-28.649371959859163,-29.660193708489473,-30.671015457118674,-31.681837205746845,-32.69265895437394,-33.703480702999904,-34.71430245162481,-35.725124200248622,-36.73594594887139,-37.746767697493034,-38.757589446113656,-39.768411194733133,0,0.02257703472513049,0.061175112163066633,0.12438648128133115,0.21778359295358687,0.34189591125743712,0.49687885489964961,0.6826228807622533,0.89872763258359112,1.1443875540054222,1.3267936266567071,1.7505104240936702
DP 71,148.28474544449682,0.0030396952049748256,-35.4214922163288,-34.74932223058601,-34.077152244842253,-33.404982259097544,-32.732812273351904,-32.060642287605269,-31.388472301857679,-30.716302316109125,-30.044132330359606,-29.371962344609134,-28.699792358857692,-28.0276223731053,-27.355452387351967,-26.68328240159763,-26.01111241584238,-25.338942430086153,-24.666772444328949,-23.994602458570785,-23.322432472811695,-22.650262487051609,-21.98304035373063,-21.360349360061555,-20.737658366391504,-20.114967372720482,-19.492276379048459,-18.869585385375483,-18.24689439170152,-17.624203398026555,-17.001512404350656,-16.378821410673755,-15.756130416995868,-15.133439423317027,-14.510748429637184,-13.888057435956371,-13.265366442274594,-12.642675448591824,-12.019984454908068,-11.397293461223358,-10.774602467537649,-10.151911473850983,-9.54955539350306,-9.0285399275693923,-8.5075244616347,-7.986508995698995,-7.4654935297622629,-6.9444780638245032,-6.4234625978857247,-5.9024471319459222,-5.3814316660050947,-4.860416200063244,-4.33940073412037,-3.8183852681764709,-3.2973698022315516,-2.7763543362856042,-2.2553388703386328,-1.73432340439064,-1.2133079384416248,-0.69229247249158732,-0.17127700654052885,0.34973845941155579,0.826166946843553,1.198557746238109,1.570948545633712,1.9433393450303567,2.3157301444280449,2.6881209438267741,3.0605117432265461,3.4329025426273652,3.8052933420292234,4.1776841414321266,4.5500749408360663,4.9224657402410523,5.29485653964709,5.6672473390541613,6.0396381384622826,6.4120289378714341,6.7844197372816408,7.1568105366928858,7.52920133610518,7.901592135518511,8.1975316874937647,8.3787925617199051,8.5600534359471219,8.7413143101754276,8.9225751844048169,9.103836058635288,9.2850969328668373,9.46635780709948,9.64761868133319,9.828879555567994,10.010140429803872,10.191401304040845,10.372662178278892,10.553923052518025,10.735183926758237,10.916444800999537,11.097705675241912,11.278966549485382,11.460227423729922,11.641488297975556,11.614699197868003,11.567730951526633,11.520762705186367,11.473794458847216,11.426826212509177,11.379857966172239,11.332889719836423,11.285921473501709,11.238953227168116,11.191984980835624,11.145016734504253,11.098048488174,11.051080241844838,11.004111995516807,10.957143749189878,10.910175502864073,10.863207256539365,10.816239010215769,10.613796780513757,10.30770277926729,10.001608778021996,9.6955147767778929,9.3894207755349814,9.0833267742932478,8.7772327730527113,8.47113877181336,8.165044770575193,7.85895076933821,7.55285676810243,7.24676276686782,6.9406687656344026,6.6345747644021786,6.3284807631711342,6.0223867619412834,5.71629276071261,5.4101987594851311,5.1041047582588428,4.798010757033742,4.29345479947127,3.7038410379094659,3.114227276348823,2.5246135147893556,1.9349997532310375,1.3453859916739142,0.7557722301179528,0.16615846856313535,-0.42345529299048856,-1.0130690545429641,-1.6026828160942586,-2.192296577644393,-2.7819103391933471,-3.3715241007411541,-3.9611378622877722,-4.5507516238332375,-5.1403653853775255,-5.7299791469206465,-6.3195929084626039,-6.9092066700033952,-7.7395285872977206,-8.6300303875519582,-9.52053218780492,-10.411033988056605,-11.301535788307017,-12.192037588556143,-13.082539388804014,-13.973041189050569,-14.863542989295881,-15.754044789539918,-16.644546589782642,-17.535048390024123,-18.425550190264289,-19.316051990503244,-20.206553790740873,-21.097055590977241,-21.987557391212334,-22.878059191446127,-23.768560991678648,-24.659062791909939,-25.829890385702466,-27.031868233989737,-28.233846082275722,-29.435823930560339,-30.637801778843702,-31.839779627125708,-33.041757475406456,-34.243735323685812,-35.445713171963945,-36.647691020240693,-37.849668868516162,-39.051646716790351,-40.253624565063255,-41.455602413334773,-42.657580261604956,-43.859558109873888,-45.061535958141569,-46.263513806407794,-47.465491654672839,-48.667469502936477,0,0.028737880324884734,0.075656569168858517,0.15139310662751146,0.26316042517858018,0.41158035736591958,0.59681861101979006,0.81874134126795639,1.0768814823638553,1.3702992764950348,1.5880650410637693,2.0943050320894692
DP 72,93.980624020924424,0.0019796870192016311,-16.524084206141467,-16.260250577524417,-15.996416948907068,-15.732583320289427,-15.468749691671494,-15.204916063053263,-14.941082434434728,-14.677248805815886,-14.413415177196761,-14.149581548577341,-13.885747919957632,-13.621914291337614,-13.358080662717299,-13.094247034096687,-12.830413405475793,-12.566579776854583,-12.30274614823308,-12.038912519611287,-11.775078890989192,-11.511245262366804,-11.249322816548862,-11.004601196626567,-10.759879576703945,-10.515157956781023,-10.270436336857774,-10.025714716934219,-9.7809930970103469,-9.5362714770861619,-9.2915498571616748,-9.046828237236868,-8.8021066173117575,-8.5573849973863183,-8.3126633774605754,-8.0679417575345163,-7.8232201376081525,-7.5784985176814672,-7.3337768977544764,-7.0890552778271685,-6.8443336578995471,-6.5996120379716192,-6.3627634602249374,-6.1574074232951377,-5.9520513863649667,-5.7466953494344413,-5.5413393125035615,-5.3359832755723149,-5.1306272386407148,-4.9252712017087541,-4.7199151647764346,-4.514559127843758,-4.3092030909107191,-4.1038470539773231,-3.8984910170435643,-3.6931349801094493,-3.4877789431749746,-3.2824229062401438,-3.07706686930495,-2.8717108323694021,-2.6663547954334947,-2.4609987584972264,-2.2729878829424419,-2.1254495971136156,-1.9779113112844149,-1.830373025454852,-1.6828347396249201,-1.5352964537946185,-1.3877581679639492,-1.2402198821329118,-1.0926815963015066,-0.94514331046973277,-0.79760502463759142,-0.65006673880508248,-0.50252845297220339,-0.35499016713895765,-0.20745188130534312,-0.059913595471359334,0.087624690362991822,0.23516297619771215,0.38270126203279942,0.53023954786825467,0.64786638421318932,0.72062533949564778,0.79338429477850836,0.86614325006177428,0.93890220534544588,1.0116611606295225,1.084420115914,1.1571790711988841,1.2299380264841708,1.3026969817698648,1.3754559370559594,1.4482148923424607,1.5209738476293662,1.5937328029166737,1.6664917582043874,1.739250713492505,1.812009668781027,1.8847686240699544,1.957527579359285,2.0302865346490186,2.0238393982962708,2.0067085827676552,1.9895777672394639,1.9724469517116985,1.9553161361843616,1.9381853206574493,1.9210545051309655,1.9039236896049045,1.8867928740792725,1.8696620585540666,1.8525312430292868,1.835400427504936,1.8182696119810067,1.8011387964575072,1.7840079809344356,1.766877165411787,1.7497463498895662,1.7326155343677732,1.6538472511026321,1.5339863516564256,1.4141254522106932,1.2942645527654331,1.1744036533206486,1.0545427538763337,0.93468185443249785,0.81482095498913576,0.69496005554624551,0.57509915610382967,0.45523825666189388,0.33537735722042622,0.21551645777943482,0.095655558338920157,-0.0242053411011248,-0.144066240540692,-0.26392713997978906,-0.3837880394184085,-0.503648938856552,-0.6235098382942218,-0.82253242720650288,-1.0554825233944907,-1.28843261958201,-1.5213827157690547,-1.7543328119556358,-1.9872829081417367,-2.2202330043273704,-2.4531831005125406,-2.6861331966972304,-2.9190832928814605,-3.152033389065211,-3.3849834852484944,-3.6179335814313065,-3.8508836776136515,-4.0838337737955159,-4.316783869976919,-4.5497339661578478,-4.7826840623383049,-5.0156341585182931,-5.248584254697815,-5.5779986135388642,-5.9315301777924354,-6.2850617420454649,-6.63859330629796,-6.9921248705499091,-7.3456564348013265,-7.6991879990522012,-8.0527195633025279,-8.4062511275523217,-8.759782691801572,-9.1133142560502876,-9.4668458202984542,-9.8203773845460827,-10.173908948793175,-10.527440513039727,-10.880972077285731,-11.234503641531193,-11.588035205776128,-11.941566770020509,-12.29509833426436,-12.761325199245814,-13.240074947882473,-13.718824696518595,-14.197574445154141,-14.676324193789121,-15.155073942423542,-15.6338236910574,-16.112573439690667,-16.591323188323386,-17.070072936955572,-17.548822685587186,-18.027572434218197,-18.506322182848677,-18.985071931478576,-19.463821680107941,-19.942571428736713,-20.421321177364938,-20.900070925992562,-21.378820674619689,-21.857570423246191,0,0.015162774151448375,0.035654259622235028,0.066645235447431769,0.11207223508557122,0.17221703899634264,0.247125505838695,0.33674416278616431,0.44091001624861892,0.55928625369321128,0.64684623002883679,0.85092980682241071
DP 73,244.53196992111751,0.0036451454448155254,-58.339249285140816,-57.102248540984782,-55.865247796827006,-54.628247052667362,-53.391246308505956,-52.15424556434278,-50.917244820177821,-49.680244076011107,-48.443243331842559,-47.206242587672172,-45.969241843500093,-44.732241099326217,-43.495240355150507,-42.258239610973014,-41.021238866793759,-39.784238122612692,-38.5472373784299,-37.31023663424525,-36.073235890058832,-34.836235145870624,-33.609097966922839,-32.470733807499492,-31.332369648074383,-30.194005488647445,-29.055641329218751,-27.917277169788221,-26.778913010355907,-25.640548850921803,-24.502184691485894,-23.363820532048212,-22.225456372608694,-21.087092213167377,-19.948728053724274,-18.810363894279384,-17.671999734832688,-16.533635575384181,-15.395271415933891,-14.256907256481796,-13.118543097027896,-11.980178937572214,-10.8817723127218,-9.9431977147465442,-9.0046231167694586,-8.0660485187905628,-7.1274739208098508,-6.1888993228273161,-5.2503247248429625,-4.3117501268567873,-3.3731755288687908,-2.4346009308789776,-1.4960263328873393,-0.55745173489387567,0.38112286310140281,1.3196974610985033,2.2582720590974237,3.1968466570981624,4.1354212551007254,5.0739958531051,6.0125704511112978,6.9511450491193134,7.8041296246197085,8.457401450875496,9.1106732771331238,9.7639451033926132,10.417216929653947,11.070488755917133,11.723760582182159,12.37703240844904,13.030304234717768,13.683576060988347,14.336847887260783,14.99011971353506,15.643391539811189,16.29666336608917,16.949935192369,17.603207018650682,18.256478844934197,18.909750671219591,19.563022497506797,20.216294323795875,20.727161869836316,21.024419630399347,21.321677390964254,21.618935151531044,21.91619291209971,22.21345067267027,22.510708433242677,22.807966193816974,23.105223954393161,23.402481714971202,23.699739475551151,23.996997236132941,24.294254996716631,24.591512757302173,24.888770517889611,25.186028278478929,25.483286039070112,25.780543799663178,26.077801560258138,26.375059320854945,26.240202154591117,26.126806959658889,26.013411764728545,25.900016569800144,25.786621374873622,25.673226179949015,25.55983098502632,25.446435790105497,25.333040595186617,25.219645400269613,25.106250205354538,24.992855010441343,24.879459815530073,24.76606462062071,24.652669425713217,24.539274230807681,24.425879035904003,24.312483841002262,23.929190932984248,23.365961964331419,22.802732995680618,22.239504027031771,21.676275058384928,21.113046089740056,20.549817121097178,19.986588152456264,19.42335918381734,18.860130215180416,18.296901246545481,17.733672277912497,17.170443309281524,16.60721434065254,16.043985372025517,15.480756403400502,14.917527434777446,14.354298466156385,13.791069497537318,13.22784052892024,12.331474091464582,11.292329954684337,10.253185817906052,9.2140416811297339,8.1748975443553391,7.1357534075829392,6.0966092708124977,5.0574651340439658,4.01832099727743,2.979176860512819,1.9400327237501909,0.900888586989505,-0.13825554976920743,-1.1773996865259995,-2.2165438232807948,-3.25568796003366,-4.294832096784555,-5.3339762335334884,-6.3731203702804873,-7.4122645070255206,-8.8445215157878021,-10.375061387272265,-11.905601258754645,-13.436141130234915,-14.966681001713116,-16.497220873189221,-18.027760744663258,-19.55830061613517,-21.088840487605008,-22.619380359072785,-24.149920230538427,-25.680460102002019,-27.210999973463494,-28.741539844922919,-30.272079716380208,-31.802619587835423,-33.333159459288545,-34.863699330739607,-36.394239202188558,-37.924779073635413,-39.904928264101549,-41.935038767555376,-43.965149271007114,-45.995259774456656,-48.025370277904095,-50.055480781349473,-52.085591284792656,-54.115701788233672,-56.145812291672613,-58.175922795109408,-60.20603329854417,-62.236143801976709,-64.266254305407131,-66.2963648088354,-68.326475312261564,-70.356585815685662,-72.386696319107628,-74.416806822527334,-76.446917325945122,-78.477027829360566,0,0.042754675911441879,0.11856972559451513,0.24425244874951862,0.43015743388608119,0.67736394178238979,0.98621038995355359,1.3564830864315389,1.7873690546954586,2.2772318339317721,2.6410656210588237,3.4856259285953466
DP 74,67.261990881688135,0.0037302354520047337,-23.515464937271133,-23.217445002073593,-22.919425066875881,-22.621405131678,-22.323385196479915,-22.025365261281706,-21.727345326083277,-21.429325390884703,-21.131305455685943,-20.833285520487017,-20.53526558528792,-20.237245650088649,-19.93922571488919,-19.64120577968956,-19.343185844489771,-19.045165909289796,-18.747145974089651,-18.449126038889339,-18.151106103688846,-17.853086168488179,-17.557220314997529,-17.280741400511392,-17.004262486025038,-16.727783571538474,-16.451304657051708,-16.174825742564728,-15.898346828077539,-15.621867913590142,-15.345388999102543,-15.06891008461473,-14.792431170126703,-14.515952255638478,-14.239473341150044,-13.962994426661396,-13.686515512172532,-13.410036597683474,-13.133557683194196,-12.857078768704714,-12.580599854215027,-12.304120939725125,-12.036510493143535,-11.80437433733187,-11.57223818151988,-11.340102025707587,-11.107965869894965,-10.875829714082037,-10.643693558268787,-10.411557402455225,-10.179421246641356,-9.9472850908271635,-9.7151489350126443,-9.4830127791978267,-9.25087662338269,-9.018740467567234,-8.78660431175146,-8.554468155935373,-8.3223320001189709,-8.0901958443022579,-7.8580596884852261,-7.6259235326678754,-7.4133405622716255,-7.24638230726294,-7.0794240522539233,-6.9124657972445869,-6.7455075422349147,-6.5785492872249236,-6.4115910322145986,-6.2446327772039449,-6.07767452219296,-5.9107162671816535,-5.743758012170014,-5.576799757158053,-5.40984150214576,-5.242883247133137,-5.0759249921201857,-4.9089667371069075,-4.7420084820933015,-4.5750502270793678,-4.4080919720651073,-4.2411337170505163,-4.1079023838067794,-4.0252622302079955,-3.9426220766088029,-3.859981923009201,-3.7773417694091909,-3.694701615808774,-3.6120614622079481,-3.5294213086067159,-3.4467811550050778,-3.3641410014030284,-3.2815008478005723,-3.1988606941977067,-3.1162205405944365,-3.0335803869907574,-2.9509402333866674,-2.8683000797821738,-2.78565992617727,-2.703019772571956,-2.6203796189662389,-2.5377394653601124,-2.543445327772456,-2.5622558952433026,-2.5810664627136979,-2.5998770301836411,-2.6186875976531292,-2.6374981651221647,-2.6563087325907446,-2.6751193000588795,-2.6939298675265557,-2.7127404349937834,-2.7315510024605509,-2.7503615699268686,-2.7691721373927369,-2.7879827048581496,-2.8067932723231097,-2.8256038397876151,-2.8444144072516697,-2.8632249747152696,-2.9516404699548788,-3.0864603469143761,-3.2212802238733267,-3.3561001008317319,-3.4909199777895958,-3.6257398547469131,-3.7605597317036792,-3.8953796086599035,-4.0301994856155856,-4.165019362570721,-4.299839239525304,-4.4346591164793443,-4.5694789934328437,-4.7042988703857933,-4.8391187473381994,-4.9739386242900574,-5.1087585012413737,-5.2435783781921419,-5.3783982551423657,-5.513218132092037,-5.7375109319255149,-6.0001504783009789,-6.2627900246758959,-6.5254295710502657,-6.7880691174241079,-7.0507086637973861,-7.3133482101701262,-7.5759877565423368,-7.8386273029139844,-8.1012668492851017,-8.3639063956556683,-8.626545942025686,-8.8891854883951655,-9.1518250347641015,-9.414464581132485,-9.6771041275003373,-9.9397436738676426,-10.202383220234395,-10.46502276660061,-10.727662312966283,-11.099369547707848,-11.498344993202807,-11.897320438697108,-12.296295884190716,-12.695271329683651,-13.094246775175927,-13.493222220667521,-13.892197666158436,-14.291173111648684,-14.690148557138267,-15.089124002627159,-15.488099448115387,-15.887074893602934,-16.286050339089819,-16.68502578457602,-17.084001230061553,-17.482976675546404,-17.88195212103059,-18.280927566514098,-18.679903011996945,-19.206353547440571,-19.746969320565462,-20.287585093689664,-20.828200866813106,-21.36881663993584,-21.909432413057861,-22.450048186179178,-22.990663959299749,-23.531279732419609,-24.071895505538766,-24.612511278657191,-25.153127051774909,-25.693742824891881,-26.234358598008161,-26.77497437112374,-27.315590144238563,-27.856205917352693,-28.39682169046608,-28.937437463578767,-29.478053236690712,0,0.025808142807803157,0.053495817378263089,0.09070533262648553,0.14400314232666542,0.21397779914607973,0.30073883967188891,0.40427713806631349,0.52449732905792368,0.661115963530588,0.76106562326388427,0.99463821000242969
DP 75,102.7144373792006,0.0014267132443975445,-12.773482146942689,-12.560514158911317,-12.347546170879683,-12.134578182847802,-11.921610194815651,-11.708642206783249,-11.495674218750581,-11.282706230717665,-11.069738242684481,-10.85677025465105,-10.643802266617355,-10.430834278583404,-10.217866290549187,-10.004898302514723,-9.79193031447999,-9.5789623264450139,-9.3659943384097613,-9.1530263503742635,-8.94005836233851,-8.7270903743024864,-8.5156670889596739,-8.3181462738697061,-8.1206254587794664,-7.9231046436889576,-7.7255838285981859,-7.5280630135071425,-7.3305421984158272,-7.1330213833242428,-6.9355005682323938,-6.7379797531402694,-6.5404589380478866,-6.34293812295522,-6.1454173078622922,-5.9478964927690994,-5.7503756776756365,-5.5528548625818983,-5.3553340474878954,-5.1578132323936261,-4.9602924172990832,-4.7627716022042774,-4.5716137579944389,-4.4059080980481431,-4.2402024381015488,-4.0744967781546508,-3.9087911182074548,-3.7430854582599591,-3.5773797983121622,-3.411674138364063,-3.2459684784156693,-3.0802628184669705,-2.9145571585179741,-2.7488514985686767,-2.5831458386190804,-2.4174401786691835,-2.251734518718985,-2.0860288587684859,-1.9203231988176881,-1.7546175388665914,-1.5889118789151948,-1.4232062189634971,-1.2715135635342909,-1.1525183601721729,-1.0335231568097449,-0.91452795344701132,-0.795532750083971,-0.6765375467206225,-0.55754234335696706,-0.43854713999300404,-0.31955193662873371,-0.20055673326415646,-0.08156152989927283,0.037433673465918194,0.15642887683141779,0.27542408019722348,0.39441928356333689,0.51341448692975833,0.63240969029648586,0.75140489366352159,0.87040009703086507,0.98939530039851376,1.0842358180300917,1.1428437362668702,1.2014516545039819,1.2600595727414228,1.3186674909791987,1.3772754092173056,1.4358833274557425,1.4944912456945136,1.5530991639336136,1.6117070821730486,1.6703150004128131,1.7289229186529118,1.7875308368933425,1.8461387551341015,1.9047466733751943,1.9633545916166206,2.0219625098583776,2.0805704281004642,2.1391783463428888,2.1977862645856372,2.1922310838475494,2.1782872907504376,2.1643434976536744,2.1503997045572594,2.136455911461193,2.1225121183654716,2.1085683252701015,2.0946245321750734,2.0806807390803961,2.0667369459860665,2.0527931528920806,2.0388493597984461,2.0249055667051588,2.010961773612217,1.997017980519624,1.9830741874273776,1.9691303943354785,1.9551866012439276,1.8915190366111807,1.7947015076170523,1.6978839786233071,1.60106644962994,1.5042489206369549,1.4074313916443497,1.3106138626521304,1.2137963336602913,1.1169788046688314,1.0201612756777558,0.92334374668706287,0.82652621769675017,0.72970868870681815,0.63289115971727139,0.53607363072810132,0.439256101739317,0.34243857275091111,0.24562104376288862,0.14880351477524906,0.051985985787991441,-0.10866121693006488,-0.29666485600364223,-0.48466849507684262,-0.67267213414966243,-0.8606757732221092,-1.04867941229417,-1.2366830513658542,-1.4246866904371676,-1.6126903295080945,-1.8006939685786496,-1.988697607648821,-2.1767012467186171,-2.3647048857880324,-2.5527085248570773,-2.7407121639257332,-2.928715802994017,-3.1167194420619184,-3.3047230811294432,-3.4927267201965932,-3.6807303592633618,-3.9464877934667033,-4.2316845951329167,-4.5168813967987074,-4.802078198464069,-5.0872750001289937,-5.3724718017935018,-5.6576686034575712,-5.9428654051212151,-6.2280622067844265,-6.5132590084472231,-6.7984558101095747,-7.0836526117715088,-7.3688494134330078,-7.65404621509408,-7.9392430167547232,-8.2244398184149361,-8.5096366200747244,-8.7948334217340811,-9.0800302233930061,-9.3652270250514977,-9.7412379779824523,-10.12734034593416,-10.513442713885437,-10.899545081836257,-11.285647449786628,-11.671749817736565,-12.057852185686047,-12.443954553635075,-12.830056921583681,-13.216159289531829,-13.602261657479522,-13.988364025426788,-14.374466393373595,-14.760568761319991,-15.146671129265899,-15.532773497211384,-15.918875865156428,-16.304978233101004,-16.691080601045154,-17.077182968988847,0,0.011340199465208324,0.02743550903843579,0.052237213039201022,0.088674854247537266,0.13696086394878448,0.19713441110219437,0.26915127492704005,0.3528738018769792,0.44802140546880409,0.51848102782415884,0.68260231294509432
DP 76,278.53497026764808,0.0034041598433260053,-59.282907793354035,-57.994605957122864,-56.706304120889826,-55.418002284655039,-54.129700448418454,-52.841398612180072,-51.553096775939864,-50.264794939697836,-48.97649310345404,-47.688191267208481,-46.399889430961053,-45.111587594711843,-43.823285758460884,-42.53498392220807,-41.246682085953466,-39.958380249697058,-38.670078413438858,-37.381776577178876,-36.09347474091706,-34.80517290465346,-33.5275447615549,-32.3459808658795,-31.1644169702023,-29.982853074523277,-28.801289178842453,-27.61972528315982,-26.43816138747539,-25.256597491789119,-24.0750335961011,-22.893469700411227,-21.711905804719542,-20.530341909026056,-19.348778013330783,-18.167214117633666,-16.98565022193478,-15.80408632623406,-14.622522430531543,-13.440958534827194,-12.259394639121068,-11.077830743413127,-9.9392102076038711,-8.9723651409577823,-8.005520074309862,-7.0386750076601272,-6.071829941008569,-5.1049848743551891,-4.1381398076999885,-3.1712947410429622,-2.2044496743841195,-1.2376046077234562,-0.27075954106096528,0.69608552560335246,1.6629305922694866,2.6297756589374441,3.5966207256072247,4.5634657922788282,5.5303108589522454,6.4971559256274869,7.4640009923045492,8.4308460589834286,9.3067248756042869,9.9703462426382945,10.63396760967416,11.297588976711873,11.961210343751423,12.624831710792842,13.288453077836108,13.952074444881212,14.615695811928168,15.279317178976987,15.942938546027632,16.606559913080162,17.270181280134508,17.933802647190721,18.597424014248784,19.261045381308694,19.924666748370463,20.588288115434075,21.251909482499535,21.915530849566863,22.430023229992337,22.720818606441583,23.011613982892698,23.302409359345688,23.593204735800544,23.884000112257297,24.174795488715898,24.465590865176356,24.756386241638708,25.04718161810294,25.337976994569047,25.628772371037,25.9195677475068,26.210363123978539,26.501158500452078,26.791953876927558,27.08274925340487,27.373544629884051,27.664340006365141,27.955135382848074,27.771085162964464,27.639305200868659,27.507525238774758,27.375745276682746,27.243965314592639,27.112185352504433,26.980405390418113,26.848625428333683,26.716845466251172,26.585065504170526,26.453285542091791,26.321505580014954,26.18972561794001,26.057945655866959,25.926165693795792,25.794385731726557,25.66260576965918,25.530825807593736,25.126493253854257,24.540454678617294,23.954416103382293,23.368377528149253,22.7823389529182,22.196300377689077,21.610261802461956,21.024223227236796,20.438184652013582,19.852146076792373,19.266107501573124,18.680068926355851,18.094030351140528,17.507991775927195,16.921953200715794,16.335914625506383,15.749876050298935,15.163837475093466,14.577798899889958,13.991760324688444,13.075411619116547,12.017496968884309,10.959582318654011,9.9016676684256577,8.8437530181992319,7.7858383679747805,6.7279237177522537,5.6700090675316384,4.6120944173130036,3.5541797670962718,2.4962651168815038,1.4383504666686644,0.38043581645778535,-0.677478833751191,-1.7353934839581868,-2.7933081341632677,-3.8512227843663971,-4.90913743456758,-5.9670520847668369,-7.0249667349641474,-8.4666530329284981,-10.004286777183756,-11.541920521436968,-13.079554265688108,-14.617188009937195,-16.154821754184198,-17.692455498429162,-19.230089242672026,-20.767722986912844,-22.30535673115163,-23.842990475388312,-25.38062421962297,-26.918257963855481,-28.455891708086014,-29.993525452314415,-31.531159196540809,-33.068792940765128,-34.6064266849874,-36.144060429207549,-37.6816941734257,-39.653677594080364,-41.673926651617073,-43.694175709151658,-45.7144247666841,-47.734673824214475,-49.754922881742786,-51.775171939268972,-53.795420996792977,-55.815670054315,-57.835919111834855,-59.856168169352713,-61.876417226868377,-63.896666284381972,-65.9169153418935,-67.937164399402818,-69.957413456910118,-71.977662514415371,-73.9979115719184,-76.018160629419512,-78.038409686918314,0,0.041693061641247531,0.11643463575971012,0.24083033242741084,0.42490437324799918,0.66973439806479984,0.97566460355487927,1.3424846920201177,1.7693846730126008,2.2547335973062892,2.6152383770226106,3.4518670177975985
DP 77,102.40156748285203,0.0031455099645826472,-28.095451057259634,-27.627674231667768,-27.159897406075352,-26.692120580482374,-26.224343754888817,-25.75656692929471,-25.288790103700006,-24.821013278104765,-24.353236452508927,-23.885459626912571,-23.417682801315607,-22.94990597571811,-22.482129150120016,-22.014352324521397,-21.546575498922177,-21.07879867332241,-20.611021847722061,-20.143245022121167,-19.675468196519695,-19.207691370917672,-18.743307487276056,-18.309460401998354,-17.875613316720049,-17.441766231441168,-17.007919146161704,-16.574072060881626,-16.140224975600987,-15.706377890319743,-15.272530805037906,-14.83868371975549,-14.404836634472471,-13.970989549188877,-13.537142463904688,-13.103295378619904,-12.669448293334534,-12.23560120804858,-11.801754122762018,-11.367907037474886,-10.934059952187157,-10.500212866898854,-10.080340685603929,-9.716368780757703,-9.3523968759108325,-8.9884249710632957,-8.6244530662151018,-8.26048116136625,-7.8965092565167341,-7.5325373516665755,-7.16856544681575,-6.8045935419642616,-6.440621637112117,-6.0766497322593134,-5.7126778274058552,-5.3487059225517362,-4.9847340176969581,-4.62076211284152,-4.2567902079854241,-3.8928183031286725,-3.5288463982712615,-3.1648744934131945,-2.8316805256501851,-2.5703027141778851,-2.3089249027049052,-2.0475470912312534,-1.7861692797569284,-1.5247914682819301,-1.2634136568062546,-1.0020358453299054,-0.74065803385288387,-0.47928022237518658,-0.21790241089681794,0.04347540058222657,0.3048532120619461,0.5662310235423389,0.8276088350234071,1.088986646505149,1.350364457987566,1.6117422694706567,1.8731200809544211,2.1344978924388585,2.3428215404290897,2.4715626894741618,2.6003038385199586,2.7290449875664837,2.857786136613738,2.986527285661726,3.1152684347104387,3.2440095837598792,3.3727507328100454,3.5014918818609431,3.6302330309125717,3.758974179964925,3.88771532901801,4.0164564780718246,4.1451976271263664,4.273938776181633,4.40267992523763,4.5314210742943581,4.6601622233518141,4.7889033724099956,4.7767263228103962,4.7461069719003817,4.7154876209911363,4.6848682700826458,4.65424891917493,4.6236295682679716,4.5930102173617726,4.5623908664563357,4.53177151555167,4.5011521646477606,4.4705328137446143,4.4399134628422354,4.409294111940615,4.3786747610397558,4.3480554101396622,4.3174360592403342,4.2868167083417656,4.2561973574439635,4.116360706974568,3.9037108028796843,3.6910608987856519,3.47841099469245,3.2657610906000851,3.0531111865085525,2.8404612824178708,2.6278113783280221,2.4151614742390075,2.2025115701508335,1.9898616660635067,1.7772117619770091,1.5645618578913525,1.3519119538065369,1.1392620497225538,0.92661214563941452,0.71396224155710653,0.50131233747564374,0.28866243339502051,0.076012529315234015,-0.27684531585947614,-0.68979417189033609,-1.1027430279203685,-1.5156918839495657,-1.9286407399779426,-2.341589596005472,-2.7545384520321732,-3.1674873080580612,-3.5804361640830953,-3.9933850201073215,-4.4063338761307005,-4.8192827321532556,-5.2322315881749724,-5.6451804441958711,-6.0581293002159269,-6.4710781562351549,-6.8840270122535463,-7.2969758682711117,-7.709924724287851,-8.1228735803037591,-8.7066158623441812,-9.3330585188538127,-9.9595011753625027,-10.585943831870246,-11.212386488377064,-11.838829144882933,-12.46527180138785,-13.091714457891827,-13.718157114394874,-14.344599770896989,-14.971042427398123,-15.597485083898343,-16.223927740397606,-16.85037039689594,-17.476813053393318,-18.10325570988978,-18.729698366385271,-19.356141022879836,-19.982583679373448,-20.609026335866119,-21.434951540341135,-22.283043567419089,-23.131135594496033,-23.979227621571987,-24.827319648646977,-25.675411675720991,-26.523503702794034,-27.371595729866062,-28.219687756937144,-29.067779784007225,-29.915871811076357,-30.763963838144498,-31.612055865211694,-32.460147892277838,-33.308239919343052,-34.156331946407256,-35.004423973470509,-35.852516000532759,-36.700608027594065,-37.548700054654347,0,0.0249689091807114,0.060351749226946846,0.11484268958803821,0.19489328026370706,0.30097099901410879,0.43316157476896094,0.591368012452198,0.77528839662335192,0.98430676760081681,1.1390859992370959,1.4996199230272065
DP 78,89.302489986298667,0.0015233383605872549,-12.200219758228904,-12.010751904480818,-11.821284050732531,-11.631816196984035,-11.44234834323534,-11.252880489486442,-11.063412635737343,-10.873944781988049,-10.684476928238539,-10.495009074488848,-10.305541220738933,-10.116073366988829,-9.9266055132385258,-9.7371376594880168,-9.5476698057373017,-9.3582019519863913,-9.16873409823527,-8.9792662444839557,-8.7897983907324377,-8.60033053698071,-8.4122345519693837,-8.23648551529807,-8.0607364786265556,-7.8849874419548156,-7.7092384052828677,-7.5334893686107032,-7.3577403319383254,-7.1819912952657248,-7.0062422585929189,-6.8304932219198955,-6.6547441852466553,-6.4789951485732091,-6.3032461118995409,-6.1274970752256541,-5.9517480385515569,-5.7759990018772491,-5.6002499652027193,-5.4245009285279853,-5.2487518918530265,-5.07300285517786,-4.9029042668157174,-4.7554077387543883,-4.6079112106928,-4.460414682630959,-4.3129181545688713,-4.16542162650653,-4.017925098443933,-3.8704285703810895,-3.7229320423179955,-3.5754355142546461,-3.4279389861910476,-3.2804424581271969,-3.132945930063094,-2.9854494019987348,-2.8379528739341318,-2.6904563458692738,-2.5429598178041628,-2.3954632897388026,-2.2479667616731906,-2.1004702336073264,-1.9654252660003455,-1.8594343317814952,-1.753443397562384,-1.6474524633430161,-1.541461529123392,-1.4354705949035051,-1.3294796606833619,-1.2234887264629595,-1.1174977922422997,-1.0115068580213809,-0.90551592380020418,-0.79952498957877027,-0.6935340553570758,-0.5875431211351233,-0.48155218691291296,-0.37556125269044355,-0.26957031846771617,-0.16357938424472918,-0.057588450021485639,0.048402484202016864,0.13291866291275412,0.18522220089213168,0.23752573887179562,0.28982927685174736,0.34213281483198654,0.39443635281251294,0.44673989079332455,0.49904342877442454,0.55134696675581074,0.603650504737484,0.655954042719444,0.7082575807016912,0.76056111868422649,0.81286465666704677,0.86516819465015671,0.91747173263355053,0.96977527061723279,1.0220788086012036,1.0743823465854594,1.1266858845700018,1.1222128297886442,1.1099627782456853,1.0977127267030304,1.0854626751606784,1.0732126236186315,1.0609625720768883,1.0487125205354522,1.0364624689943172,1.0242124174534872,1.0119623659129613,0.99971231437274077,0.98746226283282545,0.97521221129321056,0.96296215975390242,0.95071210821489915,0.93846205667619853,0.92621200513780266,0.91396195359971255,0.85744037260303907,0.7714037411931064,0.68536710978351723,0.59933047837426678,0.51329384696535818,0.42725721555678925,0.34122058414856521,0.25518395274068056,0.16914732133313518,0.083110689925933276,-0.0029259414809248642,-0.08896257288744519,-0.17499920429362326,-0.26103583569945821,-0.3470724671049551,-0.43310909851010754,-0.51914572991492269,-0.60518236131939351,-0.69121899272352139,-0.77725562412730975,-0.92016364367538284,-1.0874458832262217,-1.2547281227767237,-1.4220103623268832,-1.5892926018767093,-1.7565748414261886,-1.9238570809753319,-2.0911393205241433,-2.2584215600726067,-2.4257037996207402,-2.5929860391685269,-2.7602682787159791,-2.92755051826309,-3.0948327578098689,-3.2621149973563015,-3.4293972369023997,-3.5966794764481547,-3.7639617159935694,-3.9312439555386525,-4.0985261950833882,-4.3351193278667948,-4.5890410028837891,-4.8429626779003927,-5.0968843529166019,-5.35080602793242,-5.6047277029478417,-5.8586493779628821,-6.1125710529775175,-6.3664927279917656,-6.6204144030056229,-6.8743360780190859,-7.1282577530321554,-7.3821794280448261,-7.63610110305712,-7.8900227780690138,-8.1439444530805112,-8.3978661280916178,-8.6517878031023372,-8.905709478112664,-9.1596311531225929,-9.4945346861790973,-9.8384370539684021,-10.182339421757305,-10.526241789545779,-10.870144157333851,-11.214046525121519,-11.557948892908762,-11.901851260695596,-12.245753628482033,-12.589655996268048,-12.933558364053662,-13.277460731838874,-13.621363099623652,-13.965265467408031,-14.309167835192001,-14.653070202975563,-14.996972570758707,-15.340874938541431,-15.684777306323777,-16.028679674105675,0,0.011440111583811695,0.026429625562136825,0.048812873756456793,0.081565320540497033,0.12490096500417865,0.17885259226481354,0.24338297006901874,0.318379177618434,0.403604988779541,0.46658959324924976,0.61345142068539738
DP 79,182.8218029384858,0.00191062745541765,-25.479940174415855,-24.97086664200431,-24.461793109592019,-23.952719577178993,-23.443646044765195,-22.934572512350666,-22.425498979935394,-21.916425447519352,-21.40735191510257,-20.898278382685028,-20.389204850266733,-19.8801313178477,-19.371057785427929,-18.861984253007382,-18.352910720586092,-17.843837188164045,-17.334763655741273,-16.825690123317738,-16.316616590893446,-15.807543058468406,-15.302299522395295,-14.831526315523176,-14.360753108650306,-13.889979901776668,-13.419206694902281,-12.948433488027124,-12.477660281151216,-12.006887074274541,-11.536113867397111,-11.065340660518931,-10.594567453639987,-10.123794246760287,-9.6530210398798175,-9.1822478329985948,-8.7114746261166154,-8.2407014192338828,-7.7699282123503783,-7.2991550054661163,-6.8283817985811028,-6.3576085916953273,-5.9025136259857423,-5.5101323659586727,-5.11775110593082,-4.7253698459021827,-4.3329885858727737,-3.9406073258425836,-3.5482260658116123,-3.1558448057798585,-2.763463545747328,-2.3710822857140177,-1.9787010256799242,-1.58631976564505,-1.1939385056093974,-0.80155724557296448,-0.4091759855357518,-0.016794725497758258,0.375586534541014,0.76796779458056541,1.1603490546208943,1.5527303146620064,1.9109532997034757,2.1894725668375239,2.4679918339723663,2.7465111011079997,3.0250303682444293,3.303549635381652,3.5820689025196661,3.8605881696584756,4.1391074367980822,4.4176267039384793,4.6961459710796678,4.9746652382216512,5.2531845053644286,5.5317037725080027,5.8102230396523682,6.0887423067975268,6.3672615739434786,6.64578084109022,6.9243001082377695,7.2028193753861043,7.4232399400460425,7.5565110780637958,7.6897822160823575,7.8230533541017371,7.9563244921219427,8.0895956301429468,8.2228667681647636,8.3561379061874064,8.48940904421086,8.6226801822351256,8.7559513202601966,8.889222458286099,9.022493596312799,9.155764734340325,9.28903587236866,9.4223070103978124,9.5555781484277755,9.6888492864585469,9.82212042449014,9.9553915625225375,9.9255601008657024,9.8869729637119015,9.8483858265589213,9.80979868940678,9.77121155225547,9.7326244151049828,9.6940372779553421,9.655450140806515,9.6168630036585281,9.5782758665113654,9.5396887293650376,9.50110159221954,9.4625144550748743,9.4239273179310423,9.3853401807880328,9.3467530436458528,9.30816590650452,9.2695787693640064,9.11500187894939,8.8830966590829856,8.6511914392174667,8.4192862193528111,8.1873809994890259,7.9554757796261217,7.723570559764088,7.4916653399029318,7.2597601200426425,7.0278549001832289,6.7959496803246919,6.5640444604670263,6.3321392406102426,6.10023402075433,5.8683288008992838,5.63642358104512,5.4045183611918235,5.1726131413394008,4.9407079214878555,4.7088027016371914,4.3301003541549594,3.8884829697548993,3.4468655853557006,3.0052482009573693,2.5636308165598876,2.1220134321632855,1.6803960477675421,1.2387786633726461,0.79716127897862965,0.35554389458546154,-0.086073489806835088,-0.52769087419827421,-0.9693082585888434,-1.4109256429785635,-1.8525430273674062,-2.2941604117553966,-2.7357777961425187,-3.1773951805287761,-3.6190125649141796,-4.0606299492987157,-4.6790750717980636,-5.3417292180860008,-6.0043833643730071,-6.6670375106590818,-7.3296916569442265,-7.992345803228444,-8.6549999495117333,-9.317654095794067,-9.9803082420754858,-10.642962388355995,-11.305616534635529,-11.96827068091417,-12.630924827191844,-13.293578973468604,-13.956233119744445,-14.61888726601933,-15.2815414122933,-15.944195558566333,-16.606849704838432,-17.269503851109604,-18.13717124896111,-19.027620050123357,-19.918068851284655,-20.808517652444969,-21.698966453604374,-22.589415254762795,-23.47986405592027,-24.370312857076765,-25.260761658232358,-26.151210459386967,-27.041659260540658,-27.932108061693363,-28.822556862845115,-29.713005663995965,-30.603454465145802,-31.493903266294716,-32.384352067442649,-33.274800868589651,-34.165249669735736,-35.055698470880813,0,0.019921750242171871,0.053942753758106032,0.10963872317417422,0.19192905972940472,0.30128002028192036,0.43782811993453546,0.60147679497865236,0.79187350444478311,1.0083089867197423,1.1690138928067417,1.5423277343563562
DP 80,211.15627177287189,0.0030123482586041227,-43.958655564751275,-43.053115911437992,-42.1475762581234,-41.242036604807495,-40.33649695149024,-39.430957298171613,-38.525417644851686,-37.619877991530373,-36.714338338207796,-35.808798684883847,-34.903259031558576,-33.997719378231977,-33.092179724904049,-32.186640071574793,-31.28110041824414,-30.37556076491223,-29.47002111157893,-28.564481458244313,-27.65894180490837,-26.753402151571073,-25.854841839201509,-25.019096255269226,-24.183350671335592,-23.347605087400595,-22.511859503464272,-21.676113919526617,-20.840368335587613,-20.004622751647251,-19.168877167705542,-18.333131583762491,-17.497385999818096,-16.661640415872355,-15.82589483192527,-14.990149247976825,-14.15440366402707,-13.318658080075936,-12.482912496123475,-11.647166912169657,-10.811421328214511,-9.975675744258016,-9.1683776025541519,-8.4748705743305965,-7.7813635461056663,-7.0878565178793718,-6.3943494896517059,-5.7008424614226678,-5.0073354331922584,-4.31382840496048,-3.6203213767273357,-2.9268143484928122,-2.2333073202569205,-1.5398002920196538,-0.8462932637810211,-0.15278623554101539,0.54072079270036044,1.2342278209431081,1.9277348491872244,2.6212418774327091,3.3147489056795623,4.0082559339277894,4.64022225703172,5.1285916624723606,5.6169610679143984,6.1053304733578315,6.5936998788026484,7.0820692842488731,7.570438689696477,8.05880809514549,8.5471775005958843,9.03554690604768,9.5239163115008587,10.012285716955436,10.500655122411411,10.989024527868775,11.477393933327537,11.96576333878769,12.45413274424924,12.94250214971219,13.430871555176511,13.91924096064225,14.303885972762773,14.53294194379156,14.761997914821757,14.991053885853404,15.220109856886449,15.449165827920924,15.678221798956821,15.907277769994137,16.136333741032868,16.365389712073018,16.594445683114614,16.823501654157603,17.052557625202034,17.281613596247862,17.510669567295132,17.739725538343805,17.96878150939391,18.197837480445447,18.42689345149839,18.655949422552748,18.584018781918058,18.509434757445639,18.434850732974724,18.360266708505222,18.28568268403718,18.21109865957057,18.136514635105414,18.061930610641692,17.98734658617942,17.9127625617186,17.838178537259228,17.763594512801291,17.6890104883448,17.614426463889782,17.539842439436178,17.465258414984024,17.39067439053332,17.316090366084062,17.038763174394276,16.626270677253512,16.213778180114286,15.801285682976555,15.388793185840328,14.976300688705612,14.563808191572427,14.151315694440738,13.738823197310563,13.326330700181902,12.913838203054761,12.501345705929129,12.08885320880502,11.676360711682412,11.26386821456131,10.851375717441726,10.438883220323648,10.026390723207083,9.6138982260920542,9.2014057289785267,8.5348807843380818,7.7594813605280271,6.9840819367194529,6.2086825129123842,5.4332830891067863,4.6578836653027089,3.8824842415001126,3.1070848176989858,2.3316853938993818,1.5562859701012404,0.78088654630461052,0.0054871225094628284,-0.76991230128418042,-1.5453117250763579,-2.3207111488670127,-3.0961105726561984,-3.8715099964438768,-4.646909420230064,-5.4223088440147738,-6.1977082677979851,-7.27662299798229,-8.4314201408691485,-9.5862172837544239,-10.741014426638074,-11.895811569520143,-13.050608712400603,-14.20540585527948,-15.360202998156726,-16.515000141032367,-17.669797283906458,-18.824594426778894,-19.979391569649763,-21.134188712518991,-22.288985855386684,-23.443782998252725,-24.598580141117171,-25.753377283979997,-26.908174426841271,-28.062971569700892,-29.217768712558971,-30.722581389118776,-32.266288356544251,-33.809995323968145,-35.353702291390313,-36.897409258810875,-38.441116226229809,-39.984823193647124,-41.528530161062747,-43.07223712847685,-44.615944095889212,-46.159651063300018,-47.703358030709161,-49.247064998116642,-50.790771965522566,-52.33447893292675,-53.878185900329413,-55.4218928677304,-56.96559983512968,-58.509306802527455,-60.053013769923432,0,0.033405803934393144,0.091689987781255325,0.18777497941345206,0.32982654251254928,0.51866001020108976,0.754523923298101,1.0372534460948044,1.3662328532519137,1.7402232343953903,2.0179635325504086,2.6628908430153704
DP 81,148.71280012428934,0.0036322899072911965,-42.408154219654641,-41.602766651833221,-40.797379084010686,-39.991991516186992,-39.1866039483621,-38.381216380536053,-37.5758288127089,-36.77044124488058,-35.965053677051095,-35.159666109220481,-34.354278541388723,-33.548890973555764,-32.743503405721682,-31.938115837886446,-31.132728270050062,-30.327340702212545,-29.521953134373828,-28.716565566533991,-27.911177998693006,-27.105790430850838,-26.306332970909953,-25.560247042628752,-24.814161114346398,-24.068075186062863,-23.321989257778164,-22.575903329492284,-21.829817401205258,-21.08373147291702,-20.33764554462762,-19.591559616337069,-18.845473688045331,-18.099387759752432,-17.353301831458332,-16.607215903163087,-15.861129974866659,-15.115044046569071,-14.368958118270291,-13.622872189970344,-12.876786261669224,-12.130700333366937,-11.40898330390946,-10.784743021542774,-10.160502739174854,-9.5362624568057157,-8.9120221744353465,-8.2877818920637516,-7.66354160969094,-7.0393013273168874,-6.4150610449416181,-5.7908207625651142,-5.1665804801873847,-4.5423401978084259,-3.9180999154282459,-3.2938596330468375,-2.669619350664203,-2.0453790682803406,-1.4211387858952518,-0.79689850350894043,-0.17265822112140489,0.45158206126736289,1.0223928373835927,1.4685330821007858,1.9146733268192353,2.3608135715389289,2.8069538162598735,3.2530940609820709,3.6992343057055161,4.1453745504302155,4.591514795156157,5.0376550398833624,5.4837952846118041,5.9299355293414973,6.376075774072441,6.8222160188046423,7.2683562635380836,7.7144965082727817,8.1606367530087311,8.6067769977459179,9.0529172424843782,9.4990574872240749,9.8535914111689671,10.070713689205565,10.287835967243463,10.504958245282657,10.722080523323147,10.939202801364946,11.156325079408028,11.373447357452417,11.590569635498088,11.807691913545087,12.024814191593348,12.241936469642924,12.459058747693796,12.676181025745963,12.893303303799421,13.110425581854194,13.327547859910252,13.544670137967607,13.761792416026267,13.978914694086217,13.946666324221944,13.890342003734924,13.834017683249224,13.777693362764859,13.721369042281824,13.665044721800131,13.608720401319749,13.552396080840712,13.496071760363014,13.439747439886647,13.38342311941161,13.327098798937913,13.270774478465516,13.214450157994488,13.158125837524778,13.101801517056392,13.045477196589337,12.989152876123629,12.746568804301766,12.379808630626851,12.013048456953364,11.64628828328129,11.279528109610617,10.912767935941357,10.546007762273542,10.179247588607121,9.8124874149421188,9.4457272412785276,9.0789670676163681,8.712206893955603,8.3454467202962679,7.9786865466383512,7.6119263729818432,7.2451661993267544,6.8784060256730726,6.5116458520208171,6.1448856783699766,5.778125504720558,5.1736234109870622,4.467228712675186,3.7608340143647,3.0544393160556242,2.3480446177479268,1.6416499194416561,0.9352552211367785,0.22886052283327354,-0.477534175468802,-1.1839288737695033,-1.8903235720687905,-2.5967182703666856,-3.3031129686631733,-4.00950766695828,-4.7159023652519618,-5.422297063544268,-6.1286917618351557,-6.8350864601246517,-7.5414811584127612,-8.2478758566994568,-9.2425991016864621,-10.309407890015796,-11.376216678343605,-12.443025466669885,-13.509834254994649,-14.576643043317874,-15.643451831639576,-16.71026061995973,-17.777069408278365,-18.843878196595497,-19.910686984911052,-20.977495773225112,-22.044304561537583,-23.111113349848605,-24.177922138158078,-25.244730926465987,-26.311539714772383,-27.37834850307728,-28.445157291380589,-29.511966079682409,-30.914548290343127,-32.354442185477048,-33.794336080609348,-35.23422997574005,-36.6741238708692,-38.11401776599682,-39.553911661122847,-40.993805556247239,-42.433699451370195,-43.873593346491468,-45.313487241611206,-46.753381136729423,-48.193275031846021,-49.633168926961048,-51.073062822074526,-52.512956717186441,-53.952850612296778,-55.3927445074055,-56.832638402512735,-58.272532297618348,0,0.034388173564568685,0.090574345868490849,0.18129194699831516,0.31517005799441089,0.49295369360368596,0.7148416641969817,0.98067379074603311,1.2898902310559914,1.6413649332716067,1.902221054785628,2.5086259951421819
DP 82,100.8044418184712,0.0042361845364446956,-37.376869870955026,-36.759062358269027,-36.141254845582289,-35.523447332894861,-34.905639820206659,-34.2878323075177,-33.670024794828038,-33.052217282137605,-32.434409769446482,-31.816602256754589,-31.198794744061981,-30.580987231368617,-29.963179718674482,-29.345372205979661,-28.727564693284069,-28.109757180587785,-27.491949667890712,-26.87414215519291,-26.256334642494394,-25.638527129795147,-25.02519979936439,-24.452194532842437,-23.879189266319692,-23.306183999796193,-22.733178733271906,-22.160173466746844,-21.587168200221047,-21.014162933694447,-20.441157667167094,-19.868152400638962,-19.295147134110071,-18.722141867580394,-18.149136601049957,-17.576131334518731,-17.003126067986756,-16.430120801453995,-15.857115534920466,-15.284110268386176,-14.711105001851106,-14.138099735315267,-13.583546768406746,-13.102803872091153,-12.622060975774676,-12.141318079457326,-11.660575183139139,-11.179832286820062,-10.699089390500138,-10.218346494179341,-9.7376035978576834,-9.2568607015351461,-8.7761178052117632,-8.2953749088875028,-7.8146320125623818,-7.3338891162364,-6.853146219909549,-6.3724033235818318,-5.891660427253254,-5.4109175309238111,-4.9301746345935031,-4.4494317382623318,-4.0093317676330686,-3.6640665708648581,-3.3188013740957514,-2.9735361773257689,-2.6282709805548983,-2.2830057837831395,-1.9377405870104987,-1.5924753902369675,-1.2472101934625535,-0.90194499668725314,-0.55667979991106953,-0.21141460313400029,0.13385059364395807,0.47911579042280006,0.82438098720252884,1.1696461839831418,1.5149113807646422,1.8601765775470289,2.2054417743302994,2.5507069711144563,2.8259074099594228,2.9960090562205242,3.1661107024825808,3.3362123487455997,3.5063139950095774,3.6764156412745161,3.8465172875404119,4.0166189338072673,4.1867205800750824,4.3568222263438612,4.5269238726135974,4.6970255188842911,4.8671271651559476,5.0372288114285571,5.2073304577021311,5.3774321039766688,5.5475337502521596,5.7176353965286149,5.8877370428060338,6.0578386890843978,6.0419533361926527,6.0015784678909245,5.9612035995902106,5.92082873129049,5.8804538629917795,5.8400789946940836,5.7997041263973763,5.7593292581016913,5.718954389807009,5.6785795215133223,5.6382046532206544,5.5978297849289937,5.5574549166383269,5.5170800483486735,5.4767051800600264,5.4363303117723865,5.395955443485744,5.3555805752001246,5.1709376935632063,4.8901138636022132,4.6092900336423277,4.3284662036835408,4.04764237372587,3.7668185437693023,3.4859947138138452,3.2051708838594974,2.9243470539062528,2.643523223954118,2.3626993940030983,2.081875564053179,1.8010517341043695,1.5202279041566731,1.2394040742100776,0.95858024426459609,0.67775641432021272,0.39693258437694562,0.1161087544347893,-0.16471507550626,-0.63075646998021784,-1.1761793216967535,-1.7216021734121931,-2.26702502512653,-2.8124478768397831,-3.3578707285519136,-3.9032935802629529,-4.4487164319729127,-4.9941392836817524,-5.539562135389513,-6.0849849870961608,-6.63040783880172,-7.1758306905061673,-7.72125354220954,-8.2666763939117853,-8.8120992456129539,-9.35752209731302,-9.9029449490119745,-10.448367800709843,-10.993790652406613,-11.764855211675629,-12.592332863845694,-13.419810516014499,-14.247288168182061,-15.074765820348372,-15.902243472513439,-16.729721124677276,-17.557198776839833,-18.38467642900115,-19.212154081161241,-20.039631733320054,-20.867109385477637,-21.694587037633951,-22.522064689789062,-23.349542341942879,-24.177019994095453,-25.004497646246804,-25.831975298396888,-26.659452950545738,-27.486930602693327,-28.577967351264721,-29.698291211891267,-30.818615072516547,-31.938938933140488,-33.059262793763139,-34.179586654384494,-35.299910515004562,-36.420234375623323,-37.540558236240791,-38.660882096856945,-39.78120595747184,-40.901529818085457,-42.0218536786977,-43.142177539308733,-44.262501399918371,-45.382825260526772,-46.503149121133909,-47.623472981739653,-48.743796842344189,-49.864120702947375,0,0.033399634775153945,0.080340542225956935,0.15241175210910654,0.25825178778399233,0.39848415651812868,0.57322072338544861,0.78233370022865745,1.0254268949322809,1.3016910887849469,1.5062296141672402,1.982721800529831
DP 83,71.499107087229063,0.0019831078061612103,-13.175666533120229,-12.999769444831594,-12.823872356542825,-12.64797526825396,-12.47207817996493,-12.296181091675791,-12.120284003386521,-11.944386915097128,-11.76848982680762,-11.592592738517974,-11.416695650228212,-11.240798561938316,-11.064901473648298,-10.889004385358147,-10.713107297067882,-10.537210208777482,-10.361313120486962,-10.18541603219632,-10.009518943905546,-9.8336218556146449,-9.6589964362902574,-9.4958161578691218,-9.3326358794478352,-9.1694556010264048,-9.0062753226048287,-8.8430950441831033,-8.6799147657612483,-8.5167344873392388,-8.3535542089170978,-8.1903739304948076,-8.0271936520723681,-7.8640133736497821,-7.7008330952270594,-7.5376528168041839,-7.37447253838117,-7.2112922599580136,-7.04811198153471,-6.8849317031112651,-6.7217514246876675,-6.5585711462639384,-6.4006275802132482,-6.2636311111494383,-6.1266346420854321,-5.9896381730212278,-5.8526417039568237,-5.715645234892218,-5.57864876582742,-5.4416522967624132,-5.30465582769721,-5.1676593586318083,-5.0306628895662113,-4.8936664205004066,-4.7566699514344144,-4.6196734823682135,-4.4826770133018163,-4.3456805442352193,-4.2086840751684225,-4.0716876061014293,-3.9346911370342368,-3.7976946679668453,-3.6722421670769059,-3.5737259556557839,-3.475209744234447,-3.3766935328129062,-3.2781773213911634,-3.1796611099692105,-3.0811448985470498,-2.982628687124683,-2.8841124757021119,-2.7855962642793344,-2.6870800528563512,-2.5885638414331615,-2.4900476300097631,-2.3915314185861591,-2.29301520716235,-2.194498995738333,-2.09598278431411,-1.9974665728896812,-1.8989503614650458,-1.800434150040205,-1.7218327168376184,-1.6731039215673367,-1.6243751262968085,-1.5756463310260316,-1.526917535755006,-1.4781887404837333,-1.4294599452122134,-1.3807311499404453,-1.3320023546684308,-1.2832735593961662,-1.2345447641236562,-1.1858159688508965,-1.13708717357789,-1.0883583783046356,-1.0396295830311331,-0.99090078775738311,-0.94217199248338612,-0.89344319720914034,-0.84471440193464631,-0.7959856066599057,-0.79953636027521446,-0.81070253400305325,-0.82186870773062015,-0.8330348814579166,-0.84420105518494037,-0.85536722891169359,-0.86653340263817324,-0.877699576364385,-0.88886575009032254,-0.9000319238159904,-0.91119809754138514,-0.922364271266509,-0.93353044499136217,-0.944696618715944,-0.95586279244025307,-0.967028966164292,-0.97819513988805806,-0.98936131361155322,-1.0416209402826255,-1.1212768496264462,-1.200932758969943,-1.2805886683131245,-1.3602445776559831,-1.4399004869985226,-1.5195563963407412,-1.5992123056826373,-1.6788682150242171,-1.7585241243654726,-1.8381800337064069,-1.9178359430470242,-1.9974918523873202,-2.0771477617272933,-2.1568036710669483,-2.2364595804062803,-2.3161154897452962,-2.395771399083988,-2.4754273084223595,-2.5550832177604104,-2.6875579871603983,-2.84267012409182,-2.9977822610229192,-3.1528943979537005,-3.3080065348841656,-3.4631186718143052,-3.6182308087441251,-3.7733429456736287,-3.9284550826028144,-4.0835672195316848,-4.2386793564602314,-4.3937914933884548,-4.548903630316361,-4.7040157672439564,-4.859127904171225,-5.0142400410981747,-5.1693521780248011,-5.3244643149511139,-5.4795764518771053,-5.6346885888027787,-5.8541862176732851,-6.0897809802591718,-6.3253757428446651,-6.5609705054297667,-6.7965652680144872,-7.0321600305988214,-7.2677547931827613,-7.503349555766313,-7.7389443183494757,-7.9745390809322592,-8.210133843514642,-8.4457286060966457,-8.6813233686782549,-8.9169181312594787,-9.1525128938403135,-9.3881076564207575,-9.6237024190008178,-9.8592971815804837,-10.09489194415977,-10.330486706738661,-10.641330693663029,-10.960536495813523,-11.279742297963605,-11.598948100113267,-11.918153902262521,-12.237359704411363,-12.556565506559792,-12.875771308707801,-13.194977110855419,-13.514182913002612,-13.833388715149392,-14.152594517295766,-14.471800319441739,-14.791006121587287,-15.110211923732404,-15.429417725877142,-15.748623528021461,-16.06782933016536,-16.38703513230886,-16.70624093445193,0,0.01390624615060693,0.029524011682088964,0.051115409247503553,0.082259772111240692,0.12325594685414734,0.1741529343721466,0.2349334661931709,0.30552468482733031,0.38574324997801585,0.44462445481532242,0.58216699459397414
DP 84,274.612158886408,0.0010114406365641453,-17.449948095478476,-17.071738760453179,-16.693529425427361,-16.315320090400988,-15.937110755374121,-15.558901420346677,-15.180692085318725,-14.802482750290231,-14.424273415261217,-14.046064080231673,-13.667854745201593,-13.289645410170985,-12.911436075139846,-12.533226740108175,-12.155017405075974,-11.776808070043238,-11.39859873500998,-11.020389399976182,-10.64218006494186,-10.263970729907,-9.8888806873990767,-9.5418645724868671,-9.194848457574107,-8.8478323426608227,-8.500816227747,-8.15380011283266,-7.8067839979177656,-7.4597678830023426,-7.11275176808639,-6.7657356531699095,-6.4187195382528879,-6.0717034233353342,-5.7246873084172467,-5.3776711934986317,-5.0306550785794748,-4.6836389636597868,-4.3366228487395722,-3.9896067338188197,-3.642590618897533,-3.2955745039757161,-2.9611187227184481,-2.6769048697398525,-2.392691016760716,-2.1084771637810444,-1.8242633108008337,-1.5400494578200867,-1.2558356048388015,-0.97162175185697919,-0.68740789887462017,-0.40319404589172336,-0.11898019290828786,0.16523366007568691,0.44944751306019748,0.73366136604524557,1.0178752190308324,1.302089072016956,1.5863029250036154,1.8705167779908143,2.1547306309785483,2.4389444839668215,2.6965173981207986,2.8919272822723352,3.087337166424418,3.2827470505770466,3.4781569347302224,3.6735668188839417,3.8689767030382072,4.06438658719302,4.2597964713483769,4.4552063555042789,4.65061623966073,4.8460261238177234,5.0414360079752667,5.2368458921333527,5.4322557762919894,5.6276656604511652,5.82307554461089,6.0184854287711618,6.2138953129319789,6.4093051970933406,6.5609631927002878,6.6469923215904378,6.733021450481135,6.8190505793723926,6.9050797082642044,6.9911088371565615,7.0771379660494738,7.1631670949429367,7.2491962238369618,7.3352253527315252,7.4212544816266552,7.5072836105223208,7.5933127394185522,7.6793418683153307,7.7653709972126617,7.8514001261105442,7.9374292550089809,8.0234583839079718,8.1094875128075188,8.195516641707604,8.1430080876374777,8.1047986053659944,8.06658912309507,8.0283796408247,7.9901701585548883,7.9519606762856458,7.91375119401696,7.8755417117488244,7.8373322294812606,7.799122747214251,7.7609132649477948,7.7227037826819123,7.6844943004165787,7.6462848181518064,7.6080753358876088,7.5698658536239538,7.5316563713608549,7.4934468890983279,7.3749233070965339,7.2028557266901041,7.0307881462842685,6.8587205658790023,6.6866529854743186,6.5145854050702159,6.3425178246666976,6.1704502442637583,5.9983826638614035,5.8263150834596216,5.6542475030584365,5.4821799226578216,5.3101123422577858,5.1380447618583407,4.9659771814594693,4.7939096010611841,4.6218420206634763,4.4497744402663493,4.2777068598698058,4.105639279473845,3.8360186114193544,3.5245881599548721,3.2131577084909591,2.9017272570276216,2.5902968055648503,2.2788663541026608,1.9674359026410435,1.6560054511799902,1.3445749997195213,1.0331445482596142,0.72171409680028831,0.41028364534153133,0.098853193883352092,-0.21257725757426438,-0.52400770903129568,-0.83543816048776265,-1.1468686119436515,-1.4582990633989659,-1.7697295148537135,-2.0811599663078839,-2.5061511153028095,-2.9595337804283517,-3.4129164455532846,-3.8662991106776041,-4.3196817758013211,-4.7730644409244238,-5.2264471060469226,-5.6798297711687971,-6.1332124362900684,-6.5865951014107456,-7.0399777665307948,-7.4933604316502418,-7.9467430967690627,-8.4001257618873062,-8.8535084270049165,-9.306891092121921,-9.760273757238318,-10.213656422354106,-10.667039087469274,-11.120421752583848,-11.702500110601825,-12.298879341669632,-12.895258572736822,-13.491637803803382,-14.088017034869312,-14.684396265934645,-15.280775496999341,-15.87715472806341,-16.473533959126875,-17.06991319018972,-17.666292421251949,-18.262671652313546,-18.859050883374533,-19.455430114434893,-20.051809345494625,-20.648188576553746,-21.244567807612267,-21.84094703867013,-22.437326269727404,-23.033705500784027,0,0.0123334271815282,0.034419804794485254,0.071164611925462987,0.12553539144754289,0.19785016414635331,0.28821035794161232,0.39655382132755657,0.52264137986053683,0.6659917464323698,0.77246810356797169,1.019575303624191
DP 85,99.037830990183778,0.0026362324763290605,-22.939907829357235,-22.56389649801238,-22.187885166667098,-21.811873835321336,-21.435862503975141,-21.059851172628512,-20.683839841281436,-20.30782850993393,-19.931817178585952,-19.555805847237547,-19.179794515888705,-18.803783184539412,-18.4277718531897,-18.051760521839508,-17.675749190488883,-17.299737859137821,-16.923726527786322,-16.547715196434378,-16.171703865081991,-15.795692533729158,-15.422406769233049,-15.073651364083247,-14.724895958932985,-14.376140553782266,-14.027385148631067,-13.678629743479421,-13.329874338327313,-12.981118933174733,-12.632363528021692,-12.283608122868191,-11.93485271771422,-11.586097312559781,-11.237341907404891,-10.888586502249526,-10.539831097093714,-10.191075691937426,-9.8423202867806783,-9.4935648816234686,-9.14480947646578,-8.7960540713076476,-8.4585270442595331,-8.1659140603216454,-7.8733010763832318,-7.5806880924443005,-7.2880751085048487,-6.995462124564872,-6.7028491406243642,-6.4102361566833421,-6.1176231727417933,-5.8250101887997268,-5.5323972048571344,-5.2397842209140171,-4.9471712369703793,-4.6545582530262175,-4.3619452690815361,-4.0693322851363236,-3.7767193011905951,-3.4841063172443461,-3.1914933332975708,-2.8988803493502742,-2.6309991664385741,-2.4208262985135915,-2.2106534305880681,-2.0004805626620112,-1.7903076947354211,-1.5801348268082922,-1.3699619588806287,-1.1597890909524284,-0.94961622302369342,-0.73944335509442349,-0.52927048716461833,-0.31909761923427787,-0.1089247513033994,0.10124811662801336,0.311420984559962,0.52159385249244672,0.73176672042546687,0.94193958835902492,1.1521124562931164,1.3622853242277415,1.5298189525048302,1.6333927137030808,1.7369664749019111,1.8405402361013268,1.9441139973013228,2.0476877585019033,2.1512615197030631,2.2548352809048073,2.3584090421071324,2.4619828033100437,2.5655565645135292,2.669130325717604,2.7727040869222566,2.8762778481274904,2.9798516093333114,3.0834253705397114,3.1869991317466893,3.2905728929542604,3.3941466541624075,3.4977204153711359,3.4881814257470767,3.4636508354844691,3.4391202452224729,3.4145896549610888,3.3900590647003166,3.3655284744401492,3.3409978841806027,3.316467293921658,3.2919367036633331,3.2674061134056123,3.2428755231485078,3.2183449328920157,3.193814342636129,3.1692837523808581,3.1447531621261966,3.1202225718721484,3.0956919816187067,3.0711613913658815,2.9588131950139029,2.7879185444759891,2.6170238939387542,2.4461292434021851,2.2752345928662954,2.1043399423310776,1.9334452917965395,1.7625506412626728,1.5916559907294781,1.420761340196959,1.2498666896651229,1.0789720391339543,0.90807738860346,0.73718273807364521,0.56628808754449911,0.39539343701603258,0.22449878648823496,0.053604135961116767,-0.11729051456532524,-0.28818516509109326,-0.57183503420158788,-0.90381009096657638,-1.2357851477308976,-1.5677602044945467,-1.899735261257534,-2.2317103180198425,-2.5636853747814814,-2.8956604315424634,-3.2276354883027647,-3.5596105450624056,-3.8915856018213737,-4.223560658579677,-4.5555357153373013,-4.8875107720942736,-5.2194858288505577,-5.5514608856061827,-5.8834359423611371,-6.2154109991154218,-6.5473860558690422,-6.8793611126219876,-7.3487100159245422,-7.8524040039676724,-8.35609799201004,-8.8597919800516483,-9.3634859680924869,-9.8671799561325653,-10.37087394417189,-10.874567932210445,-11.37826192024823,-11.881955908285276,-12.385649896321537,-12.889343884357055,-13.39303787239179,-13.896731860425799,-14.400425848458998,-14.904119836491462,-15.407813824523167,-15.91150781255411,-16.415201800584267,-16.918895788613696,-17.583057359072992,-18.265050346211179,-18.947043333348574,-19.629036320485177,-20.311029307620988,-20.993022294756013,-21.67501528189025,-22.357008269023659,-23.039001256156315,-23.720994243288168,-24.4029872304192,-25.084980217549486,-25.766973204678944,-26.448966191807642,-27.13095917893553,-27.812952166062605,-28.49494515318893,-29.1769381403144,-29.858931127439163,-30.540924114563047,0,0.020629631009004092,0.049348587899057106,0.093285681290759828,0.15778224667185803,0.24322246163644751,0.34967355197530936,0.47705796012180057,0.625136569642632,0.79341980736320739,0.91798539537448975,1.2082093503048719
DP 86,66.913835027557582,0.0034266466357772648,-21.505326306283756,-21.23404915052426,-20.962771994764598,-20.691494839004783,-20.420217683244818,-20.148940527484694,-19.877663371724424,-19.60638621596398,-19.335109060203408,-19.063831904442669,-18.792554748681759,-18.521277592920722,-18.250000437159535,-17.978723281398182,-17.707446125636661,-17.436168969875,-17.164891814113176,-16.893614658351197,-16.622337502589076,-16.3510603468268,-16.081743896704879,-15.83007398268194,-15.578404068658815,-15.326734154635494,-15.075064240611987,-14.823394326588302,-14.57172441256442,-14.320054498540346,-14.068384584516103,-13.816714670491667,-13.56504475646704,-13.313374842442231,-13.061704928417221,-12.810035014392039,-12.558365100366661,-12.306695186341093,-12.055025272315351,-11.803355358289416,-11.551685444263285,-11.300015530236983,-11.056418230711859,-10.845111770714965,-10.633805310717781,-10.42249885072032,-10.211192390722562,-9.9998859307245311,-9.7885794707262068,-9.5772730107276036,-9.3659665507287126,-9.1546600907295268,-8.9433536307300709,-8.7320471707303149,-8.520740710730287,-8.3094342507299661,-8.098127790729361,-7.8868213307284671,-7.6755148707272927,-7.46420841072584,-7.2529019507240919,-7.0415954907220568,-6.8480865983809709,-6.696105924671973,-6.5441252509626739,-6.3921445772530854,-6.2401639035432028,-6.08818322983302,-5.9362025561225371,-5.7842218824117619,-5.6322412087006875,-5.480260534989319,-5.3282798612776467,-5.1762991875656867,-5.0243185138534248,-4.8723378401408652,-4.7203571664280144,-4.5683764927148607,-4.4163958190014112,-4.2644151452876633,-4.1124344715736223,-3.9604537978592869,-3.8391725942953405,-3.7639413214050492,-3.6887100485143884,-3.6134787756233564,-3.5382475027319553,-3.4630162298401816,-3.3877849569480389,-3.3125536840555228,-3.2373224111626411,-3.1620911382693855,-3.0868598653757631,-3.01162859248177,-2.9363973195874045,-2.8611660466926709,-2.7859347737975644,-2.71070350090209,-2.6354722280062419,-2.5602409551100247,-2.485009682213442,-2.4097784093164827,-2.4149475646433087,-2.4320616559251458,-2.4491757472065725,-2.46628983848759,-2.4834039297681927,-2.5005180210483871,-2.5176321123281622,-2.534746203607535,-2.5518602948864895,-2.5689743861650363,-2.5860884774431692,-2.6032025687208877,-2.6203166599982013,-2.6374307512750983,-2.6545448425515854,-2.6716589338276604,-2.6887730251033237,-2.705887116378574,-2.78635846658791,-2.9090689875318865,-3.0317795084753589,-3.1544900294183424,-3.277200550360829,-3.3999110713028164,-3.5226215922443056,-3.6453321131853005,-3.7680426341258,-3.8907531550658034,-4.0134636760052995,-4.136174196944312,-4.2588847178828182,-4.38159523882083,-4.5043057597583491,-4.6270162806953667,-4.7497268016318959,-4.8724373225679223,-4.9951478435034478,-5.1178583644384812,-5.322011068821908,-5.5610686658350055,-5.8001262628476065,-6.0391838598597145,-6.2782414568713287,-6.517299053882434,-6.7563566508930544,-6.9954142479031844,-7.23447184491281,-7.4735294419219453,-7.7125870389305806,-7.9516446359387256,-8.190702232946375,-8.4297598299535288,-8.6688174269601763,-8.90787502396634,-9.146932620972,-9.3859902179771737,-9.6250478149818512,-9.8641054119860243,-10.202441484384538,-10.565598348629296,-10.928755212873435,-11.291912077116956,-11.655068941359879,-12.018225805602166,-12.381382669843868,-12.744539534084911,-13.107696398325375,-13.470853262565212,-13.834010126804431,-14.197166991043041,-14.560323855281045,-14.923480719518416,-15.286637583755178,-15.649794447991342,-16.012951312226861,-16.376108176461795,-16.739265040696093,-17.1024219049298,-17.581612565131518,-18.073697087965137,-18.56578161079813,-19.057866133630451,-19.549950656462116,-20.04203517929313,-20.534119702123487,-21.026204224953162,-21.518288747782233,-22.010373270610614,-22.502457793438349,-22.994542316265441,-23.486626839091858,-23.978711361917625,-24.470795884742742,-24.962880407567223,-25.454964930391007,-25.947049453214145,-26.439133976036654,-26.931218498858463,0,0.023683220500589276,0.048992120674970323,0.082918084214958221,0.1314795624533584,0.19521940147612152,0.27423982951429648,0.36853451105229379,0.47801917482646472,0.6024381552437611,0.69343331713058887,0.90608649498859328
DP 87,92.797956631915284,0.0037083391629659087,-30.639218452845679,-30.153267388553616,-29.667316324260973,-29.181365259967787,-28.695414195674079,-28.209463131379835,-27.723512067085043,-27.237561002789722,-26.751609938493839,-26.265658874197413,-25.779707809900486,-25.293756745602991,-24.807805681304966,-24.321854617006409,-23.835903552707268,-23.349952488407634,-22.864001424107457,-22.378050359806728,-21.892099295505464,-21.406148231203645,-20.923716759312867,-20.472961951812803,-20.022207144312183,-19.571452336810982,-19.12069752930919,-18.669942721806848,-18.219187914303934,-17.76843310680043,-17.317678299296375,-16.866923491791763,-16.416168684286571,-15.965413876780795,-15.514659069274455,-15.063904261767556,-14.613149454260085,-14.162394646752032,-13.711639839243443,-13.260885031734249,-12.810130224224489,-12.359375416714174,-11.923119647466365,-11.544860716514993,-11.166601785562959,-10.788342854610264,-10.410083923656929,-10.031824992702928,-9.653566061748263,-9.2753071307929478,-8.897048199836977,-8.5187892688803473,-8.14053033792305,-7.7622714069651089,-7.3840124760064985,-7.0057535450472406,-6.6274946140873165,-6.24923568312674,-5.8709767521655039,-5.4927178212036152,-5.114458890241071,-4.7361999592778643,-4.3898860269562947,-4.118111431305258,-3.8463368356535383,-3.5745622400011539,-3.302787644348089,-3.0310130486943549,-2.7592384530399414,-2.4874638573848529,-2.2156892617290929,-1.9439146660726569,-1.6721400704155485,-1.4003654747577661,-1.1285908790993044,-0.85681628344017258,-0.58504168778036436,-0.31326709211988046,-0.041492496458723077,0.23028209920311121,0.50205669486561688,0.77383129052879707,0.99051664688524954,1.1245668424876323,1.2586170380907558,1.3926672336946206,1.5267174292992318,1.6607676249045853,1.7948178205106784,1.9288680161175173,2.0629182117250973,2.196968407333419,2.331018602942486,2.4650687985522932,2.5991189941628421,2.7331691897741344,2.8672193853861718,3.0012695809989478,3.1353197766124676,3.2693699722267344,3.4034201678417428,3.5374703634574884,3.5256969533741613,3.4941772372207289,3.4626575210680772,3.4311378049162116,3.3996180887651315,3.3680983726148326,3.3365786564653268,3.3050589403165906,3.27353922416865,3.2420195080214915,3.2104997918751166,3.1789800757295268,3.1474603595847173,3.1159406434406947,3.0844209272974568,3.0529012111550013,3.0213814950133338,2.9898617788724486,2.8448074370734449,2.6240615562440377,2.4033156754155169,2.1825697945878546,1.9618239137610736,1.74107803293516,1.5203321521101276,1.2995862712859694,1.0788403904626771,0.85809450964026335,0.63734862881873078,0.41660274799806429,0.19585686717827316,-0.024889013640639047,-0.24563489445868439,-0.46638077527584992,-0.68712665609214874,-0.90787253690756808,-1.1286184177221108,-1.3493642985357799,-1.7159345456659849,-2.1450029188722715,-2.5740712920776905,-3.0031396652822391,-3.4322080384859315,-3.8612764116887384,-4.290344784890685,-4.7194131580917764,-5.1484815312919805,-5.5775499044913435,-6.0066182776898147,-6.4356866508874306,-6.86475502408417,-7.2938233972800663,-7.7228917704750613,-8.151960143669216,-8.5810285168624869,-9.010096890054891,-9.4391652632464282,-9.868233636437111,-10.475004244991394,-11.126202511978779,-11.777400778965191,-12.428599045950598,-13.079797312934993,-13.730995579918405,-14.382193846900824,-15.033392113882231,-15.68459038086265,-16.335788647842076,-16.986986914820488,-17.638185181797922,-18.289383448774327,-18.940581715749769,-19.591779982724184,-20.242978249697607,-20.894176516670036,-21.545374783641495,-22.196573050611924,-22.847771317581358,-23.706578012985517,-24.588454491939814,-25.470330970893038,-26.352207449845228,-27.234083928796391,-28.115960407746531,-28.997836886695588,-29.879713365643607,-30.761589844590596,-31.64346632353654,-32.525342802481447,-33.40721928142532,-34.289095760368163,-35.170972239309911,-36.052848718250658,-36.934725197190353,-37.816601676129025,-38.69847815506661,-39.580354634003243,-40.462231112938731,0,0.028261126942982009,0.066169202686870321,0.1233284110982882,0.20707981408922352,0.31794901015576232,0.45602012120858193,0.62119532120145127,0.81317675903819919,1.0313475547767905,1.1926908079804659,1.5687837765591717
DP 88,65.299165784167585,0.0032444282823394961,-19.937888133696696,-19.691971835165869,-19.44605553663494,-19.200139238103851,-18.954222939572666,-18.708306641041336,-18.462390342509892,-18.216474043978316,-17.970557745446616,-17.7246414469148,-17.478725148382836,-17.232808849850766,-16.986892551318572,-16.740976252786254,-16.495059954253808,-16.249143655721237,-16.003227357188536,-15.757311058655699,-15.51139476012276,-15.265478461589673,-15.021339666749377,-14.793198573162272,-14.565057479575017,-14.336916385987609,-14.108775292400042,-13.880634198812309,-13.652493105224442,-13.424352011636396,-13.1962109180482,-12.968069824459857,-12.739928730871357,-12.511787637282687,-12.283646543693871,-12.0555054501049,-11.827364356515771,-11.599223262926481,-11.371082169337035,-11.142941075747446,-10.914799982157678,-10.686658888567768,-10.465833809481698,-10.274273134176381,-10.082712458870827,-9.8911517835650162,-9.6995911082589554,-9.5080304329526513,-9.3164697576460949,-9.124909082339288,-8.9333484070322218,-8.741787731724914,-8.55022705641735,-8.3586663811095381,-8.1671057058014753,-7.9755450304931585,-7.7839843551845984,-7.5924236798757772,-7.4008630045667134,-7.2093023292574054,-7.0177416539478346,-6.8261809786380176,-6.6507521141192658,-6.5129646497190938,-6.3751771853186563,-6.2373897209179576,-6.099602256517,-5.9618147921157814,-5.8240273277143029,-5.6862398633125562,-5.5484523989105572,-5.4106649345082927,-5.2728774701057661,-5.135090005702982,-4.997302541299935,-4.8595150768966278,-4.7217276124930576,-4.5839401480892281,-4.4461526836851339,-4.3083652192807822,-4.1705777548761676,-4.0327902904712953,-3.9228278034826554,-3.8546034401403269,-3.7863790767976693,-3.7181547134546795,-3.649930350111358,-3.5817059867677026,-3.5134816234237181,-3.4452572600794018,-3.3770328967347578,-3.3088085333897759,-3.2405841700444666,-3.1723598066988283,-3.1041354433528561,-3.0359110800065539,-2.9676867166599195,-2.8994623533129538,-2.8312379899656568,-2.7630136266180236,-2.6947892632700667,-2.6265648999217754,-2.6311409196150208,-2.6466163583899345,-2.6620917971644782,-2.6775672359386546,-2.6930426747124585,-2.7085181134858929,-2.7239935522589493,-2.7394689910316483,-2.7549444298039663,-2.7704198685759192,-2.7858953073474986,-2.801370746118705,-2.8168461848895459,-2.8323216236600128,-2.8477970624301108,-2.8632725011998379,-2.8787479399691951,-2.8942233787381775,-2.9671244270349568,-3.07831011968336,-3.189495812331304,-3.3006815049788072,-3.4118671976258526,-3.5230528902724512,-3.6342385829185955,-3.7454242755642864,-3.8566099682095318,-3.9677956608543234,-4.0789813534986568,-4.1901670461425464,-4.301352738785984,-4.4125384314289651,-4.5237241240715,-4.6349098167135834,-4.7460955093552144,-4.8572812019963951,-4.9684668946371211,-5.0796525872773977,-5.264659183262844,-5.4813043060655513,-5.6979494288678136,-5.9145945516696177,-6.131239674470975,-6.3478847972718784,-6.5645299200723262,-6.78117504287234,-6.9978201656718912,-7.2144652884710023,-7.4311104112696516,-7.6477555340678522,-7.8644006568656115,-8.0810457796629134,-8.2976909024597685,-8.5143360252561688,-8.73098114805212,-8.9476262708476213,-9.1642713936426716,-9.38091651643727,-9.6875478191940054,-10.016676730148333,-10.345805641102109,-10.674934552055317,-11.004063463007968,-11.333192373960063,-11.662321284911588,-11.991450195862541,-12.320579106812946,-12.649708017762773,-12.978836928712042,-13.307965839660753,-13.637094750608895,-13.966223661556468,-14.295352572503484,-14.624481483449957,-14.95361039439584,-15.282739305341167,-15.611868216285941,-15.940997127230141,-16.375302880971663,-16.821296055190778,-17.26728922940929,-17.713282403627172,-18.159275577844475,-18.605268752061157,-19.051261926277245,-19.49725510049274,-19.943248274707635,-20.389241448921915,-20.835234623135587,-21.281227797348681,-21.727220971561177,-22.173214145773056,-22.619207319984326,-23.065200494194997,-23.511193668405092,-23.95718684261454,-24.403180016823445,-24.849173191031682,0,0.022320003513531538,0.045737317961084753,0.076743303212403566,0.12097438225862736,0.17895441847043481,0.25078802432207653,0.33647845485914152,0.43596110708038394,0.54901496466990629,0.63156460542108317,0.82450511913229529
DP 89,52.590195418531351,0.0040432275497533244,-20.673685398714106,-20.473603772301743,-20.273522145889423,-20.073440519477149,-19.873358893064932,-19.673277266652743,-19.473195640240608,-19.273114013828511,-19.073032387416468,-18.872950761004478,-18.672869134592521,-18.47278750818063,-18.272705881768758,-18.072624255356939,-17.872542628945169,-17.672461002533446,-17.472379376121772,-17.272297749710145,-17.07221612329856,-16.872134496887018,-16.673498554599522,-16.487873906080353,-16.302249257561183,-16.11662460904202,-15.930999960522861,-15.745375312003713,-15.559750663484566,-15.374126014965409,-15.188501366446266,-15.002876717927144,-14.817252069408001,-14.631627420888874,-14.446002772369754,-14.260378123850636,-14.074753475331521,-13.88912882681241,-13.7035041782933,-13.517879529774206,-13.3322548812551,-13.14663023273601,-12.966946791429624,-12.811028459763659,-12.655110128097602,-12.499191796431392,-12.343273464765087,-12.187355133098645,-12.031436801432077,-11.875518469765389,-11.719600138098585,-11.56368180643164,-11.407763474764586,-11.251845143097398,-11.095926811430095,-10.940008479762675,-10.784090148095123,-10.628171816427443,-10.472253484759641,-10.316335153091728,-10.160416821423688,-10.00449848975552,-9.8616852100360415,-9.7494507977706473,-9.6372163855050985,-9.5249819732394236,-9.41274756097362,-9.3005131487076742,-9.1882787364416014,-9.0760443241753954,-8.9638099119090562,-8.8515754996425748,-8.7393410873759674,-8.6271066751092373,-8.5148722628423563,-8.4026378505753563,-8.2904034383082159,-8.1781690260409441,-8.0659346137735426,-7.9537002015060088,-7.841465789238331,-7.7292313769705334,-7.6395895956773705,-7.5838372947243986,-7.5280849937712011,-7.4723326928177682,-7.41658039186411,-7.3608280909102266,-7.3050757899561258,-7.249323489001787,-7.1935711880472271,-7.1378188870924371,-7.0820665861374241,-7.0263142851821874,-6.9705619842267161,-6.9148096832710291,-6.8590573823151031,-6.8033050813589542,-6.7475527804025868,-6.6918004794459849,-6.6360481784891494,-6.5802958775321043,-6.5829758850322007,-6.5951984767249234,-6.6074210684173762,-6.6196436601095527,-6.631866251801446,-6.6440888434930718,-6.6563114351844082,-6.668534026875478,-6.6807566185662672,-6.6929792102567829,-6.7052018019470232,-6.7174243936369713,-6.7296469853266583,-6.7418695770160646,-6.7540921687051894,-6.7663147603940459,-6.7785373520826182,-6.7907599437709134,-6.8496141847266436,-6.9395569264821173,-7.0294996682372144,-7.1194424099919429,-7.2093851517462939,-7.2993278935002595,-7.389270635253844,-7.4792133770070555,-7.5691561187598895,-7.6590988605123442,-7.7490416022644117,-7.8389843440161133,-7.928927085767433,-8.01886982751837,-8.1088125692689257,-8.1987553110191147,-8.2886980527689165,-8.378640794518347,-8.4685835362673885,-8.5585262780160534,-8.7084324670662969,-8.884038086081997,-9.0596437050973115,-9.2352493241122424,-9.4108549431268056,-9.5864605621409833,-9.76206618115477,-9.9376718001681983,-10.113277419181237,-10.288883038193902,-10.464488657206175,-10.640094276218077,-10.815699895229592,-10.991305514240748,-11.166911133251501,-11.342516752261888,-11.518122371271893,-11.693727990281513,-11.869333609290759,-12.044939228299612,-12.293617687088302,-12.560565219194007,-12.827512751299194,-13.094460283403871,-13.36140781550804,-13.628355347611663,-13.895302879714784,-14.162250411817393,-14.429197943919467,-14.696145476021027,-14.963093008122074,-15.230040540222598,-15.496988072322598,-15.763935604422077,-16.030883136521044,-16.297830668619504,-16.564778200717424,-16.831725732814839,-17.098673264911724,-17.365620797008106,-17.717996489075109,-18.07986509611883,-18.441733703162022,-18.803602310204592,-19.165470917246608,-19.527339524288074,-19.889208131328971,-20.251076738369282,-20.612945345409056,-20.974813952448248,-21.336682559486867,-21.698551166524908,-22.0604197735624,-22.422288380599337,-22.784156987635697,-23.146025594671478,-23.507894201706709,-23.869762808741353,-24.231631415775457,-24.593500022808968,0,0.0271031158943095,0.051434373414517842,0.079804816106898,0.11840264337816735,0.16794438101717415,0.22867700697126547,0.3007409904278141,0.3842477472684882,0.47915243121579792,0.54671791284995575,0.70441124178242231
DP 90,181.84797939001245,0.0017556211000196876,-23.334241213631042,-22.868594375935945,-22.402947538240173,-21.937300700543688,-21.471653862846537,-21.006007025148715,-20.540360187450197,-20.074713349750976,-19.609066512051097,-19.143419674350504,-18.677772836649243,-18.21212599894729,-17.746479161244629,-17.280832323541325,-16.815185485837311,-16.349538648132615,-15.883891810427217,-15.418244972721146,-14.952598135014394,-14.486951297306955,-14.024804982237972,-13.594163701805153,-13.163522421371617,-12.732881140937394,-12.302239860502461,-11.87159858006685,-11.440957299630547,-11.010316019193535,-10.579674738755847,-10.149033458317454,-9.71839217787837,-9.2877508974385918,-8.8571096169981267,-8.4264683365569528,-7.9958270561151021,-7.5651857756725365,-7.1345444952292967,-6.7039032147853552,-6.2732619343407183,-5.8426206538953886,-5.4263118302783093,-5.06733351134816,-4.7083551924172982,-4.3493768734857188,-3.9903985545534315,-3.6314202356204297,-3.2724419166867134,-2.9134635977522816,-2.55448527881714,-2.1955069598812829,-1.8365286409447112,-1.4775503220074235,-1.1185720030694259,-0.7595936841307126,-0.40061536519128638,-0.041637046251145712,0.31734127268970713,0.67631959163127309,1.0352979105735509,1.3942762295165434,1.7220224219361908,1.9768926684220371,2.2317629149086109,2.4866331613959085,2.7415034078839327,2.9963736543726829,3.25124390086216,3.5061141473523669,3.760984393843295,4.01585464033495,4.2707248868273311,4.5255951333204338,4.7804653798142711,5.0353356263088331,5.2902058728041172,5.5450761193001341,5.7999463657968695,6.054816612294335,6.3096868587925252,6.5645571052914411,6.7662903719994087,6.8883169133600406,7.0103434547214158,7.1323699960835416,7.2543965374464117,7.376423078810026,7.4984496201743864,7.6204761615394876,7.742502702905333,7.8645292442719281,7.9865557856392657,8.10858232700735,8.2306088683761747,8.3526354097457478,8.4746619511160652,8.5966884924871287,8.7187150338589383,8.8407415752314868,8.9627681166047868,9.0847946579788275,9.0578045570639762,9.0226029111956656,8.9874012653281277,8.9521996194613447,8.9169979735953167,8.8817963277300542,8.8465946818655539,8.8113930360018085,8.77619139013883,8.7409897442766074,8.7057880984151446,8.6705864525544456,8.6353848066945016,8.600183160835325,8.5649815149769033,8.5297798691192472,8.4945782232623372,8.4593765774061982,8.3180233542001734,8.1059007404796066,7.8937781267598455,7.6816555130408819,7.46953289932272,7.2574102856053466,7.0452876718887962,6.8331650581730212,6.6210424444580509,6.4089198307438888,6.1967972170305252,5.9846746033179574,5.7725519896061881,5.5604293758952226,5.3483067621850573,5.1361841484756967,4.9240615347671222,4.7119389210593594,4.4998163073523942,4.28769369364623,3.9411868443120142,3.537084936531333,3.1329830287514397,2.7288811209723383,2.3247792131940135,1.9206773054164989,1.5165753976397671,1.1124734898638104,0.70837158208866091,0.30426967431428725,-0.0998322334592879,-0.50393414123207825,-0.90803604900407253,-1.3121379567752898,-1.7162398645457035,-2.1203417723153359,-2.5244436800841763,-2.9285455878522217,-3.33264749561949,-3.7367494033859572,-4.3027666395024688,-4.90926462077287,-5.5157626020424191,-6.122260583311113,-6.7287585645789516,-7.3352565458459491,-7.941754527112094,-8.5482525083773737,-9.154750489641799,-9.7612484709053948,-10.367746452168095,-10.97424443342998,-11.580742414690986,-12.187240395951164,-12.793738377210476,-13.400236358468932,-14.006734339726538,-14.613232320983297,-15.219730302239196,-15.82622828349424,-16.620478480480426,-17.435592006622549,-18.250705532763835,-19.065819058904211,-19.880932585043727,-20.696046111182383,-21.511159637320151,-22.326273163457028,-23.141386689593073,-23.956500215728227,-24.771613741862524,-25.58672726799594,-26.401840794128489,-27.216954320260172,-28.032067846390948,-28.84718137252089,-29.662294898649954,-30.477408424778098,-31.292521950905449,-32.10763547703187,0,0.018261798375773169,0.049419269588327749,0.10041233043622826,0.17575226413904418,0.2758657176976132,0.40087739408956508,0.55069887310172416,0.72500754165700065,0.9231543306085096,1.070278629272684,1.4120503628122818
DP 91,100.47758590672954,0.0012057895277420455,-10.611988843450344,-10.436849223729945,-10.261709604009324,-10.086569984288509,-9.9114303645674848,-9.7362907448462455,-9.5611511251248036,-9.3860115054031432,-9.2108718856812768,-9.0357322659592043,-8.8605926462369347,-8.68545302651444,-8.5103134067917434,-8.3351737870688325,-8.1600341673457191,-7.9848945476223978,-7.8097549278988625,-7.6346153081751229,-7.4594756884511746,-7.2843360687270131,-7.1104662751444456,-6.9480250368672962,-6.785583798589931,-6.623142560312349,-6.4607013220345415,-6.2982600837565252,-6.1358188454782905,-5.9733776071998292,-5.8109363689211531,-5.6484951306422673,-5.4860538923631541,-5.3236126540838269,-5.1611714158042812,-4.9987301775245134,-4.8362889392445361,-4.6738477009643322,-4.5114064626839161,-4.3489652244032788,-4.1865239861224266,-4.0240827478413532,-3.866872556267996,-3.730586798752678,-3.5943010412371184,-3.4580152837213127,-3.3217295262052633,-3.1854437686889674,-3.0491580111724264,-2.912872253655642,-2.7765864961386133,-2.64030073862134,-2.5040149811038188,-2.3677292235860543,-2.2314434660680456,-2.0951577085497921,-1.9588719510312922,-1.8225861935125478,-1.6863004359935598,-1.5500146784743256,-1.4137289209548489,-1.2774431634351262,-1.1526787010773958,-1.0547976237714107,-0.9569165464651721,-0.85903546915868467,-0.761154391851948,-0.6632733145449583,-0.56539223723771881,-0.46751115993022729,-0.36963008262248648,-0.2717490053144942,-0.17386792800625178,-0.075986850697758485,0.021894226610986396,0.11977530391998187,0.21765638122922751,0.31553745853872472,0.41341853584847238,0.51129961315847172,0.60918069046872092,0.70706176777922025,0.78508091892957077,0.83330671148966462,0.88153250405002925,0.92975829661066733,0.977984089171577,1.0262098817327585,1.0744356742942118,1.1226614668559376,1.1708872594179334,1.2191130519802036,1.2673388445427431,1.3155646371055569,1.3637904296686414,1.4120162222319963,1.4602420147956268,1.5084678073595255,1.5566935999236977,1.6049193924881411,1.6531451850528582,1.7013709776178465,1.6968790998504593,1.6854370774331808,1.6739950550161846,1.6625530325994744,1.6511110101830488,1.6396689877669095,1.6282269653510566,1.6167849429354864,1.6053429205202021,1.5939008981052023,1.5824588756904892,1.5710168532760613,1.5595748308619164,1.5481328084480572,1.5366907860344852,1.5252487636211958,1.513806741208193,1.5023647187954761,1.4500233453875127,1.3704150936661714,1.2908068419451424,1.2111985902244276,1.1315903385040282,1.0519820867839407,0.97237383506417,0.89276558334471179,0.81315733162556658,0.73354907990673668,0.65394082818822352,0.57433257647002078,0.49472432475213429,0.41511607303456216,0.33550782131730184,0.25589956960035787,0.17629131788372568,0.0966830661674095,0.017074814451408429,-0.062533437264278957,-0.19465057662695734,-0.34927223401478436,-0.5038938914023009,-0.6585155487895038,-0.81313720617639929,-0.96775886356297813,-1.1223805209492459,-1.27700217833521,-1.4316238357208544,-1.5862454931061922,-1.7408671504912177,-1.8954888078759304,-2.05011046526033,-2.2047321226444243,-2.359353780028203,-2.513975437411673,-2.6685970947948263,-2.8232187521776697,-2.9778404095602058,-3.1324620669424252,-3.3510543382564513,-3.5856400188807407,-3.82022569950468,-4.05481138012826,-4.289397060751492,-4.523982741374371,-4.7585684219968893,-4.9931541026190569,-5.2277397832408719,-5.462325463862336,-5.6969111444834351,-5.9314968251041913,-6.1660825057245772,-6.4006681863446353,-6.6352538669643177,-6.86983954758366,-7.1044252282026372,-7.33901090882127,-7.5735965894395454,-7.80818227005746,-8.1174882315261936,-8.4350972311664911,-8.7527062308064334,-9.0703152304459884,-9.3879242300851917,-9.7055332297240238,-10.023142229362485,-10.340751229000572,-10.658360228638305,-10.97596922827565,-11.293578227912652,-11.611187227549262,-11.928796227185513,-12.246405226821411,-12.564014226456926,-12.881623226092076,-13.19923222572686,-13.516841225361265,-13.834450224995329,-14.152059224628982,0,0.0094937038128059918,0.022813404375163982,0.043250796585861041,0.073261828362578454,0.11302364963850527,0.16256789856795381,0.22185833633175722,0.2907828595927629,0.36911223817833649,0.42710299018161313,0.56220109670247809
DP 92,54.050347200610631,0.0043920435184823178,-22.9744098089603,-22.744041884314967,-22.513673959669646,-22.283306035024374,-22.0529381103791,-21.822570185733877,-21.592202261088659,-21.361834336443472,-21.131466411798321,-20.901098487153192,-20.670730562508083,-20.440362637862993,-20.209994713217942,-19.979626788572915,-19.7492588639279,-19.518890939282937,-19.288523014637963,-19.058155089993022,-18.827787165348131,-18.59741924070325,-18.368716145720818,-18.154996675067004,-17.941277204413154,-17.727557733759298,-17.51383826310542,-17.30011879245151,-17.086399321797607,-16.872679851143651,-16.658960380489688,-16.445240909835732,-16.231521439181726,-16.017801968527714,-15.80408249787366,-15.590363027219617,-15.376643556565547,-15.162924085911447,-14.94920461525734,-14.735485144603208,-14.521765673949039,-14.308046203294879,-14.101168819453012,-13.921660106226886,-13.742151393000603,-13.562642679774166,-13.383133966547575,-13.203625253320821,-13.024116540093923,-12.844607826866858,-12.665099113639631,-12.485590400412258,-12.306081687184712,-12.126572973957028,-11.947064260729173,-11.767555547501169,-11.588046834273014,-11.408538121044687,-11.229029407816213,-11.049520694587581,-10.870011981358793,-10.690503268129845,-10.526086493308517,-10.396884716947193,-10.26768294058569,-10.138481164224025,-10.009279387862186,-9.8800776115001874,-9.7508758351380127,-9.6216740587756746,-9.4924722824131749,-9.3632705060504975,-9.2340687296876585,-9.1048669533246525,-8.9756651769614813,-8.8464634005981324,-8.7172616242346184,-8.5880598478709267,-8.4588580715070876,-8.329656295143069,-8.2004545187788889,-8.0712527424145328,-7.9680719994959821,-7.9039234216396688,-7.8397748437830908,-7.7756262659262383,-7.711477688069122,-7.6473291102117393,-7.5831805323540813,-7.5190319544961541,-7.4548833766379614,-7.3907347987795022,-7.3265862209207713,-7.2624376430617748,-7.1982890652025056,-7.1341404873429717,-7.0699919094831625,-7.0058433316230939,-6.9416947537627536,-6.8775461759021352,-6.8133975980412567,-6.749249020180109,-6.7525316151075705,-6.7666745166547582,-6.7808174182016367,-6.7949603197481805,-6.8091032212944036,-6.8232461228403078,-6.83738902438588,-6.8515319259311447,-6.8656748274760728,-6.879817729020683,-6.8939606305649725,-6.9081035321089281,-6.92224643365257,-6.9363893351958863,-6.950532236738872,-6.9646751382815459,-6.978818039823893,-6.9929609413659115,-7.0608081970794334,-7.1644592016167712,-7.2681102061536675,-7.37176121069014,-7.4754122152261759,-7.5790632197617862,-7.6827142242969551,-7.7863652288316869,-7.8900162333659951,-7.993667237899861,-8.0973182424333,-8.2009692469663023,-8.3046202514988749,-8.4082712560310089,-8.5119222605627147,-8.6155732650939747,-8.7192242696248226,-8.8228752741552245,-8.9265262786851842,-9.0301772832147211,-9.2028885240448357,-9.4051979415321227,-9.6075073590189586,-9.8098167765053752,-10.012126193991355,-10.214435611476892,-10.416745028961998,-10.619054446446679,-10.821363863930912,-11.023673281414727,-11.225982698898097,-11.428292116381028,-11.63060153386353,-11.832910951345605,-12.035220368827229,-12.237529786308436,-12.4398392037892,-12.642148621269524,-12.844458038749428,-13.046767456228887,-13.333238781639865,-13.640751578425665,-13.948264375210861,-14.255777171995479,-14.563289968779522,-14.870802765562978,-15.178315562345839,-15.48582835912811,-15.793341155909809,-16.10085395269094,-16.408366749471433,-16.715879546251369,-17.023392343030714,-17.330905139809481,-17.638417936587654,-17.945930733365248,-18.253443530142249,-18.560956326918685,-18.86846912369451,-19.175981920469749,-19.581883957207666,-19.998719165044108,-20.415554372879896,-20.832389580715041,-21.249224788549551,-21.666059996383421,-22.082895204216658,-22.499730412049246,-22.916565619881222,-23.333400827712531,-23.750236035543217,-24.167071243373282,-24.583906451202672,-25.000741659031458,-25.417576866859548,-25.834412074687059,-26.251247282513916,-26.668082490340122,-27.084917698165718,-27.501752905990635,0,0.029497440790464909,0.056470291522509125,0.088470879430575883,0.13235226411974035,0.18889437458404912,0.25834884546800158,0.34084640976470543,0.43647867927858908,0.54516511900847264,0.62290650947917814,0.8044631335919169
DP 93,261.59132395586931,0.0041958044229204808,-70.126722278633,-68.620597687933568,-67.114473097232093,-65.608348506528358,-64.102223915822478,-62.596099325114579,-61.089974734404443,-59.583850143692196,-58.077725552977789,-56.571600962261208,-55.065476371542552,-53.559351780821679,-52.053227190098696,-50.547102599373616,-49.040978008646341,-47.534853417916906,-46.028728827185425,-44.5226042364517,-43.016479645715847,-41.510355054977886,-40.016469069546794,-38.632731688740556,-37.2489943079322,-35.865256927121685,-34.481519546309016,-33.097782165494181,-31.714044784677192,-30.330307403858033,-28.946570023036731,-27.562832642213284,-26.179095261387705,-24.795357880559937,-23.411620499730034,-22.027883118897968,-20.644145738063756,-19.260408357227373,-17.876670976388848,-16.49293359554817,-15.109196214705333,-13.725458833860346,-12.39113294857953,-11.254455380817914,-10.117777813054122,-8.98110024528815,-7.8444226775200141,-6.707745109749701,-5.57106754197721,-4.43438997420254,-3.2977124064257035,-2.1610348386466898,-1.0243572708654984,0.1123202969178765,1.2489978647034188,2.3856754324911384,3.5223530002810306,4.6590305680730992,5.795708135867339,6.932385703663754,8.0690632714623387,9.20574083926311,10.237160101446667,11.022973334098435,11.808786566752422,12.594599799408604,13.380413032067,14.1662262647276,14.952039497390427,15.737852730055456,16.523665962722696,17.309479195392132,18.095292428063793,18.881105660737635,19.666918893413722,20.452732126092005,21.238545358772495,22.024358591455194,22.810171824140088,23.595985056827224,24.381798289516553,25.167611522208087,25.779562306397345,26.130715309352116,26.481868312309121,26.833021315268361,27.184174318229836,27.535327321193535,27.886480324159486,28.237633327127707,28.588786330098134,28.939939333070765,29.291092336045693,29.642245339022853,29.993398342002216,30.344551344983806,30.695704347967691,31.046857350953804,31.398010353942141,31.7491633569327,32.100316359925515,32.451469362920548,32.26220977098555,32.116274393905726,31.970339016828174,31.824403639752894,31.678468262679871,31.532532885609132,31.386597508540635,31.240662131474444,31.094726754410491,30.948791377348815,30.802856000289424,30.65692062323231,30.510985246177466,30.365049869124839,30.219114492074542,30.073179115026463,29.927243737980682,29.781308360937174,29.311644170406431,28.626155670954017,27.940667171503954,27.255178672056267,26.56969017261093,25.884201673167933,25.19871317372731,24.513224674289074,23.827736174853154,23.142247675419611,22.456759175988438,21.771270676559606,21.085782177133165,20.400293677709062,19.714805178287314,19.029316678867925,18.3438281794509,17.658339680036249,16.972851180623945,16.287362681214,15.205811371317466,13.954513508844771,12.70321564637436,11.451917783906291,10.200619921440524,8.94932205897713,7.6980241965160463,6.4467263340572476,5.1954284716008257,3.94413060914669,2.6928327466949051,1.4415348842454334,0.19023702179830823,-1.0610608406465332,-2.312358703089,-3.5636565655291741,-4.8149544279670042,-6.0662522904025069,-7.3175501528356994,-8.5688480152665534,-10.28404237851419,-12.115216348008515,-13.946390317500377,-15.777564286989758,-17.608738256476681,-19.439912225961088,-21.271086195443072,-23.102260164922512,-24.933434134399487,-26.764608103874036,-28.59578207334603,-30.426956042815629,-32.258130012282635,-34.089303981747278,-35.920477951209357,-37.751651920669012,-39.582825890126188,-41.413999859580855,-43.24517382903305,-45.076347798482786,-47.4354368316133,-49.85318863842695,-52.270940445238111,-54.688692252046643,-57.106444058852794,-59.524195865656324,-61.941947672457374,-64.3596994792558,-66.777451286051829,-69.195203092845361,-71.6129548996363,-74.030706706424823,-76.4484585132107,-78.866210319994082,-81.283962126774952,-83.701713933553307,-86.119465740329176,-88.53721754710233,-90.9549693538733,-93.372721160641419,0,0.05036872921624666,0.1402218697768057,0.2894973071582182,0.51034643970914217,0.80405713402384782,1.1710374301412056,1.6110344305603734,2.1230789222476689,2.7052198440897017,3.137607293997736,4.1411679619457455
DP 94,214.84873352649888,0.0018293064034645287,-26.985319008299175,-26.427474139162317,-25.869629270024635,-25.311784400886168,-24.753939531746845,-24.196094662606683,-23.638249793465718,-23.08040492432395,-22.522560055181366,-21.964715186037932,-21.406870316893681,-20.849025447748613,-20.291180578602731,-19.733335709456014,-19.175490840308509,-18.617645971160155,-18.059801102010976,-17.501956232861,-16.944111363710189,-16.386266494558562,-15.832736244134098,-15.318037970097134,-14.803339696059343,-14.288641422020737,-13.773943147981285,-13.259244873941006,-12.744546599899907,-12.229848325857969,-11.715150051815222,-11.200451777771642,-10.685753503727224,-10.171055229681979,-9.6563569556359248,-9.1416586815890266,-8.6269604075413078,-8.1122621334927487,-7.5975638594433814,-7.08286558539318,-6.5681673113421475,-6.05346903729029,-5.5563458414588061,-5.1295237891339491,-4.7027017368082467,-4.2758796844817049,-3.8490576321543171,-3.4222355798260886,-2.9954135274970195,-2.5685914751671075,-2.1417694228363544,-1.7149473705047569,-1.2881253181723187,-0.86130326583903483,-0.43448121350491,-0.0076591611699431874,0.41916289116586658,0.84598494350251818,1.2728069958400126,1.6996290481783458,2.1264511005175226,2.5532731528575408,2.9421136936341306,3.2423295107272097,3.5425453278211561,3.8427611449159542,4.1429769620116073,4.4431927791081174,4.7434085962054873,5.0436244133037116,5.3438402304027921,5.6440560475027279,5.9442718646035138,6.2444876817051647,6.5447034988076744,6.8449193159110333,7.1451351330152519,7.445350950120333,7.7455667672262507,8.0457825843330468,8.3459984014406867,8.6462142185491881,8.8824987497820427,9.02288484146416,9.1632709331471514,9.30365702483101,9.444043116515747,9.5844292082013567,9.7248152998878279,9.8652013915751837,10.005587483263403,10.145973574952503,10.286359666642479,10.426745758333318,10.567131850025037,10.707517941717619,10.847904033411085,10.98829012510541,11.128676216800619,11.269062308496697,11.40944840019365,11.54983449189147,11.503830121391431,11.457350801597421,11.410871481804305,11.364392162012065,11.317912842220714,11.271433522430263,11.22495420264069,11.178474882851997,11.131995563064212,11.085516243277302,11.039036923491269,10.992557603706143,10.946078283921894,10.899598964138535,10.853119644356058,10.806640324574479,10.760161004793778,10.713681685013972,10.542629388263896,10.28852647771364,10.034423567164303,9.780320656615892,9.526217746068415,9.2721148355218634,9.0180119249762321,8.76390901443154,8.50980610388777,8.25570319334493,8.0016002828030235,7.7474973722620293,7.49339446172198,7.2392915511828537,6.9851886406446511,6.731085730107373,6.4769828195710266,6.2228799090356048,5.9687769985011183,5.7146740879675644,5.3047176950680646,4.82796484807556,4.3512120010839714,3.8744591540933029,3.3977063071035372,2.9209534601147062,2.4442006131267839,1.9674477661397602,1.490694919153672,1.0139420721684826,0.5371892251842183,0.060436378200864928,-0.416316468781566,-0.89306931576309667,-1.3698221627436935,-1.8465750097233897,-2.3233278567021634,-2.8000807036800195,-3.2768335506569675,-3.7535863976329971,-4.4163235565041861,-5.1255589907960566,-5.8347944250869421,-6.54402985937685,-7.25326529366577,-7.96250072795372,-8.6717361622406912,-9.3809715965266687,-10.09020703081166,-10.799442465095693,-11.508677899378711,-12.217913333660778,-12.927148767941826,-13.63638420222194,-14.345619636501045,-15.054855070779166,-15.76409050505632,-16.473325939332486,-17.182561373607676,-17.891796807881871,-18.815334938580126,-19.762686730688912,-20.710038522796744,-21.657390314903527,-22.604742107009326,-23.552093899114119,-24.4994456912179,-25.446797483320683,-26.394149275422492,-27.341501067523303,-28.288852859623081,-29.236204651721913,-30.183556443819665,-31.130908235916458,-32.078260028012245,-33.025611820107052,-33.972963612200857,-34.920315404293625,-35.867667196385433,-36.815018988476183,0,0.020428821109551798,0.056149334515342368,0.11507967028884653,0.20220773226057717,0.31803434309547007,0.46271271147140308,0.63614191482315663,0.83794387170171825,1.0673576572514183,1.2377323092234682,1.6333344146417581
DP 95,230.23860399669422,0.0036599149931681525,-56.383390520025429,-55.201719372205332,-54.02004822438343,-52.838377076559873,-51.656705928734532,-50.475034780907514,-49.293363633078727,-48.111692485248213,-46.930021337416008,-45.748350189582077,-44.566679041746426,-43.385007893909027,-42.203336746069922,-41.021665598229035,-39.839994450386477,-38.658323302542186,-37.4766521546962,-36.294981006848445,-35.113309858998974,-33.931638711147777,-32.759248511806192,-31.670387726340028,-30.581526940872109,-29.492666155402468,-28.40380536993106,-27.314944584457983,-26.226083798983094,-25.137223013506517,-24.048362228028179,-22.959501442548113,-21.870640657066321,-20.78177987158276,-19.692919086097497,-18.604058300610486,-17.515197515121738,-16.426336729631249,-15.337475944139021,-14.248615158645054,-13.159754373149367,-12.070893587651927,-11.019732403029018,-10.11937140364503,-9.21901040425928,-8.3186494048717741,-7.4182884054825058,-6.5179274060914771,-5.6175664066986819,-4.7172054073041227,-3.8168444079078063,-2.9164834085097247,-2.0161224091098759,-1.11576140970826,-0.21540041030488724,0.68496058910025026,1.5853215885071494,2.4856825879158118,3.3860435873262404,4.28640458673842,5.1867655861523643,6.087126585568071,6.9063778787912,7.5363706353349436,8.1663633918804859,8.7963561484278259,9.4263489049769333,10.056341661527847,10.686334418080561,11.316327174635045,11.94631993119134,12.576312687749422,13.206305444309264,13.836298200870946,14.466290957434406,15.096283713999641,15.726276470566669,16.35626922713551,16.986261983706129,17.616254740278546,18.246247496852749,18.87624025342873,19.370499420903723,19.66115499725548,19.951810573609052,20.242466149964432,20.533121726321649,20.823777302680675,21.114432879041534,21.4050884554042,21.695744031768697,21.986399608135009,22.277055184503137,22.567710760873094,22.858366337244895,23.149021913618483,23.439677489993908,23.730333066371145,24.020988642750229,24.311644219131118,24.602299795513822,24.892955371898349,24.779762090286503,24.676352917416285,24.572943744547867,24.469534571681354,24.366125398816674,24.262716225953824,24.159307053092864,24.055897880233712,23.952488707376443,23.849079534520985,23.745670361667433,23.642261188815681,23.538852015965809,23.435442843117752,23.332033670271578,23.228624497427241,23.125215324584765,23.021806151744155,22.657544412138492,22.119376851960187,21.581209291783814,21.043041731609382,20.504874171436857,19.966706611266247,19.4285390510976,18.890371490930882,18.352203930766088,17.814036370603194,17.27586881044228,16.737701250283276,16.199533690126202,15.661366129971073,15.123198569817845,14.585031009666569,14.046863449517215,13.508695889369786,12.970528329224294,12.432360769080736,11.570015723372476,10.56873309215896,9.56745046094735,8.566167829737644,7.5648851985298338,6.5636025673239589,5.5623199361199758,4.5610373049178579,3.5597546737176882,2.5584720425193885,1.5571894113230136,0.55590678012853079,-0.44537585106403221,-1.4466584822547239,-2.4479411134434748,-3.4492237446303493,-4.4505063758153041,-5.451789006998351,-6.4530716381795141,-7.4543542693587623,-8.8403560836791844,-10.322542239329422,-11.804728394977635,-13.286914550623798,-14.769100706267947,-16.251286861910049,-17.733473017550118,-19.215659173188119,-20.697845328824126,-22.180031484458087,-23.66221764009,-25.144403795719903,-26.62658995134769,-28.108776106973547,-29.590962262597294,-31.073148418219041,-32.555334573838728,-34.037520729456425,-35.519706885072047,-37.001893040685609,-38.925761793165755,-40.898711028477926,-42.871660263788087,-44.844609499096123,-46.817558734402134,-48.790507969706042,-50.763457205007875,-52.7364064403076,-54.709355675605252,-56.682304910900925,-58.6552541461944,-60.628203381485939,-62.601152616775337,-64.574101852062654,-66.547051087347867,-68.520000322631034,-70.492949557912127,-72.465898793191059,-74.438848028468115,-76.4117972637429,0,0.041988756204068688,0.1159944452649892,0.23841735034413511,0.41946391975161196,0.66018057761285653,0.96089204822153274,1.3213894155843464,1.740883743626628,2.2177868376382821,2.5719804882485833,3.3942692046645022
DP 96,95.4333404559635,0.0038418320938405043,-32.463053310582723,-31.940614729537959,-31.418176148492577,-30.895737567446638,-30.373298986400059,-29.850860405352904,-29.328421824305167,-28.805983243256804,-28.283544662207881,-27.761106081158342,-27.2386675001082,-26.716228919057475,-26.193790338006142,-25.671351756954234,-25.1489131759017,-24.6264745948486,-24.104036013794879,-23.581597432740587,-23.059158851685677,-22.536720270630187,-22.018066884982709,-21.533480615805164,-21.048894346626973,-20.564308077448178,-20.07972180826874,-19.595135539088719,-19.110549269908024,-18.625963000726706,-18.141376731544781,-17.6567904623622,-17.17220419317902,-16.687617923995198,-16.203031654810758,-15.718445385625687,-15.233859116439998,-14.749272847253682,-14.264686578066735,-13.780100308879158,-13.295514039690953,-12.810927770502131,-12.341934625899206,-11.935314716594526,-11.528694807289122,-11.122074897982998,-10.715454988676179,-10.30883507936862,-9.90221517006036,-9.49559526075138,-9.08897535144168,-8.6823554421312732,-8.2757355328201481,-7.8691156235083017,-7.4624957141957431,-7.0558758048824632,-6.6492558955684817,-6.2426359862537737,-5.8360160769383507,-5.4293961676222215,-5.0227762583053694,-4.6161563489878032,-4.2438874444431489,-3.9517719666825575,-3.6596564889212231,-3.3675410111591635,-3.0754255333963703,-2.7833100556328429,-2.4911945778685793,-2.1990791001035821,-1.906963622337853,-1.6148481445713871,-1.3227326668041925,-1.0306171890362632,-0.73850171126759656,-0.44638623349819823,-0.15427075572806639,0.13784472204280107,0.42996019981440076,0.72207567758673552,1.014191155359804,1.3063066331336026,1.5391886600799585,1.6832191110607881,1.8272495620424216,1.9712800130248576,2.1153104640080969,2.259340914992142,2.4033713659769873,2.5474018169626378,2.6914322679490841,2.8354627189363431,2.9794931699244014,3.1235236209132604,3.2675540719029295,3.4115845228933921,3.5556149738846639,3.6996454248767385,3.8436758758696143,3.9877063268632962,4.1317367778577774,4.2757672288530619,4.26286043194961,4.2288912864948793,4.1949221410409914,4.16095299558795,4.1269838501357565,4.0930147046844052,4.0590455592339083,4.0250764137842454,3.9911072683354365,3.9571381228874709,3.9231689774403504,3.8891998319940813,3.8552306865486532,3.8212615411040716,3.787292395660339,3.7533232502174525,3.7193541047754044,3.6853849593342085,3.5293729548475206,3.2919971217025981,3.05462128855862,2.8172454554155775,2.5798696222734709,2.3424937891323006,2.1051179559920765,1.8677421228527868,1.6303662897144329,1.3929904565770184,1.1556146234405547,0.91823879030501776,0.68086295717042311,0.44348712403677037,0.20611129090404956,-0.031264542227727857,-0.26864037535857244,-0.50601620848847217,-0.74339204161743,-0.98076787474545224,-1.3748748978967722,-1.8361545474174581,-2.2974341969372132,-2.7587138464560361,-3.2199934959739362,-3.68127314549089,-4.14255279500692,-4.6038324445220269,-5.0651120940361887,-5.5263917435494365,-5.9876713930617349,-6.44895104257312,-6.9102306920835543,-7.3715103415930807,-7.832789991101655,-8.2940696406093064,-8.755349290116019,-9.2166289396218115,-9.6779085891266732,-10.139188238630597,-10.791446652536957,-11.49145201400135,-12.191457375464671,-12.891462736926936,-13.591468098388134,-14.291473459848271,-14.991478821307343,-15.691484182765324,-16.391489544222242,-17.091494905678122,-17.7915002671329,-18.491505628586637,-19.19151099003928,-19.891516351490896,-20.591521712941422,-21.291527074390871,-21.991532435839268,-22.691537797286614,-23.391543158732855,-24.091548520178055,-25.014658204671068,-25.962559601526728,-26.910460998381261,-27.858362395234643,-28.806263792086956,-29.754165188938156,-30.702066585788216,-31.649967982637175,-32.597869379485076,-33.545770776331793,-34.493672173177458,-35.441573570021959,-36.389474966865393,-37.337376363707705,-38.285277760548865,-39.233179157388946,-40.181080554227968,-41.128981951065768,-42.076883347902552,-43.024784744738177,0,0.029607046603179494,0.06997689932860672,0.13124710149327856,0.22109869355519732,0.34008171586585545,0.48828758806868316,0.66560967522132808,0.87172234757735045,1.1059544832851755,1.279249815122071,1.6831175695246612
DP 97,109.01931199172232,0.005067214850936903,-47.485155981906182,-46.672706313001065,-45.860256644094967,-45.047806975187875,-44.235357306279674,-43.4229076373705,-42.610457968460281,-41.79800829954906,-40.985558630636788,-40.173108961723479,-39.360659292809181,-38.54820962389384,-37.735759954977482,-36.923310286060108,-36.110860617141704,-35.298410948222248,-34.485961279301812,-33.673511610380295,-32.86106194145782,-32.048612272534264,-31.242062866709492,-30.488616386499963,-29.735169906289379,-28.9817234260777,-28.228276945865023,-27.474830465651248,-26.721383985436404,-25.967937505220519,-25.214491025003547,-24.46104454478554,-23.707598064566454,-22.954151584346331,-22.2007051041251,-21.44725862390283,-20.693812143679512,-19.940365663455122,-19.18691918322968,-18.433472703003165,-17.68002622277557,-16.926579742546949,-16.197432398294392,-15.565482746360278,-14.933533094424984,-14.301583442488518,-13.669633790550897,-13.037684138612111,-12.405734486672156,-11.773784834731041,-11.141835182788743,-10.509885530845295,-9.87793587890067,-9.2459862269548783,-8.6140365750079138,-7.9820869230597857,-7.3501372711104933,-6.71818761916003,-6.0862379672084073,-5.4542883152556119,-4.8223386633016574,-4.1903890113465323,-3.6119365472837024,-3.1583125405317527,-2.7046885337786009,-2.2510645270242629,-1.7974405202687309,-1.3438165135120044,-0.8901925067540839,-0.43656849999496722,0.01705550676534049,0.47067951352684317,0.92430352028953333,1.3779275270534217,1.8315515338185053,2.2851755405847811,2.7387995473522522,3.1924235541209147,3.6460475608907714,4.0996715676618258,4.553295574434066,5.0069195812075,5.3683684718959475,5.5915525102998691,5.8147365487050733,6.0379205871115511,6.2611046255193026,6.484288663928341,6.70747270233866,6.9306567407502442,7.1538407791631196,7.3770248175772606,7.60020885599268,7.82339289440938,8.0465769328273637,8.2697609712466171,8.4929450096671477,8.7161290480889644,8.93931308651205,9.1624971249364133,9.3856811633620669,9.6088652017889817,9.5866005437358055,9.5330573496980247,9.4795141556615814,9.4259709616264544,9.37242776759267,9.3188845735602115,9.2653413795290938,9.2117981854992959,9.1582549914708338,9.1047117974436986,9.05116860341791,8.9976254093934465,8.9440822153703063,8.8905390213485038,8.8369958273280425,8.7834526333088974,8.7299094392910987,8.6763662452746324,8.4332571136882,8.06376770402149,7.694278294356252,7.3247888846924516,6.9552994750301149,6.5858100653692118,6.2163206557097794,5.8468312460517931,5.4773418363952544,5.1078524267401724,4.7383630170865549,4.3688736074343772,3.9993841977836593,3.6298947881343975,3.2604053784865719,2.8909159688402126,2.5214265591952958,2.1519371495518373,1.7824477399098388,1.412958330269291,0.80023618540315034,0.0832681553262929,-0.63369987474912881,-1.3506679048231058,-2.0676359348956632,-2.7846039649667493,-3.501571995036405,-4.2185400251046472,-4.9355080551714225,-5.652476085236783,-6.3694441153006895,-7.086412145363167,-7.8033801754241887,-8.5203482054837938,-9.23731623554193,-9.9542842655986536,-10.671252295653929,-11.388220325707762,-12.105188355760157,-12.822156385811123,-13.835320274908888,-14.922536628389658,-16.009752981868825,-17.096969335346369,-18.184185688822279,-19.271402042296589,-20.358618395769291,-21.44583474924034,-22.533051102709774,-23.62026745617764,-24.707483809643833,-25.794700163108438,-26.881916516571366,-27.969132870032738,-29.056349223492479,-30.143565576950593,-31.230781930407083,-32.317998283861961,-33.405214637315225,-34.492430990766877,-35.92551317426458,-37.397028526861959,-38.868543879457661,-40.340059232051665,-41.811574584644013,-43.2830899372347,-44.754605289823665,-46.226120642410912,-47.6976359949966,-49.169151347580581,-50.640666700162846,-52.112182052743478,-53.583697405322361,-55.055212757899689,-56.5267281104752,-57.998243463049121,-59.46975881562134,-60.94127416819191,-62.412789520760853,-63.884304873327935,0,0.041358476968036767,0.10180720539071429,0.19593338116202361,0.334376999333491,0.517925206409859,0.74673546779818456,1.0206386538476311,1.3390980926252678,1.701025554634185,1.9691998432385371,2.5936117374553564
DP 98,169.18388920992777,0.0054555155263427543,-69.2682987517144,-67.908868224293869,-66.549437696871351,-65.190007169446815,-63.830576642020304,-62.471146114591768,-61.111715587161271,-59.7522850597288,-58.392854532294308,-57.033424004857814,-55.673993477419387,-54.314562949978928,-52.9551324225365,-51.59570189509207,-50.236271367645649,-48.876840840197275,-47.517410312746883,-46.157979785294451,-44.798549257840094,-43.439118730383754,-42.089816709618276,-40.831672206476455,-39.573527703332665,-38.315383200186837,-37.057238697038983,-35.799094193889147,-34.540949690737257,-33.282805187583378,-32.024660684427488,-30.766516181269541,-29.508371678109626,-28.250227174947696,-26.992082671783702,-25.733938168617712,-24.475793665449721,-23.2176491622797,-21.959504659107672,-20.701360155933614,-19.443215652757544,-18.185071149579461,-16.9684636334292,-15.918006028492101,-14.86754842355292,-13.817090818611655,-12.766633213668294,-11.716175608722855,-10.665718003775337,-9.61526039882573,-8.5648027938740459,-7.514345188920263,-6.4638875839644037,-5.41342997900645,-4.3629723740464179,-3.3125147690842978,-2.2620571641200944,-1.2115995591538056,-0.16114195418543431,0.88931565078501751,1.9397732557575504,2.9902308607321726,3.9499366015894659,4.6978851334759373,5.4458336653645469,6.193782197255266,6.9417307291481007,7.6896792610430706,8.4376277929401589,9.1855763248393689,9.9335248567406946,10.681473388644163,11.429421920549721,12.177370452457435,12.925318984367248,13.673267516279202,14.421216048193257,15.169164580109454,15.917113112027769,16.665061643948196,17.413010175870753,18.16095870779543,18.753993424391627,19.114653757282316,19.475314090175182,19.835974423070251,20.196634755967494,20.557295088866919,20.917955421768546,21.27861575467232,21.639276087578306,21.999936420486485,22.360596753396834,22.721257086309372,23.081917419224091,23.442577752141013,23.8032380850601,24.163898417981393,24.524558750904855,24.885219083830503,25.245879416758328,25.606539749688366,25.538190405793493,25.438717731804214,25.339245057817163,25.239772383832346,25.140299709849753,25.040827035869409,24.941354361891289,24.841881687915407,24.742409013941774,24.642936339970362,24.5434636660012,24.443990992034241,24.344518318069547,24.245045644107055,24.145572970146848,24.046100296188829,23.946627622233052,23.847154948279538,23.435830335108385,22.816599516300094,22.197368697494209,21.578137878690669,20.958907059889484,20.339676241090626,19.720445422294173,19.101214603500075,18.481983784708312,17.862752965918922,17.243522147131905,16.624291328347244,16.005060509564913,15.385829690784966,14.766598872007361,14.14736805323215,13.528137234459244,12.908906415688733,12.289675596920572,11.670444778154788,10.655004556728267,9.4697549555286233,8.284505354331289,7.099255753136303,5.9140061519436227,4.7287565507533076,3.5435069495653138,2.3582573483796061,1.1730077471962768,-0.012241853984764952,-1.1974914551634515,-2.3827410563398215,-3.5679906575138429,-4.753240258685576,-5.9384898598549309,-7.1237394610219944,-8.308989062186706,-9.4942386633490923,-10.679488264509157,-11.864737865666887,-13.528736044701054,-15.312427024727505,-17.096118004751435,-18.879808984772851,-20.663499964791733,-22.447190944808082,-24.230881924821922,-26.014572904833198,-27.79826388484198,-29.581954864848267,-31.365645844851969,-33.149336824853172,-34.9330278048518,-36.716718784848013,-38.500409764841642,-40.2841007448327,-42.067791724821276,-43.851482704807324,-45.63517368479085,-47.41886466477186,-49.758744167456662,-52.160428236211395,-54.562112304963641,-56.963796373713173,-59.3654804424602,-61.767164511204577,-64.168848579946427,-66.5705326486856,-68.97221671742227,-71.373900786156327,-73.775584854887867,-76.177268923616822,-78.578952992343119,-80.980637061066858,-83.3823211297879,-85.784005198506463,-88.185689267222443,-90.5873733359358,-92.989057404646644,-95.390741473354751,0,0.054907850506608714,0.14733044852381361,0.29794636393999785,0.52039392223820213,0.81592426105523685,1.1848934970413605,1.6270387290078976,2.1414144016265722,2.7261183537966032,3.1602069762103353,4.1688359595335838
DP 99,94.392056648724065,0.0011211344139474236,-9.3907311142509666,-9.24045227513381,-9.090173436016487,-8.9398945968989949,-8.78961575778133,-8.639336918663501,-8.4890580795454955,-8.3387792404273267,-8.1885004013089819,-8.03822156219047,-7.887942723071788,-7.73766388395294,-7.58738504483392,-7.4371062057147288,-7.2868273665953707,-7.1365485274758349,-6.9862696883561428,-6.8359908492362678,-6.6857120101162346,-6.5354331709960256,-6.3862429811873911,-6.24685073808813,-6.1074584949886894,-5.9680662518890744,-5.8286740087892683,-5.689281765689298,-5.5498895225891332,-5.4104972794888022,-5.2711050363882928,-5.1317127932876,-4.9923205501867294,-4.8529283070856764,-4.7135360639844519,-4.5741438208830427,-4.4347515777814586,-4.2953593346796985,-4.1559670915777547,-4.0165748484756305,-3.8771826053733314,-3.7377903622708533,-3.602882741652595,-3.4859138229212325,-3.368944904189664,-3.251975985457892,-3.1350070667259162,-3.0180381479937322,-2.901069229261346,-2.7841003105287547,-2.6671313917959591,-2.5501624730629566,-2.4331935543297512,-2.3162246355963414,-2.1992557168627243,-2.0822867981289037,-1.9653178793948767,-1.8483489606606454,-1.7313800419262093,-1.6144111231915699,-1.4974422044567259,-1.3804732857216759,-1.2733846973589387,-1.1893505245026736,-1.1053163516461959,-1.02128217878951,-0.937248005932614,-0.85321383307550736,-0.76917966021819073,-0.68514548736066383,-0.601111314502927,-0.51707714164497987,-0.43304296878682319,-0.34900879592845641,-0.26497462306987862,-0.1809404502110912,-0.096906277352093687,-0.012872104492885655,0.0711620683665322,0.15519624122616091,0.23923041408599821,0.32326458694604671,0.39026121882348191,0.43170113661900272,0.47314105441475229,0.51458097221073373,0.5560208900069451,0.59746080780338706,0.6389007256000595,0.68034064339696265,0.72178056119409517,0.76322047899145984,0.80466039678905354,0.84610031458687829,0.887540232384934,0.92898015018321922,0.97042006798173552,1.0118599857804826,1.0532999035794592,1.0947398213786692,1.1361797391781066,1.1776196569777742,1.1739356352248178,1.1641739461710732,1.1544122571175723,1.1446505680643131,1.1348888790112994,1.1251271899585273,1.1153655009059995,1.1056038118537119,1.0958421228016697,1.0860804337498695,1.0763187446983122,1.0665570556469994,1.056795366595928,1.0470336775451,1.0372719884945161,1.0275102994441738,1.0177486103940758,1.0079869213442212,0.96311769084951127,0.89484287965085,0.826568068452458,0.75829325725433461,0.69001844605648111,0.62174363485889728,0.55346882366158667,0.48519401246454441,0.4169192012677706,0.34864439007126846,0.28036957887503788,0.21209476767907554,0.14381995648338336,0.075545145287963744,0.0072703340928110954,-0.061004477102069292,-0.12927928829668187,-0.19755409949102243,-0.2658289106850924,-0.33410372187889209,-0.44746716218045279,-0.58015490950802506,-0.71284265683533021,-0.84553040416236513,-0.978218151489136,-1.1109058988156337,-1.2435936461418649,-1.3762813934678317,-1.5089691407935275,-1.6416568881189582,-1.7743446354441172,-1.9070323827690117,-2.0397201300936341,-2.1724078774179945,-2.30509562474208,-2.4377833720659043,-2.5704711193894547,-2.7031588667127373,-2.8358466140357548,-2.9685343613585045,-3.1561649364381648,-3.3575318676190213,-3.5588987987995737,-3.7602657299798214,-3.9616326611597579,-4.1629995923393874,-4.3643665235187141,-4.5657334546977228,-4.7671003858764323,-4.9684673170548361,-5.1698342482329256,-5.3712011794107113,-5.5725681105881852,-5.77393504176536,-5.975301972942221,-6.1766689041187774,-6.3780358352950222,-6.5794027664709667,-6.7807696976465976,-6.9821366288219231,-7.2476902374885777,-7.5203763733252007,-7.7930625091615173,-8.0657486449975035,-8.3384347808331611,-8.6111209166685114,-8.88380705250353,-9.1564931883382243,-9.42917932417261,-9.7018654600066672,-9.9745515958404116,-10.247237731673835,-10.519923867506936,-10.792610003339716,-11.065296139172172,-11.337982275004309,-11.610668410836132,-11.883354546667611,-12.156040682498807,-12.428726818329642,0,0.0086019452213272653,0.020256639430098925,0.037900936586110191,0.063767619496059483,0.098016523717643758,0.1406737951342594,0.19170893976558004,0.25102885373047346,0.31844135063040585,0.36830803015643077,0.48453276915281512
DP 100,163.80851981201528,0.0030249432782074384,-37.62057329797311,-36.887999130076665,-36.15542496217909,-35.422850794280464,-34.690276626380779,-33.957702458480014,-33.225128290578205,-32.492554122675315,-31.759979954771342,-31.027405786866328,-30.294831618960217,-29.562257451053053,-28.829683283144856,-28.09710911523554,-27.364534947325193,-26.63196077941376,-25.899386611501271,-25.16681244358772,-24.434238275673074,-23.701664107757388,-22.974529227097587,-22.296348445894061,-21.618167664689452,-20.939986883483769,-20.261806102277,-19.583625321069157,-18.905444539860213,-18.227263758650185,-17.549082977439092,-16.870902196226922,-16.192721415013633,-15.514540633799289,-14.836359852583859,-14.158179071367343,-13.479998290149744,-12.801817508931073,-12.123636727711308,-11.445455946490465,-10.76727516526852,-10.089094384045509,-9.433234024085996,-8.8666564040778759,-8.30007878406862,-7.7335011640582545,-7.1669235440467656,-6.6003459240341451,-6.0337683040204011,-5.467190684005546,-4.9006130639895646,-4.3340354439724571,-3.7674578239542305,-3.2008802039348736,-2.6343025839144012,-2.0677249638928017,-1.5011473438700824,-0.9345697238462396,-0.36799210382127445,0.19858551620480927,0.76516313623201471,1.3317407562603456,1.8495016408491585,2.2533552713194882,2.6572089017909635,3.0610625322635792,3.46491616273734,3.8687697932122442,4.2726234236882856,4.6764770541654794,5.0803306846438128,5.4841843151232874,5.8880379456038971,6.2918915760856633,6.6957452065685628,7.0995988370526115,7.5034524675378016,7.9073060980241481,8.31115972851162,8.71501335900024,9.1188669894900016,9.5227206199809071,9.8431385507308971,10.038400960230446,10.233663369731152,10.428925779233039,10.624188188736106,10.81945059824036,11.014713007745785,11.2099754172524,11.405237826760187,11.600500236269154,11.7957626457793,11.991025055290626,12.18628746480314,12.381549874316818,12.576812283831677,12.772074693347719,12.96733710286494,13.162599512383345,13.35786192190292,13.553124331423669,13.518454385306004,13.46553345578365,13.412612526262505,13.35969159674258,13.306770667223851,13.253849737706341,13.200928808190035,13.148007878674923,13.095086949161029,13.042166019648333,12.989245090136851,12.936324160626578,12.883403231117507,12.830482301609642,12.777561372102978,12.724640442597531,12.671719513093295,12.618798583590253,12.397426128893873,12.063750003665287,11.730073878437977,11.39639775321193,11.062721627987163,10.729045502763672,10.395369377541464,10.061693252320525,9.7280171271008555,9.3943410018824718,9.06066487666537,8.7269887514495341,8.3933126262349784,8.0596365010217035,7.725960375809688,7.3922842505989683,7.0586081253895054,6.724932000181326,6.3912558749744255,6.0575797497688084,5.5095969809928924,4.8697656140223158,4.2299342470529968,3.590102880084943,2.9502715131181341,2.31044014615261,1.6706087791883382,1.0307774122253046,0.39094604526355675,-0.24888532169695174,-0.88871668865618625,-1.528548055614168,-2.16837942257088,-2.8082107895263539,-3.4480421564805406,-4.087873523433486,-4.7277048903851622,-5.3675362573355745,-6.0073676242847407,-6.6471989912326332,-7.546264338929074,-8.5101412447210016,-9.4740181505115686,-10.437895056300761,-11.401771962088592,-12.365648867875052,-13.329525773660148,-14.293402679443872,-15.25727958522619,-16.221156491007203,-17.185033396786807,-18.148910302565049,-19.112787208341903,-20.076664114117438,-21.04054101989156,-22.004417925664342,-22.968294831435717,-23.932171737205749,-24.89604864297441,-25.859925548741714,-27.125178395064633,-28.423920622181345,-29.722662849296665,-31.021405076410563,-32.320147303523086,-33.618889530634142,-34.917631757743848,-36.216373984852119,-37.515116211959025,-38.813858439064546,-40.112600666168611,-41.411342893271346,-42.710085120372611,-44.008827347472483,-45.307569574570941,-46.606311801668035,-47.905054028763779,-49.203796255857995,-50.502538482950925,-51.80128071004232,0,0.029989255187388177,0.080129425282643649,0.16166796911033243,0.2820724548694627,0.44201814092352465,0.64169456091761434,0.88095895222357634,1.1593013480494545,1.4756960371046111,1.710574180981862,2.2563878849318577
DP 101,167.07500660626152,0.0033439637894929998,-42.118859873875643,-41.294736228680968,-40.470612583485128,-39.646488938288037,-38.82236529308976,-37.998241647890225,-37.174118002689575,-36.349994357487688,-35.525870712284586,-34.7017470670803,-33.877623421874787,-33.053499776668055,-32.22937613146015,-31.405252486251051,-30.581128841040698,-29.757005195829194,-28.932881550616447,-28.10875790540252,-27.284634260187357,-26.460510614971039,-25.642518743934531,-24.879713420128049,-24.116908096320326,-23.354102772511411,-22.591297448701262,-21.828492124889898,-21.065686801077284,-20.302881477263487,-19.540076153448464,-18.777270829632204,-18.014465505814719,-17.251660181996012,-16.488854858176108,-15.72604953435496,-14.963244210532613,-14.200438886709035,-13.437633562884232,-12.674828239058197,-11.912022915230954,-11.149217591402506,-10.411564603076483,-9.7745221454982829,-9.1374796879188231,-8.5004372303380951,-7.8633947727561084,-7.226352315172857,-6.5893098575883418,-5.9522674000025591,-5.3152249424155169,-4.6781824848272091,-4.041140027237641,-3.4040975696468023,-2.7670551120547069,-2.1300126544613431,-1.4929701968667188,-0.85592773927082844,-0.2188852816736766,0.41815717592473528,1.0551996335244105,1.6922420911253506,2.2743080793265715,2.7280939067577248,3.1818797341901708,3.6356655616239015,4.0894513890589135,4.5432372164952177,4.99702304393281,5.4508088713716845,5.9045946988118416,6.35838052625329,6.8121663536960266,7.26595218114004,7.7197380085853542,8.1735238360319489,8.6273096634798261,9.0810954909289929,9.5348813183794423,9.9886671458311866,10.442452973284215,10.896238800738518,11.256131631807161,11.475182749545567,11.694233867285288,11.913284985026339,12.132336102768724,12.351387220512432,12.570438338257457,12.789489456003816,13.008540573751494,13.227591691500503,13.446642809250838,13.665693927002506,13.884745044755483,14.103796162509788,14.322847280265426,14.541898398022376,14.760949515780661,14.980000633540261,15.199051751301216,15.418102869063468,15.377638698535998,15.317642279255079,15.257645859975526,15.197649440697313,15.137653021420462,15.077656602144977,15.017660182870845,14.95766376359807,14.897667344326644,14.837670925056571,14.777674505787855,14.717678086520504,14.65768166725449,14.59768524798986,14.53768882872658,14.47769240946463,14.417695990204066,14.357699570944847,14.108470239875428,13.733082653145303,13.357695066416591,12.982307479689306,12.60691989296347,12.231532306239048,11.856144719516079,11.480757132794523,11.105369546074401,10.729981959355719,10.354594372638472,9.9792067859226439,9.6038191992082513,9.2284316124953012,8.8530440257837668,8.4776564390736748,8.1022688523650075,7.7268812656577754,7.35149367895198,6.97610609224762,6.3601675387451522,5.6411324655702479,4.9220973923967577,4.2030623192246885,3.4840272460540218,2.7649921728847917,2.045957099716968,1.3269220265505357,0.6078869533855451,-0.11114811977805542,-0.83018319294022724,-1.5492182661009914,-2.2682533392603297,-2.9872884124182781,-3.706323485574786,-4.4253585587298954,-5.1443936318835846,-5.8634287050358544,-6.5824637781867219,-7.3014988513361709,-8.31132554790914,-9.3938535861070722,-10.476381624303468,-11.558909662498325,-12.641437700691654,-13.723965738883443,-14.806493777073726,-15.889021815262426,-16.971549853449616,-18.054077891635277,-19.136605929819389,-20.219133968001987,-21.301662006183,-22.384190044362558,-23.466718082540517,-24.549246120716965,-25.631774158891876,-26.714302197065265,-27.796830235237092,-28.879358273407398,-30.299807513911674,-31.75780710366541,-33.215806693417605,-34.673806283168219,-36.13180587291729,-37.589805462664735,-39.047805052410624,-40.505804642154914,-41.96380423189769,-43.421803821638875,-44.879803411378504,-46.337803001116569,-47.795802590853,-49.25380218058794,-50.711801770321252,-52.169801360053022,-53.62780094978325,-55.0858005395118,-56.543800129238932,-58.001799718964335,0,0.033459952136303282,0.089636649677885191,0.18111113334643775,0.3162024064083479,0.49566945723808781,0.71972710928431793,0.98821557803149518,1.3005613733615498,1.6556109936132941,1.9191959121502145,2.5316763059292828
DP 102,60.642697216036467,0.0010510849410263492,-6.0613093008566716,-5.9918607264584995,-5.922412152060291,-5.852963577662063,-5.7835150032638092,-5.71406642886554,-5.6446178544672518,-5.575169280068943,-5.5057207056706128,-5.4362721312722595,-5.36682355687388,-5.2973749824754925,-5.2279264080770709,-5.1584778336786385,-5.0890292592801778,-5.0195806848817011,-4.9501321104831995,-4.8806835360846819,-4.8112349616861394,-4.7417863872875783,-4.67283974548802,-4.6084105445245234,-4.5439813435609961,-4.47955214259744,-4.4151229416338476,-4.3506937406702217,-4.28626453970657,-4.2218353387428849,-4.1574061377791711,-4.092976936815421,-4.0285477358516433,-3.9641185348878349,-3.8996893339239942,-3.83526013296012,-3.7708309319962172,-3.70640173103228,-3.6419725300683137,-3.5775433291043144,-3.5131141281402849,-3.4486849271762234,-3.3863206525664591,-3.3322161809652435,-3.2781117093639622,-3.2240072377626197,-3.1699027661612158,-3.1157982945597515,-3.0616938229582207,-3.007589351356625,-2.9534848797549706,-2.8993804081532542,-2.8452759365514697,-2.791171464949624,-2.7370669933477174,-2.6829625217457478,-2.6288580501437151,-2.574753578541618,-2.5206491069394574,-2.4665446353372369,-2.4124401637349528,-2.3583356921326049,-2.308784888169459,-2.26985945217238,-2.23093401617523,-2.1920085801780176,-2.15308314418074,-2.1141577081833942,-2.0752322721859833,-2.0363068361885053,-1.9973814001909633,-1.9584559641933539,-1.9195305281956792,-1.8806050921979391,-1.8416796562001305,-1.8027542202022577,-1.7638287842043197,-1.7249033482063141,-1.6859779122082434,-1.6470524762101064,-1.6081270402119037,-1.5692016042136347,-1.5381294469830082,-1.5188373934818182,-1.4995453399805434,-1.4802532864791762,-1.46096123297772,-1.4416691794761751,-1.4223771259745404,-1.4030850724728166,-1.3837930189710042,-1.3645009654691016,-1.3452089119671096,-1.3259168584650298,-1.3066248049628588,-1.2873327514605997,-1.2680406979582506,-1.2487486444558129,-1.2294565909532849,-1.2101645374506675,-1.1908724839479619,-1.1715804304451665,-1.1727682691645573,-1.177101860015318,-1.1814354508659766,-1.1857690417165332,-1.190102632566987,-1.1944362234173387,-1.1987698142675871,-1.2031034051177363,-1.2074369959677806,-1.211770586817724,-1.2161041776675645,-1.220437768517302,-1.2247713593669387,-1.2291049502164728,-1.233438541065905,-1.2377721319152348,-1.2421057227644627,-1.2464393136135863,-1.2669821205302478,-1.2983313268472305,-1.329680533164082,-1.3610297394808069,-1.392378945797403,-1.4237281521138714,-1.4550773584302088,-1.4864265647464199,-1.5177757710625024,-1.5491249773784566,-1.5804741836942811,-1.6118233900099774,-1.6431725963255464,-1.6745218026409856,-1.7058710089562981,-1.7372202152714804,-1.7685694215865346,-1.7999186279014605,-1.8312678342162569,-1.8626170405309259,-1.9148045515636491,-1.9759230460004311,-2.0370415404370839,-2.0981600348736076,-2.1592785293100047,-2.2203970237462727,-2.2815155181824096,-2.3426340126184217,-2.4037525070543042,-2.4648710014900583,-2.525989495925685,-2.587107990361182,-2.6482264847965507,-2.7093449792317941,-2.7704634736669034,-2.8315819681018879,-2.8927004625367414,-2.9538189569714688,-3.0149374514060705,-3.076055945840539,-3.1625754898378147,-3.2554455963449387,-3.3483157028518935,-3.441185809358688,-3.5340559158653133,-3.6269260223717765,-3.719796128878071,-3.812666235384202,-3.9055363418901727,-3.9984064483959769,-4.0912765549016132,-4.1841466614070884,-4.2770167679123938,-4.3698868744175421,-4.462756980922518,-4.5556270874273359,-4.6484971939319824,-4.7413673004364663,-4.8342374069407841,-4.9271075134449394,-5.0496676472391018,-5.1755269847714569,-5.3013863223036362,-5.4272456598356307,-5.553104997367452,-5.6789643348990939,-5.8048236724305609,-5.9306830099618395,-6.0565423474929565,-6.1824016850238914,-6.3082610225546478,-6.4341203600852257,-6.5599796976156233,-6.6858390351458494,-6.8116983726758926,-6.9375577102057626,-7.0634170477354621,-7.1892763852649724,-7.3151357227943068,-7.4409950603234645,0,0.0071459071890004134,0.014239722112978954,0.023262047505903466,0.0359728334863204,0.05255105913697862,0.073039849395887466,0.097450647252100037,0.12577816160285091,0.1579713336969277,0.18133520497912339,0.23595212731043594
DP 103,279.64544235093939,0.0044347315236734292,-77.433859222869231,-75.749862956930244,-74.065866690988841,-72.381870425045022,-70.697874159098959,-69.01387789315045,-67.329881627199654,-65.645885361246471,-63.961889095290992,-62.277892829333105,-60.5938965633729,-58.9099002974103,-57.225904031445467,-55.541907765478207,-53.857911499508631,-52.173915233536654,-50.489918967562325,-48.805922701585637,-47.121926435606639,-45.437930169625282,-43.767903834245892,-42.223608194800789,-40.679312555353363,-39.135016915903556,-37.5907212764514,-36.046425636996894,-34.50212999754001,-32.957834358080724,-31.413538718619137,-29.869243079155176,-28.324947439688859,-26.780651800220184,-25.236356160749143,-23.692060521275714,-22.147764881799962,-20.603469242321832,-19.059173602841351,-17.514877963358511,-15.970582323873288,-14.426286684385717,-12.938183893602707,-11.674855153397175,-10.411526413189277,-9.1481976729789913,-7.8848689327663388,-6.6215401925513122,-5.3582114523338964,-4.094882712114102,-2.8315539718919416,-1.5682252316673979,-0.30489649144047359,0.958432248788837,2.221760989020519,3.4850897292545788,4.7484184694910221,6.01174720972984,7.2750759499710274,8.5384046902145911,9.8017334304605424,11.065062170708861,12.209404326607844,13.07610737005653,13.94281041350764,14.809513456961154,15.676216500417077,16.542919543875414,17.409622587336191,18.276325630799384,19.143028674264968,20.00973171773299,20.876434761203392,21.74313780467622,22.609840848151485,23.476543891629138,24.343246935109228,25.209949978591705,26.076653022076627,26.943356065563957,27.810059109053714,28.676762152545859,29.348496540529581,29.72777333801637,30.107050135505609,30.486326932997294,30.865603730491426,31.244880527987981,31.62415732548698,32.003434122988438,32.382710920492364,32.761987717998679,33.141264515507423,33.5205413130187,33.899818110532344,34.279094908048442,34.658371705566992,35.037648503087993,35.4169253006114,35.796202098137314,36.17547889566562,36.55475569319637,36.312246541060055,36.139386476927626,35.966526412797677,35.793666348670179,35.620806284545182,35.447946220422679,35.275086156302642,35.102226092185013,34.929366028069929,34.75650596395726,34.583645899847134,34.410785835739446,34.237925771634252,34.065065707531524,33.89220564343124,33.719345579333478,33.546485515238174,33.37362545114533,32.844880849965755,32.078874284226245,31.312867718489283,30.546861152754872,29.780854587023022,29.014848021293751,28.248841455567039,27.482834889842934,26.716828324121348,25.950821758402348,25.184815192685978,24.418808626972098,23.652802061260818,22.886795495552132,22.120788929845954,21.35478236414238,20.588775798441365,19.822769232742942,19.056762667047071,18.290756101353789,17.093724707038771,15.711962565993487,14.330200424950723,12.948438283910532,11.566676142872808,10.184914001837685,8.8031518608050643,7.4213897197749388,6.039627578747397,4.6578654377223421,3.2761032966998509,1.8943411556798759,0.51257901466245637,-0.86918312635247785,-2.2509452673648265,-3.6327074083746811,-5.01446954938198,-6.3962316903867507,-7.7779938313890025,-9.15975597238871,-11.042029785773813,-13.049437430914288,-15.056845076052085,-17.064252721187195,-19.07166036631962,-21.079068011449337,-23.086475656576386,-25.093883301700686,-27.10129094682231,-29.108698591941337,-31.11610623705754,-33.123513882171139,-35.130921527281934,-37.138329172390208,-39.145736817495624,-41.153144462598434,-43.160552107698535,-45.167959752795959,-47.175367397890625,-49.182775042982691,-51.756444139726149,-54.393037122657162,-57.029630105585426,-59.666223088510975,-62.302816071433782,-64.939409054353746,-67.5760020372711,-70.212595020185617,-72.849188003097552,-75.48578098600656,-78.1223739689129,-80.7589669518166,-83.395559934717483,-86.032152917615662,-88.668745900510984,-91.3053388834037,-93.941931866293729,-96.578524849180738,-99.215117832065388,-101.85171081494697,0,0.054381477362974558,0.151897416861064,0.31421524540592533,0.55440714360323651,0.87387955421294328,1.2730819714638759,1.7517400441266822,2.3087964417569733,2.9421231713449831,3.4125427716782522,4.504244668517015
DP 104,291.81507803922364,0.0048488217636248124,-87.105915520768,-85.196527080646476,-83.287138640522485,-81.37775020039571,-79.46836176026649,-77.558973320134513,-75.649584879999949,-73.740196439862743,-71.830807999722921,-69.9214195595805,-68.012031119435449,-66.102642679287769,-64.193254239137431,-62.283865798984536,-60.374477358828962,-58.465088918670716,-56.555700478509884,-54.646312038346473,-52.736923598180354,-50.827535158011685,-48.934212099029445,-47.185478989315506,-45.436745879598938,-43.688012769879705,-41.939279660157894,-40.190546550433453,-38.441813440706333,-36.693080330976585,-34.944347221244179,-33.1956141115092,-31.446881001771541,-29.698147892031233,-27.949414782288304,-26.200681672542732,-24.451948562794556,-22.703215453043729,-20.954482343290241,-19.205749233534124,-17.457016123775396,-15.708283014014008,-14.024010675460408,-12.597584468251632,-11.171158261040192,-9.7447320538261053,-8.3183058466093662,-6.8918796393899795,-5.4654534321679282,-4.0390272249432329,-2.6126010177158894,-1.1861748104858882,0.24025139674676729,1.6666776039820868,3.0931038112200495,4.5195300184606637,5.9459562257039291,7.3723824329498573,8.7988086401984251,10.22523484744965,11.651661054703517,13.078087261960047,14.368582685622622,15.341901998061736,16.315221310503571,17.288540622948087,18.2618599353953,19.235179247845203,20.208498560297791,21.181817872753097,22.155137185211071,23.128456497671756,24.101775810135113,25.075095122601162,26.048414435069944,27.021733747541361,27.995053060015518,28.96837237249235,29.941691684971897,30.915010997454111,31.888330309939029,32.861649622426654,33.613467012864724,34.033026285996186,34.452585559130327,34.872144832267239,35.291704105406872,35.711263378549205,36.13082265169426,36.550381924842064,36.96994119799254,37.38950047114578,37.80905974430172,38.228619017460389,38.648178290621772,39.0677375637859,39.487296836952716,39.906856110122234,40.326415383294552,40.745974656469521,41.16553392964726,41.585093202827707,41.285963747718625,41.0823989330713,40.878834118426717,40.675269303784887,40.471704489145829,40.268139674509477,40.06457485987594,39.861010045245145,39.657445230617057,39.453880415991783,39.250315601369252,39.046750786749463,38.843185972132446,38.639621157518171,38.436056342906646,38.232491528297878,38.028926713691895,37.82536189908862,37.223066476510944,36.354944367130152,35.486822257752195,34.618700148377116,33.750578039004878,32.882455929635491,32.014333820268966,31.146211710905305,30.27808960154448,29.409967492186524,28.541845382831493,27.673723273479229,26.805601164129875,25.937479054783374,25.069356945439715,24.201234836098951,23.333112726761009,22.464990617425922,21.59686850809371,20.728746398764375,19.381169440062742,17.828105357495851,16.275041274931763,14.721977192370518,13.168913109812047,11.615849027256459,10.062784944703662,8.50972086215363,6.956656779606476,5.4035926970620913,3.85052861452056,2.2974645319818263,0.74440044944593464,-0.80866363308719147,-2.36172771561744,-3.9147917981449138,-5.4678558806695481,-7.0209199631913553,-8.5739840457103789,-10.12704812822656,-12.233416108741107,-14.478116601166443,-16.722817093588791,-18.967517586008125,-21.212218078424481,-23.456918570837832,-25.701619063248206,-27.946319555655549,-30.191020048059922,-32.435720540461361,-34.680421032859734,-36.925121525255136,-39.169822017647505,-41.414522510036917,-43.659223002423346,-45.903923494806783,-48.1486239871872,-50.3933244795647,-52.63802497193911,-54.882725464310539,-57.750761718349906,-60.688064047996875,-63.625366377640844,-66.562668707281659,-69.499971036919462,-72.437273366554265,-75.374575696186,-78.311878025814678,-81.249180355440316,-84.186482685062913,-87.123785014682568,-90.061087344299153,-92.99838967391257,-95.9356920035231,-98.8729943331305,-101.81029666273487,-104.74759899233618,-107.68490132193453,-110.62220365152976,-113.55950598112193,0,0.060217611591830311,0.16852017981426795,0.348996708417389,0.61609081476892424,0.9713701137215891,1.4153382362018461,1.9476904459970119,2.5672494103069279,3.2716437359012556,3.794858634793957,5.0089969746439218
DP 105,203.85674657965271,0.0016006718644340473,-22.851203099726256,-22.383856101486742,-21.916509103246568,-21.449162105005694,-20.98181510676412,-20.514468108521861,-20.047121110278905,-19.579774112035278,-19.112427113790957,-18.645080115545927,-18.177733117300217,-17.710386119053826,-17.243039120806735,-16.775692122558965,-16.308345124310495,-15.840998126061343,-15.373651127811502,-14.906304129560958,-14.438957131309749,-13.971610133057821,-13.507841210374396,-13.076275306027837,-12.6447094016806,-12.213143497332648,-11.781577592984011,-11.350011688634677,-10.918445784284653,-10.486879879933912,-10.055313975582491,-9.6237480712303718,-9.1921821668775578,-8.7606162625240458,-8.329050358169841,-7.8974844538149389,-7.4659185494593521,-7.034352645103044,-6.6027867407460556,-6.1712208363883683,-5.739654932029981,-5.30808902767091,-4.8911240899692441,-4.5325637089613293,-4.1740033279526987,-3.8154429469433624,-3.4568825659333178,-3.09832218492256,-2.7397618039110911,-2.3812014228989122,-2.0226410418860228,-1.6640806608724232,-1.3055202798581134,-0.94695989884309029,-0.58839951782735811,-0.22983913681091536,0.12872124420623771,0.48728162522410245,0.8458420062426758,1.2044023872619587,1.5629627682819502,1.921523149302655,2.2484345909796026,2.5014975103424146,2.7545604297059487,3.0076233490702062,3.2606862684351845,3.5137491878008889,3.7668121071673109,4.0198750265344589,4.272937945902326,4.5260008652709152,4.77906378464023,5.0321267040102642,5.2851896233810285,5.5382525427525069,5.7913154621247145,6.044378381497638,6.2974413008712888,6.5505042202456583,6.8035671396207551,7.0566300589965705,7.25621520512206,7.3755824276579922,7.4949496501946555,7.6143168727320614,7.7336840952702062,7.8530513178090908,7.9724185403487127,8.0917857628890673,8.2111529854301573,8.3305202079719916,8.44988743051456,8.5692546530578682,8.6886218756019069,8.8079890981466882,8.92735632069221,9.0467235432384641,9.1660907657854569,9.2854579883331869,9.4048252108816648,9.5241924334308656,9.48977723486481,9.45213741411903,9.4144975933740014,9.37685777262972,9.339217951886198,9.3015781311434136,9.2639383104014019,9.2262984896601221,9.1886586689195973,9.1510188481798274,9.113379027440816,9.0757392067025382,9.0380993859650154,9.0004595652282529,8.9628197444922311,8.92517992375697,8.8875401030224452,8.8499002822886865,8.7071083050491627,8.4942132336024567,8.2813181621565377,8.0684230907113967,7.8555280192670462,7.6426329478234774,7.4297378763806989,7.2168428049387066,7.0039477334974976,6.7910526620570772,6.5781575906174465,6.3652625191786028,6.1523674477405459,5.9394723763032786,5.7265773048667912,5.5136822334310889,5.3007871619961753,5.0878920905620513,4.8749970191287142,4.6621019476961658,4.31708027378424,3.9154311289746451,3.5137819841658229,3.1121328393577823,2.7104836945505091,2.308834549744025,1.907185404938313,1.5055362601333657,1.1038871153292067,0.70223797052581272,0.30058882572320272,-0.10106031907863558,-0.50270946387969173,-0.904358608679985,-1.3060077534794861,-1.7076568982782241,-2.1093060430761779,-2.5109551878733556,-2.9126043326697637,-3.31425347746539,-3.8741327499751907,-4.4735714239384272,-5.073010097900835,-5.6724487718624044,-6.2718874458231406,-6.8713261197830446,-7.4707647937421227,-8.0702034677003489,-8.66964214165775,-9.2690808156143234,-9.8685194895700512,-10.467958163524949,-11.067396837479002,-11.666835511432252,-12.266274185384656,-12.865712859336208,-13.465151533286937,-14.064590207236847,-14.664028881185894,-15.263467555134124,-16.045656526319519,-16.848153005407084,-17.6506494844938,-18.453145963579626,-19.255642442664634,-20.058138921748796,-20.860635400832088,-21.663131879914513,-22.465628358996131,-23.268124838076858,-24.07062131715676,-24.873117796235821,-25.675614275314018,-26.478110754391349,-27.280607233467833,-28.083103712543487,-28.885600191618291,-29.688096670692211,-30.490593149765303,-31.293089628837503,0,0.017495402495817446,0.047878173774910347,0.0978886561694758,0.17181367282218893,0.27007626926765171,0.39280424903223587,0.53991163313628532,0.71107887992287533,0.905662858974349,1.0501634371778823,1.3857314890917847
DP 106,196.7529214132345,0.001919994682954459,-26.809922130214975,-26.265667884238649,-25.721413638261478,-25.177159392283528,-24.6329051463048,-24.088650900325241,-23.544396654344879,-23.000142408363725,-22.455888162381754,-21.911633916398987,-21.367379670415421,-20.823125424431037,-20.278871178445851,-19.734616932459886,-19.190362686473069,-18.646108440485502,-18.101854194497097,-17.557599948507892,-17.0133457025179,-16.469091456527078,-15.928978257429605,-15.426134871808097,-14.923291486185759,-14.420448100562634,-13.917604714938667,-13.414761329313908,-12.91191794368833,-12.409074558061953,-11.906231172434751,-11.403387786806741,-10.900544401177919,-10.397701015548295,-9.89485762991784,-9.39201424428659,-8.8891708586545271,-8.3863274730216464,-7.8834840873879592,-7.3806407017534612,-6.8777973161181443,-6.3749539304820226,-5.8890276068505321,-5.4707703307639175,-5.0525130546764672,-4.6342557785881855,-4.215998502499076,-3.7977412264091388,-3.3794839503183702,-2.9612266742267672,-2.5429693981343391,-2.12471212204108,-1.7064548459469888,-1.2881975698520645,-0.86994029375631188,-0.45168301765972951,-0.0334257415623164,0.38483153453592756,0.80308881063500048,1.2213460867349022,1.6396033628356326,2.0578606389371954,2.4393813899167274,2.7351824248024088,3.0309834596889331,3.3267844945763025,3.6225855294645126,3.9183865643535745,4.2141875992434761,4.5099886341342215,4.8057896690258159,5.1015907039182524,5.3973917388115336,5.6931927737056576,5.9889938086006245,6.2847948434964369,6.5805958783930976,6.8763969132905967,7.17219794818894,7.4679989830881368,7.7638000179881752,8.0596010528890556,8.2931821768246454,8.4334319640158952,8.5736817512080066,8.7139315384009919,8.8541813255948352,8.9944311127895382,9.1346808999851046,9.274930687181536,9.4151804743788361,9.5554302615769977,9.6956800487760137,9.8359298359759055,9.9761796231766589,10.116429410378261,10.256679197580745,10.396928984784081,10.537178771988284,10.677428559193352,10.81767834639928,10.957928133606075,10.920770095876977,10.877856577088103,10.834943058300119,10.792029539513013,10.749116020726781,10.706202501941434,10.663288983156963,10.620375464373364,10.577461945590656,10.534548426808829,10.491634908027869,10.448721389247803,10.40580787046861,10.362894351690302,10.319980832912869,10.277067314136316,10.234153795360644,10.191240276585841,10.025315361883125,9.77738091200914,9.5294464621360859,9.281512012263935,9.0335775623927166,8.7856431125224184,8.5377086626530438,8.2897742127845948,8.0418397629170553,7.79390531305045,7.5459708631847686,7.2980364133199975,7.0501019634561679,6.8021675135932487,6.5542330637312478,6.3062986138701795,6.05836416401002,5.8104297141507937,5.5624952642924912,5.3145608144351142,4.9116579603205208,4.4423379832536938,3.9730180061877727,3.5036980291227651,3.0343780520586585,2.5650580749954788,2.0957380979332054,1.6264181208718234,1.1570981438113745,0.6877781667518178,0.21845818969318245,-0.25086178736454828,-0.72018176442136084,-1.1895017414772786,-1.6588217185322676,-2.1281416955863608,-2.5974616726395356,-3.0667816496917997,-3.5361016267431595,-4.0054216037936055,-4.6607186819899962,-5.3625122328345611,-6.0643057836781562,-6.7660993345207645,-7.4678928853623914,-8.1696864362030457,-8.8714799870427257,-9.5732735378814073,-10.275067088719119,-10.976860639555866,-11.678654190391596,-12.380447741226389,-13.082241292060155,-13.784034842892984,-14.485828393724807,-15.18762194455568,-15.889415495385533,-16.591209046214452,-17.293002597042349,-17.99479614786928,-18.91168434868451,-19.85247421406817,-20.793264079450861,-21.734053944832542,-22.674843810213225,-23.615633675592886,-24.556423540971576,-25.497213406349214,-26.4380032717259,-27.378793137101574,-28.319583002476246,-29.260372867849952,-30.201162733222603,-31.141952598594294,-32.082742463964969,-33.023532329334635,-33.964322194703328,-34.905112060071012,-35.845901925437666,-36.786691790803317,0,0.020673384919142,0.056394053262157504,0.11509355866707778,0.20184994471211778,0.31715807823850628,0.46116614436182335,0.63377297767732887,0.83460454249375138,1.0629081052124336,1.2324423334853871,1.6261826386206302
DP 107,84.908980562149921,0.00265788034313971,-20.421035449646695,-20.113185274169357,-19.805335098691685,-19.497484923213719,-19.189634747735443,-18.881784572256862,-18.573934396777958,-18.266084221298758,-17.958234045819243,-17.650383870339432,-17.342533694859302,-17.034683519378863,-16.726833343898132,-16.418983168417075,-16.111132992935715,-15.803282817454052,-15.495432641972071,-15.18758246648979,-14.879732291007191,-14.571882115524302,-14.266259954750689,-13.980690136964716,-13.695120319178443,-13.409550501391816,-13.123980683604849,-12.838410865817558,-12.552841048029951,-12.267271230241994,-11.981701412453715,-11.696131594665104,-11.410561776876161,-11.124991959086893,-10.839422141297284,-10.553852323507352,-10.268282505717089,-9.98271268792649,-9.6971428701355649,-9.41157305234431,-9.12600323455271,-8.8404334167607921,-8.56403999893577,-8.3243526146687437,-8.0846652304013187,-7.8449778461334869,-7.6052904618652661,-7.3656030775966412,-7.1259156933276193,-6.8862283090582013,-6.6465409247883942,-6.4068535405181786,-6.1671661562475624,-5.9274787719765536,-5.6877913877051505,-5.4481040034333459,-5.2084166191611407,-4.96872923488854,-4.7290418506155421,-4.4893544663421476,-4.2496670820683606,-4.0099796977941677,-3.7905175081533788,-3.6182480765689453,-3.4459786449840966,-3.2737092133988437,-3.1014397818131827,-2.9291703502271114,-2.7569009186406266,-2.5846314870537355,-2.4123620554664371,-2.2400926238787293,-2.0678231922906116,-1.8955537607020867,-1.723284329113149,-1.5510148975238047,-1.3787454659340512,-1.2064760343438881,-1.0342066027533152,-0.86193717116233359,-0.68966773957094363,-0.51739830797914554,-0.38001315634115229,-0.29495524897171055,-0.20989734160181131,-0.12483943423145,-0.03978152686062731,0.045276380510654794,0.13033428788239659,0.21539219525459935,0.30045010262726046,0.38550801000038543,0.47056591737396708,0.55562382474801053,0.64068173212251478,0.72573963949747655,0.81079754687290162,0.89585545424878643,0.98091336162512954,1.0659712690019352,1.1510291763792,1.2360870837569247,1.2290609608262082,1.2092387319106828,1.1894165029956483,1.1695942740811043,1.1497720451670534,1.1299498162534889,1.1101275873404219,1.0903053584278377,1.0704831295157482,1.0506609006041492,1.0308386716930409,1.0110164427824258,0.99119421387229922,0.97137198496266319,0.951549756053519,0.93172752714486473,0.91190529823670363,0.892083069329032,0.80032133372530723,0.66059879367670127,0.52087625362865608,0.38115371358116162,0.24143117353422416,0.10170863348784,-0.038013906557983965,-0.17773644660325408,-0.31745898664797106,-0.45718152669213041,-0.59690406673573,-0.73662660677877823,-0.8763491468212703,-1.0160716868632029,-1.1557942269045851,-1.2955167669454062,-1.4352393069856788,-1.5749618470253919,-1.7146843870645452,-1.8544069271031467,-2.0865604143116259,-2.35832841269868,-2.6300964110851814,-2.9018644094711274,-3.1736324078565308,-3.4454004062413714,-3.7171684046256588,-3.9889364030094083,-4.2607044013925908,-4.5324723997752363,-4.8042403981573178,-5.0760083965388514,-5.34777639491983,-5.6195443933002629,-5.8913123916801382,-6.1630803900594637,-6.4348483884382386,-6.7066163868164566,-6.9783843851941265,-7.2501523835712423,-7.6345768674443111,-8.04716680375329,-8.4597567400616214,-8.87234667636931,-9.28493661267635,-9.69752654898275,-10.110116485288508,-10.5227064215936,-10.935296357898059,-11.347886294201887,-11.760476230505043,-12.173066166807562,-12.585656103109438,-12.998246039410692,-13.410835975711269,-13.823425912011212,-14.236015848310515,-14.648605784609169,-15.061195720907177,-15.473785657204534,-16.018015139327854,-16.576872620187714,-17.1357301010469,-17.694587581905374,-18.253445062763202,-18.812302543620344,-19.371160024476815,-19.930017505332593,-20.488874986187717,-21.047732467042152,-21.606589947895895,-22.165447428748994,-22.724304909601411,-23.283162390453139,-23.842019871304188,-24.400877352154588,-24.959734833004273,-25.518592313853294,-26.077449794701661,-26.636307275549306,0,0.019602106710438549,0.0444660096937084,0.081070344649691609,0.13451700468988059,0.20517861234445781,0.29310993890478082,0.39825356913284748,0.52043428387813861,0.65927871910631852,0.76178144445661178,1.0008854614032849
DP 108,291.50462167143314,0.0017671442185975257,-31.722882674037635,-31.027643925657589,-30.332405177276613,-29.637166428894645,-28.941927680511782,-28.246688932127881,-27.551450183743089,-26.856211435357306,-26.160972686970581,-25.465733938582893,-24.770495190194236,-24.075256441804655,-23.380017693414082,-22.684778945022565,-21.989540196630085,-21.294301448236673,-20.599062699842285,-19.903823951446928,-19.208585203050625,-18.513346454653377,-17.823955342644009,-17.187193510877076,-16.550431679109192,-15.913669847340353,-15.276908015570539,-14.640146183799763,-14.003384352028036,-13.366622520255346,-12.729860688481693,-12.093098856707087,-11.45633702493153,-10.819575193154982,-10.182813361377494,-9.5460515295990529,-8.9092896978196414,-8.2725278660392636,-7.6357660342579319,-6.9990042024756374,-6.362242370692381,-5.7254805389081724,-5.1121827655041017,-4.592742334567542,-4.073301903630016,-3.553861472691521,-3.0344210417520667,-2.5149806108116417,-1.995540179870249,-1.4760997489278913,-0.95665931798457,-0.43721888704028111,0.082221543904975616,0.601661974851202,1.1211024057983912,1.6405428367465456,2.1599832676956723,2.6794236986457576,3.1988641295968141,3.718304560548833,4.2377449915018159,4.7571854224557679,5.2271407469945954,5.5816292640800729,5.93611778116653,6.290606298253965,6.6450948153423823,6.9995833324317882,7.3540718495221586,7.7085603666135212,8.0630488837058714,8.4175374007991852,8.7720259178934938,9.1265144349887777,9.4810029520850421,9.83549146918229,10.189979986280514,10.544468503379729,10.898957020479919,11.253445537581085,11.60793405468325,11.96242257178638,12.2362629310104,12.389129147648134,12.54199536428685,12.694861580926561,12.847727797567261,13.000594014208955,13.15346023085165,13.306326447495328,13.459192664140003,13.612058880785654,13.764925097432306,13.917791314079945,14.070657530728585,14.223523747378215,14.376389964028819,14.529256180680443,14.682122397333032,14.834988613986631,14.987854830641224,15.140721047296788,15.032029374255412,14.95797903273966,14.883928691224893,14.809878349711129,14.735828008198395,14.661777666686643,14.587727325175896,14.513676983666148,14.439626642157405,14.365576300649684,14.291525959142932,14.217475617637223,14.143425276132493,14.069374934628776,13.995324593126051,13.921274251624348,13.847223910123628,13.773173568623921,13.553894332545251,13.237793545519835,12.921692758495482,12.605591971472156,12.289491184449865,11.973390397428624,11.657289610408423,11.341188823389267,11.025088036371153,10.708987249354072,10.392886462338042,10.076785675323038,9.7606848883090915,9.4445841012961917,9.1284833142843151,8.8123825272734884,8.4962817402637043,8.1801809532549523,7.8640801662472581,7.5479793792406,7.0572148840618567,6.491592155447985,5.9259694268351337,5.3603466982233092,4.794723969612499,4.2291012410027387,3.663478512394,3.0978557837862652,2.5322330551795766,1.9666103265739017,1.4009875979692614,0.83536486936564358,0.26974214076306008,-0.29588058783851567,-0.86150331643904354,-1.4271260450385614,-1.9927487736370428,-2.5583715022344973,-3.1239942308309345,-3.6896169594263384,-4.4568389062879534,-5.274463039656653,-6.0920871730242672,-6.9097113063907827,-7.7273354397562164,-8.5449595731205523,-9.3625837064838144,-10.180207839845957,-10.997831973207028,-11.815456106567023,-12.633080239925906,-13.45070437328371,-14.268328506640383,-15.085952639996023,-15.903576773350542,-16.721200906703977,-17.538825040056313,-18.356449173407604,-19.174073306757744,-19.99169744010684,-21.036462723810658,-22.106468298641044,-23.176473873470329,-24.246479448298466,-25.31648502312553,-26.386490597951454,-27.456496172776284,-28.526501747599987,-29.596507322422632,-30.666512897244132,-31.736518472064542,-32.80652404688383,-33.876529621702019,-34.946535196519108,-36.016540771335066,-37.086546346149944,-38.156551920963665,-39.2265574957763,-40.296563070587872,-41.366568645398253,0,0.021939440816803754,0.061395149587910584,0.12714274174574869,0.22444484234492243,0.35387249325835629,0.51560909217585937,0.70954373251748037,0.93524733622512979,1.1918563172127776,1.382462030873947,1.8247697596813577
DP 109,55.25945074980708,0.0031357908023004538,-16.70993787214956,-16.537708104822361,-16.365478337495166,-16.193248570167984,-16.021018802840789,-15.848789035513613,-15.676559268186429,-15.504329500859258,-15.332099733532086,-15.159869966204935,-14.987640198877756,-14.815410431550609,-14.643180664223447,-14.470950896896298,-14.298721129569149,-14.126491362241994,-13.954261594914854,-13.782031827587705,-13.609802060260572,-13.437572292933444,-13.266586874455838,-13.106800713245104,-12.947014552034345,-12.787228390823561,-12.62744222961275,-12.4676560684019,-12.30786990719103,-12.148083745980136,-11.9882975847692,-11.82851142355825,-11.668725262347271,-11.508939101136241,-11.34915293992521,-11.189366778714144,-11.029580617503049,-10.869794456291922,-10.710008295080774,-10.550222133869584,-10.390435972658373,-10.230649811447135,-10.075980567453366,-9.9417792341621745,-9.807577900870843,-9.6733765675793943,-9.53917523428781,-9.4049739009961062,-9.27077256770428,-9.1365712344123242,-9.0023699011202414,-8.8681685678280342,-8.7339672345357009,-8.599765901243245,-8.4655645679506648,-8.33136323465796,-8.1971619013651225,-8.0629605680721568,-7.9287592347790694,-7.7945579014858577,-7.6603565681925261,-7.5261552348990657,-7.4032391309990055,-7.3066555845859842,-7.2100720381728323,-7.1134884917595471,-7.0169049453461252,-6.9203213989325754,-6.8237378525188843,-6.7271543061050636,-6.630570759691107,-6.5339872132770207,-6.437403666862795,-6.34082012044844,-6.2442365740339438,-6.1476530276193273,-6.0510694812045678,-5.954485934789675,-5.8579023883746535,-5.7613188419594907,-5.664735295544201,-5.5681517491287744,-5.491027760318743,-5.44309356775852,-5.3951593751980953,-5.3472251826374615,-5.2992909900766225,-5.2513567975155784,-5.2034226049543273,-5.1554884123928755,-5.1075542198312167,-5.0596200272693492,-5.0116858347072784,-4.963751642145005,-4.915817449582522,-4.8678832570198374,-4.8199490644569432,-4.7720148718938518,-4.7240806793305463,-4.6761464867670339,-4.6282122942033208,-4.5802781016394079,-4.5828335837613068,-4.5934427257944854,-4.6040518678274216,-4.6146610098601224,-4.6252701518925692,-4.635879293924777,-4.6464884359567318,-4.6570975779884538,-4.6677067200199263,-4.6783158620511562,-4.68892500408214,-4.69953414611288,-4.710143288143378,-4.7207524301736266,-4.731361572203638,-4.7419707142334042,-4.7525798562629218,-4.7631889982921933,-4.8139616353057084,-4.8915105683661055,-4.9690595014261767,-5.0466084344859263,-5.124157367545358,-5.2017063006044646,-5.2792552336632408,-5.3568041667217017,-5.4343530997798384,-5.5119020328376527,-5.5894509658951366,-5.6669998989523149,-5.7445488320091522,-5.8220977650656733,-5.8996466981218756,-5.9771956311777483,-6.0547445642333084,-6.1322934972885363,-6.2098424303434454,-6.2873913633980258,-6.4165820064025629,-6.5679055081381845,-6.719229009873489,-6.8705525116084587,-7.0218760133431175,-7.1731995150774486,-7.3245230168114546,-7.4758465185451417,-7.6271700202784976,-7.7784935220115372,-7.9298170237442518,-8.0811405254766413,-8.2324640272087048,-8.383787528940454,-8.5351110306718727,-8.6864345324029717,-8.8377580341337456,-8.9890815358642016,-9.1404050375943218,-9.2917285393241276,-9.505992284746954,-9.73599183474622,-9.9659913847450614,-10.19599093474346,-10.42599048474143,-10.655990034738972,-10.885989584736084,-11.115989134732757,-11.34598868472901,-11.57598823472483,-11.805987784720203,-12.035987334715156,-12.265986884709672,-12.495986434703772,-12.725985984697427,-12.955985534690646,-13.185985084683436,-13.415984634675805,-13.645984184667734,-13.875983734659226,-14.179558000099608,-14.491308006635606,-14.803058013171123,-15.114808019706171,-15.426558026240766,-15.738308032774869,-16.050058039308521,-16.361808045841688,-16.673558052374414,-16.985308058906636,-17.29705806543841,-17.608808071969712,-17.920558078500537,-18.232308085030894,-18.544058091560785,-18.855808098090211,-19.167558104619175,-19.479308111147649,-19.791058117675689,-20.102808124203221,0,0.021098343745536971,0.040687265131470626,0.064251753350645049,0.0967581294304424,0.13876197141533286,0.19043301564353449,0.25185231510464318,0.32306882352441957,0.40400670333006516,0.46209702735395958,0.59781054226301444
DP 110,130.47153351137766,0.0023164597814043404,-24.738722043588577,-24.286749727999247,-23.834777412409355,-23.382805096818785,-22.930832781227611,-22.478860465635833,-22.02688815004343,-21.5749158344504,-21.122943518856754,-20.670971203262493,-20.218998887667574,-19.767026572072076,-19.315054256475928,-18.863081940879184,-18.411109625281807,-17.959137309683786,-17.507164994085159,-17.055192678485909,-16.603220362886052,-16.151248047285563,-15.702577664351269,-15.283624987530647,-14.864672310709375,-14.44571963388748,-14.026766957064927,-13.607814280241747,-13.18886160341795,-12.769908926593507,-12.350956249768419,-11.932003572942698,-11.513050896116345,-11.094098219289348,-10.675145542461719,-10.256192865633459,-9.8372401888045484,-9.41828751197502,-8.99933483514484,-8.58038215831403,-8.1614294814825818,-7.7424768046505044,-7.3371117251620595,-6.9860976772188312,-6.6350836292749236,-6.2840695813303347,-5.933055533385077,-5.5820414854391389,-5.2310274374925241,-4.8800133895452342,-4.5289993415972649,-4.1779852936486224,-3.8269712456993,-3.475957197749302,-3.1249431497986255,-2.7739291018472776,-2.422915053895248,-2.0719010059425425,-1.7208869579891592,-1.3698729100351046,-1.0188588620803718,-0.66784481412496166,-0.34669061324380596,-0.095210329678149908,0.15626995388820028,0.40775023745523842,0.65923052102296531,0.91071080459138565,1.1621910881604951,1.4136713717302964,1.6651516553007883,1.9166319388719688,2.1681122224438378,2.4195925060163987,2.6710727895896542,2.9225530731635954,3.1740333567382288,3.4255136403135551,3.6769939238895688,3.928474207466274,4.1799544910436683,4.4314347746217519,4.631575117959855,4.754704337742286,4.8778335575254275,5.0009627773093106,5.1240919970939052,5.2472212168792289,5.3703504366652748,5.4934796564520481,5.6166088762395461,5.73973809602777,5.8628673158167119,5.9859965356063745,6.1091257553967733,6.2322549751878853,6.35538419497973,6.4785134147722934,6.6016426345655814,6.7247718543595925,6.8479010741543309,6.9710302939497932,6.9560448481475339,6.9254245352161226,6.8948042222854511,6.8641839093555221,6.8335635964263508,6.80294328349792,6.7723229705702392,6.7417026576433043,6.7110823447171182,6.68046203179168,6.6498417188669938,6.619221405943045,6.5886010930198475,6.5579807800974041,6.5273604671757033,6.49674015425475,6.4661198413345389,6.4354995284150842,6.2998128964558591,6.0940803966190469,5.8883478967830474,5.6826153969478392,5.4768828971134322,5.2711503972798219,5.0654178974470261,4.8596853976150252,4.6539528977838218,4.44822039795342,4.242487898123831,4.0367553982950346,3.831022898467038,3.6252903986398537,3.419557898813459,3.2138253989878782,3.0080928991630871,2.8023603993391029,2.5966278995159233,2.3908953996935485,2.0506579559333979,1.6527737199641062,1.254889483995604,0.8570052480279009,0.45912101206097922,0.061236776094866677,-0.33664745987045747,-0.734531695835003,-1.1324159317987388,-1.5303001677616968,-1.9281844037238525,-2.3260686396852184,-2.7239528756457871,-3.1218371116055743,-3.5197213475645519,-3.91760558352275,-4.3154898194801508,-4.7133740554367538,-5.1112582913925726,-5.5091425273475965,-6.0705352907888974,-6.6728071179921509,-7.2750789451945232,-7.8773507723960225,-8.4796225995966523,-9.0818944267964063,-9.68416625399529,-10.286438081193277,-10.888709908390407,-11.490981735586658,-12.093253562782021,-12.695525389976529,-13.29779721717013,-13.900069044362883,-14.502340871554754,-15.104612698745756,-15.706884525935868,-16.309156353125129,-16.911428180313482,-17.513700007500979,-18.30667603413459,-19.120843419117687,-19.935010804099875,-20.749178189081142,-21.563345574061533,-22.377512959041013,-23.19168034401957,-24.005847728997232,-24.820015113974009,-25.634182498949887,-26.448349883924855,-27.262517268898936,-28.076684653872071,-28.890852038844361,-29.705019423815713,-30.519186808786202,-31.333354193755756,-32.1475215787244,-32.96168896369219,-33.775856348659019,0,0.020582459659564015,0.052919445516802367,0.10449221561990578,0.18052115068830232,0.28142736868743196,0.40731331316738018,0.55808667533607847,0.73343708238687022,0.93273910245798486,1.0805846267279238,1.4244786721334164
DP 111,203.05950657911859,0.003542956480981652,-50.45579839809718,-49.424727911153042,-48.393657424207426,-47.362586937260232,-46.33151645031154,-45.300445963361319,-44.269375476409586,-43.238304989456289,-42.207234502501507,-41.17616401554519,-40.145093528587338,-39.114023041628,-38.082952554667123,-37.051882067704724,-36.020811580740812,-34.989741093775343,-33.958670606808404,-32.9276001198399,-31.896529632869882,-30.865459145898356,-29.842276861269298,-28.89008914336128,-27.93790142545177,-26.985713707540743,-26.033525989628153,-25.081338271714028,-24.129150553798343,-23.176962835881174,-22.224775117962444,-21.272587400042177,-20.320399682120371,-19.368211964197048,-18.416024246272173,-17.463836528345762,-16.511648810417828,-15.559461092488331,-14.607273374557321,-13.655085656624767,-12.702897938690683,-11.750710220755071,-10.830717172279408,-10.03950432321308,-9.2482914741451676,-8.4570786250757,-7.6658657760046616,-6.8746529269320584,-6.0834400778578734,-5.2922272287821306,-4.5010143797048228,-3.7098015306259442,-2.9185886815454936,-2.1273758324634726,-1.3361629833798871,-0.5449501342947326,0.24626271479199177,1.0374755638802839,1.8286884129701424,2.619901262061564,3.411114111154554,4.2023269602491133,4.9237426244709,5.4822959915219638,6.0408493585746141,6.5994027256288614,7.1579560926847012,7.7165094597421424,8.2750628268011788,8.83361619386181,9.3921695609240228,9.950722927987842,10.509276295053247,11.067829662120257,11.626383029188865,12.184936396259049,12.743489763330855,13.302043130404217,13.860596497479195,14.419149864555786,14.977703231633958,15.536256598713702,15.976837628464908,16.240457364461282,16.504077100459288,16.76769683645891,17.03131657246016,17.294936308463036,17.558556044467561,17.822175780473692,18.085795516481483,18.349415252490868,18.613034988501887,18.876654724514534,19.140274460528836,19.40389419654473,19.667513932562269,19.931133668581442,20.194753404602235,20.458373140624651,20.721992876648702,20.98561261267437,20.910318059632253,20.827475636250696,20.74463321287082,20.661790789492571,20.578948366115991,20.496105942741082,20.41326351936781,20.330421095996211,20.247578672626243,20.164736249257967,20.081893825891338,19.99905140252638,19.916208979163049,19.833366555801398,19.750524132441392,19.667681709083048,19.584839285726353,19.501996862371342,19.18704500909864,18.717349879295977,18.24765474949502,17.7779596196958,17.308264489898324,16.838569360102564,16.368874230308574,15.899179100516308,15.429483970725745,14.959788840936961,14.490093711149905,14.020398581364573,13.550703451580981,13.081008321799139,12.611313192019013,12.141618062240644,11.671922932463989,11.202227802689096,10.732532672915921,10.262837543144501,9.501402495477409,8.6149321150286085,7.728461734581515,6.8419913541361526,5.9555209736924652,5.069050593250541,4.1825802128103131,3.2961098323717688,2.4096394519349769,1.5231690714998669,0.63669869106648935,-0.24977168936518454,-1.1362420697951308,-2.0227124502233931,-2.9091828306499052,-3.7956532110747303,-4.6821235914978327,-5.5685939719192143,-6.4550643523388933,-7.3415347327568519,-8.5774679657723887,-9.9007710409202918,-11.224074116066367,-12.547377191210595,-13.870680266352982,-15.193983341493526,-16.517286416632242,-17.840589491769087,-19.16389256690411,-20.487195642037314,-21.810498717168628,-23.133801792298108,-24.457104867425745,-25.780407942551584,-27.10371101767554,-28.427014092797652,-29.750317167917945,-31.073620243036377,-32.396923318152972,-33.720226393267744,-35.447211734247944,-37.219054899964696,-38.990898065679623,-40.7627412313926,-42.534584397103771,-44.306427562812956,-46.078270728520323,-47.8501138942258,-49.621957059929443,-51.393800225631139,-53.165643391331024,-54.937486557029047,-56.709329722725066,-58.481172888419351,-60.253016054111669,-62.024859219802138,-63.796702385490704,-65.568545551177337,-67.34038871686225,-69.112231882545146,0,0.03866127361517642,0.10576472229829055,0.21619831620767926,0.37943763803576058,0.59641645118289877,0.8674167100523924,1.1922484572809355,1.5702062682898343,1.9998702923294545,2.3189430147178629,3.0599208423002131
DP 112,189.46319177983702,0.0028239386652354759,-38.512430493828447,-37.736910743456491,-36.961390993083377,-36.18587124270914,-35.41035149233376,-34.634831741957214,-33.859311991579517,-33.0837922412007,-32.308272490820741,-31.532752740439637,-30.757232990057378,-29.981713239673972,-29.20619348928944,-28.430673738903746,-27.655153988516911,-26.879634238128912,-26.104114487739793,-25.32859473734954,-24.553074986958116,-23.777555236565572,-23.007900428690085,-22.291030657857121,-21.574160887023,-20.85729111618771,-20.140421345351267,-19.423551574513652,-18.706681803674911,-17.98981203283499,-17.272942261993929,-16.55607249115171,-15.839202720308313,-15.122332949463766,-14.40546317861808,-13.688593407771227,-12.971723636923223,-12.254853866074056,-11.537984095223726,-10.821114324372246,-10.104244553519605,-9.38737478266581,-8.6944915016625668,-8.09755531369988,-7.5006191257360113,-6.9036829377709505,-6.30674674980471,-5.7098105618372719,-5.1128743738686548,-4.5159381858988485,-3.919001997927861,-3.3220658099556846,-2.7251296219823211,-2.1281934340077675,-1.5312572460320324,-0.93432105805510945,-0.33738487007699824,0.25955131790229846,0.85648750588278,1.453423693864444,2.0503598818472946,2.6472960698313339,3.1920528642038093,3.6150560961074407,4.0380593280122854,4.4610625599183322,4.8840657918255861,5.3070690237340479,5.7300722556437167,6.15307548755459,6.5760787194666728,6.9990819513799662,7.4220851832944552,7.8450884152101548,8.2680916471270685,8.6910948790451759,9.1140981109645072,9.5371013428850357,9.9601045748067687,10.383107806729722,10.806111038653878,11.229114270579229,11.563539961559657,11.765097247978627,11.966654534398819,12.168211820820263,12.36976910724292,12.571326393666823,12.772883680091965,12.974440966518349,13.175998252945954,13.377555539374812,13.57911282580489,13.780670112236216,13.982227398668773,14.183784685102564,14.38534197153758,14.586899257973846,14.788456544411339,14.990013830850078,15.191571117290046,15.393128403731255,15.344219229899316,15.2843436088599,15.224467987821738,15.164592366784811,15.10471674574918,15.044841124714786,14.98496550368167,14.925089882649786,14.86521426161918,14.805338640589845,14.74546301956177,14.685587398534935,14.625711777509373,14.565836156485069,14.505960535462011,14.446084914440243,14.386209293419714,14.326333672400439,14.090411930122968,13.737123333626959,13.383834737132291,13.030546140638913,12.677257544146872,12.323968947656144,11.970680351166761,11.617391754678685,11.26410315819194,10.910814561706507,10.557525965222419,10.204237368739641,9.850948772258187,9.4976601757780656,9.1443715792992446,8.7910829828217629,8.4377943863456,8.0845057898707644,7.7312171933972484,7.3779285969250683,6.8023067709279825,6.1313962729432108,5.4604857749597375,4.7895752769775752,4.1186647789967061,3.4477542810171662,2.7768437830389243,2.1059332850619672,1.4350227870863452,0.76411228911200424,0.093201791138984677,-0.57770870683273634,-1.2486192048031413,-1.9195297027722611,-2.5904402007400478,-3.26135069870655,-3.9322611966717327,-4.6031716946356065,-5.2740821925981889,-5.9449926905594612,-6.88326406676061,-7.8883788214512434,-8.8934935761404734,-9.89860833082829,-10.903723085514711,-11.908837840199714,-12.913952594883302,-13.919067349565475,-14.924182104246245,-15.929296858925646,-16.934411613603579,-17.939526368280163,-18.944641122955261,-19.949755877629027,-20.954870632301347,-21.959985386972267,-22.965100141641763,-23.970214896309852,-24.975329650976555,-25.98044440564184,-27.295188422723253,-28.644338943040566,-29.993489463356489,-31.342639983670889,-32.69179050398391,-34.040941024295456,-35.3900915446056,-36.739242064914222,-38.088392585221492,-39.437543105527276,-40.786693625831688,-42.135844146134616,-43.48499466643613,-44.834145186736173,-46.18329570703478,-47.532446227331953,-48.88159674762769,-50.230747267921977,-51.579897788214893,-52.929048308506268,0,0.029913502853642911,0.081300769292602673,0.16558665875269737,0.2901386834214596,0.45566486928604921,0.662374942459113,0.91012320701216842,1.1983742988368764,1.526051174185062,1.7693663595673985,2.3345217636577833
DP 113,166.03277616022919,0.0033664653098415907,-42.232524020484725,-41.407426594505125,-40.582329168524325,-39.757231742542295,-38.932134316559065,-38.107036890574634,-37.281939464589044,-36.456842038602183,-35.631744612614149,-34.8066471866249,-33.981549760634437,-33.156452334642786,-32.331354908649907,-31.506257482655862,-30.681160056660577,-29.85606263066412,-29.030965204666455,-28.205867778667574,-27.380770352667483,-26.55567292666619,-25.736710504515351,-24.972963696935022,-24.209216889353439,-23.445470081770665,-22.68172327418668,-21.917976466601459,-21.154229659015019,-20.390482851427368,-19.626736043838488,-18.862989236248374,-18.099242428657046,-17.33549562106451,-16.571748813470727,-15.808002005875739,-15.044255198279533,-14.280508390682105,-13.516761583083444,-12.753014775483567,-11.989267967882471,-11.225521160280159,-10.486942609086425,-9.8490382730175128,-9.2111339369473324,-8.5732296008759015,-7.9353252648031969,-7.297420928729232,-6.6595165926539943,-6.0216122565774972,-5.3837079204997407,-4.7458035844207167,-4.1078992483404235,-3.4699949122588629,-2.8320905761760446,-2.1941862400919558,-1.5562819040066023,-0.91837756791998493,-0.28047323183210326,0.35743110425703967,0.99533544034744581,1.6332397764391202,2.2161220670083588,2.6706178510852108,3.1251136351633537,3.57960941924278,4.0341052033235005,4.4886009874055075,4.9430967714887961,5.3975925555733761,5.8520883396592529,6.3065841237464033,6.7610799078348487,7.2155756919245757,7.6700714760156,8.1245672601079075,8.5790630442015,9.033558828296389,9.4880546123925562,9.94255039649002,10.397046180588763,10.851541964688803,11.212043529311698,11.431551543575232,11.651059557840085,11.870567572106271,12.090075586373789,12.30958360064262,12.529091614912788,12.748599629184293,12.96810764345711,13.187615657731257,13.407123672006731,13.626631686283551,13.846139700561666,14.065647714841125,14.285155729121913,14.504663743404032,14.72417175768747,14.94367977197224,15.163187786258334,15.382695800545752,15.342659791104026,15.282743256239637,15.222826721376636,15.162910186514985,15.102993651654705,15.043077116795777,14.983160581938197,14.923244047081988,14.86332751222713,14.803410977373636,14.743494442521493,14.683577907670694,14.623661372821278,14.563744837973214,14.503828303126511,14.44391176828116,14.38399523343716,14.324078698594537,14.074617487067973,13.698790171720068,13.322962856373621,12.947135541028585,12.571308225684996,12.195480910342823,11.819653595002098,11.44382627966281,11.067998964324945,10.692171648988513,10.316344333653539,9.9405170183199871,9.564689702987863,9.18886238765719,8.8130350723279385,8.43720775700013,8.0613804416737374,7.6855531263487968,7.3097258110252854,6.9338984957032235,6.3170619514103734,5.5969324831831333,4.8768030149573036,4.1566735467328986,3.4365440785098884,2.7164146102883291,1.9962851420681764,1.2761556738494164,0.55602620563210192,-0.1641032625838198,-0.884232730798308,-1.6043621990113897,-2.3244916672230405,-3.0446211354333013,-3.7647506036421143,-4.4848800718495285,-5.2050095400555225,-5.9251390082600919,-6.645268476463257,-7.3653979446649949,-8.3769341101867223,-9.4613253930747589,-10.545716675961263,-11.630107958846217,-12.714499241729644,-13.798890524611528,-14.88328180749188,-15.967673090370679,-17.052064373247948,-18.136455656123708,-19.220846938997877,-20.305238221870546,-21.389629504741631,-22.474020787611231,-23.558412070479271,-24.642803353345769,-25.727194636210736,-26.811585919074187,-27.895977201936034,-28.980368484796404,-30.403442398651745,-31.864151272937963,-33.324860147222637,-34.785569021505694,-36.246277895787188,-37.70698677006714,-39.167695644345486,-40.628404518622141,-42.089113392897417,-43.549822267171052,-45.010531141443067,-46.471240015713569,-47.931948889982436,-49.392657764249762,-50.85336663851551,-52.314075512779695,-53.774784387042331,-55.235493261303304,-56.696202135562785,-58.156911009820654,0,0.033586795626607595,0.089903019004296481,0.18156726996464553,0.31693414306907164,0.49676376633729491,0.72127068800571281,0.99029468123043518,1.3032615120098234,1.6590161093894469,1.9231209850709754,2.5368231694275911
DP 114,68.7545005054527,0.0050473408677459853,-32.425304514616791,-32.006363874876833,-31.587423235136608,-31.168482595396142,-30.74954195565536,-30.330601315914315,-29.911660676173046,-29.492720036431493,-29.073779396689677,-28.654838756947573,-28.235898117205235,-27.81695747746264,-27.398016837719755,-26.979076197976603,-26.560135558233192,-26.141194918489525,-25.722254278745595,-25.30331363900142,-24.884372999256943,-24.4654323595122,-24.049520138619865,-23.660863973660291,-23.272207808700404,-22.883551643740208,-22.494895478779689,-22.106239313818858,-21.717583148857731,-21.328926983896284,-20.94027081893454,-20.551614653972468,-20.162958489010084,-19.774302324047394,-19.385646159084374,-18.996989994121058,-18.608333829157427,-18.219677664193476,-17.831021499229227,-17.442365334264657,-17.053709169299783,-16.665053004334592,-16.288866024403287,-15.962556373919355,-15.636246723434988,-15.309937072950152,-14.983627422464878,-14.657317771979137,-14.33100812149296,-14.004698471006304,-13.678388820519192,-13.352079170031637,-13.025769519543623,-12.699459869055158,-12.373150218566231,-12.046840568076854,-11.720530917587023,-11.394221267096738,-11.067911616605992,-10.741601966114789,-10.415292315623134,-10.088982665131027,-9.7901611254780949,-9.5554793771978055,-9.32079762891704,-9.0861158806358091,-8.8514341323541,-8.6167523840719156,-8.3820706357892671,-8.1473888875061355,-7.9127071392225474,-7.6780253909384708,-7.4433436426539279,-7.2086618943689134,-6.9739801460834254,-6.7392983977974659,-6.5046166495110249,-6.2699349012241221,-6.0352531529367415,-5.8005714046488821,-5.5658896563605573,-5.331207908071768,-5.143946997454603,-5.0278184639295391,-4.9116899304038917,-4.7955613968776678,-4.67943286335086,-4.5633043298234721,-4.44717579629551,-4.3310472627669672,-4.2149187292378452,-4.09879019570814,-3.9826616621778563,-3.8665331286469957,-3.7504045951155529,-3.6342760615835323,-3.5181475280509313,-3.40201899451775,-3.2858904609839912,-3.1697619274496458,-3.0536333939147262,-2.9375048603792284,-2.9456858948131628,-2.9721842849189182,-2.9986826750240367,-3.0251810651285127,-3.0516794552323483,-3.0781778453355453,-3.1046762354380948,-3.1311746255400146,-3.157673015641286,-3.1841714057419215,-3.2106697958419166,-3.2371681859412686,-3.263666576039983,-3.2901649661380543,-3.3166633562354852,-3.3431617463322785,-3.3696601364284291,-3.3961585265239385,-3.520515754432032,-3.7101137491883178,-3.89971174394383,-4.0893097386985859,-4.2789077334525789,-4.4685057282058054,-4.6581037229582574,-4.8477017177099526,-5.0372997124608814,-5.2268977072110481,-5.4164957019604358,-5.6060936967090687,-5.7956916914569359,-5.9852896862040357,-6.1748876809503725,-6.3644856756959305,-6.5540836704407406,-6.7436816651847806,-6.9332796599280515,-7.1228776546705577,-7.4382591915404843,-7.8075496592204567,-8.1768401268996485,-8.5461305945780843,-8.91542106225576,-9.2847115299326717,-9.65400199760882,-10.023292465284211,-10.392582932958829,-10.7618734006327,-11.131163868305789,-11.500454335978127,-11.869744803649699,-12.23903527132051,-12.608325738990544,-12.977616206659821,-13.346906674328338,-13.716197141996091,-14.085487609663081,-14.454778077329316,-14.977405788748174,-15.538369622819415,-16.099333456889745,-16.660297290959129,-17.221261125027546,-17.782224959095057,-18.34318879316162,-18.904152627227248,-19.465116461291935,-20.026080295355698,-20.58704412941848,-21.148007963480364,-21.708971797541253,-22.269935631601292,-22.83089946566033,-23.391863299718441,-23.952827133775607,-24.513790967831834,-25.074754801887138,-25.635718635941529,-26.375889380772943,-27.135973886685573,-27.896058392597212,-28.656142898507841,-29.416227404417484,-30.176311910326131,-30.936396416233741,-31.696480922140402,-32.456565428046055,-33.216649933950684,-33.976734439854312,-34.736818945756973,-35.496903451658611,-36.256987957559261,-37.017072463458895,-37.777156969357563,-38.537241475255236,-39.297325981151843,-40.057410487047562,-40.81749499294218,0,0.035080345571375585,0.073341855431835634,0.12530643762960364,0.19994206392804109,0.29803164820490746,0.41971395740161005,0.56496467671299333,0.73363414998845589,0.92530911259448778,1.0657179820943852,1.3937947004069651
DP 115,60.121239320104884,0.0031768107675563036,-18.184796751570147,-17.978348177825783,-17.771899604081355,-17.565451030336867,-17.359002456592332,-17.152553882847734,-16.946105309103071,-16.739656735358345,-16.53320816161359,-16.326759587868768,-16.120311014123878,-15.913862440378942,-15.707413866633951,-15.500965292888875,-15.294516719143772,-15.088068145398623,-14.881619571653392,-14.67517099790811,-14.468722424162777,-14.262273850417378,-14.057317114111219,-13.865787055773435,-13.674256997435565,-13.482726939097615,-13.291196880759568,-13.099666822421424,-12.908136764083212,-12.716606705744901,-12.525076647406506,-12.333546589068032,-12.14201653072945,-11.950486472390779,-11.758956414052035,-11.56742635571319,-11.375896297374267,-11.184366239035251,-10.992836180696141,-10.801306122356957,-10.609776064017668,-10.418246005678302,-10.232854321421122,-10.072016423601001,-9.9111785257807039,-9.75034062796022,-9.58950273013954,-9.4286648323187059,-9.267826934497652,-9.1069890366764366,-8.9461511388550328,-8.785313241033446,-8.6244753432116745,-8.4636374453897147,-8.3027995475675738,-8.1419616497452481,-7.9811237519227411,-7.8202858541000451,-7.6594479562771678,-7.4986100584541111,-7.3377721606308661,-7.17693426280744,-7.0296314098388821,-6.9139107546535064,-6.7981900994679352,-6.6824694442821784,-6.5667487890962262,-6.451028133910083,-6.3353074787237462,-6.2195868235372069,-6.10386616835048,-5.9881455131635617,-5.8724248579764486,-5.7567042027891429,-5.6409835476016408,-5.5252628924139522,-5.4095422372260655,-5.2938215820379861,-5.1781009268497131,-5.0623802716612518,-4.9466596164725916,-4.83093896128374,-4.7385627520600746,-4.6812037634283117,-4.6238447747962867,-4.5664857861639954,-4.5091267975314446,-4.451767808898623,-4.3944088202655394,-4.3370498316321937,-4.2796908429985852,-4.2223318543647093,-4.1649728657305722,-4.1076138770961714,-4.0502548884615059,-3.9928958998265771,-3.9355369111913832,-3.8781779225559214,-3.8208189339202043,-3.7634599452842181,-3.7061009566479668,-3.648741968011453,-3.6522362046394741,-3.6651058297797205,-3.6779754549196673,-3.690845080059312,-3.7037147051986525,-3.716584330337692,-3.7294539554764232,-3.7423235806148583,-3.7551932057529869,-3.7680628308908148,-3.7809324560283364,-3.7938020811655551,-3.8066717063024753,-3.8195413314390909,-3.8324109565754005,-3.8452805817114095,-3.8581502068471147,-3.8710198319825171,-3.9320701991035363,-4.02524181990708,-4.1184134407102384,-4.2115850615130208,-4.3047566823154169,-4.397928303117439,-4.4910999239190685,-4.5842715447203215,-4.6774431655211934,-4.77061478632168,-4.8637864071217809,-4.9569580279215026,-5.0501296487208425,-5.1433012695198,-5.23647289031837,-5.3296445111165669,-5.4228161319143773,-5.5159877527118084,-5.6091593735088487,-5.70233099430551,-5.8574464963389534,-6.0391102124806819,-6.2207739286220294,-6.4024376447629869,-6.5841013609035768,-6.7657650770437723,-6.9474287931835876,-7.1290925093230317,-7.3107562254620779,-7.492419941600752,-7.6740836577390441,-7.8557473738769517,-8.03741109001447,-8.2190748061516246,-8.40073852228838,-8.5824022384247627,-8.7640659545607491,-8.9457296706963714,-9.1273933868316028,-9.3090571029664488,-9.5662241909858263,-9.8422680140657359,-10.118311837145162,-10.394355660224088,-10.670399483302523,-10.946443306380468,-11.222487129457932,-11.498530952534878,-11.774574775611358,-12.050618598687338,-12.326662421762808,-12.602706244837806,-12.878750067912298,-13.154793890986319,-13.430837714059829,-13.706881537132851,-13.982925360205375,-14.258969183277429,-14.535013006348963,-14.811056829420018,-15.175357329130385,-15.549465053153639,-15.92357277717637,-16.29768050119856,-16.671788225220205,-17.045895949241334,-17.420003673261931,-17.794111397281988,-18.168219121301526,-18.542326845320542,-18.916434569339025,-19.290542293356975,-19.664650017374388,-20.038757741391283,-20.412865465407641,-20.786973189423474,-21.16108091343877,-21.535188637453516,-21.909296361467788,-22.283404085481472,0,0.021572635893714154,0.042851997015828182,0.069782435686441366,0.107658258668695,0.15702329670913667,0.21801151713115002,0.29066157783908225,0.37496331543292716,0.47076951894500935,0.5402408074103654,0.7026400281471944
DP 116,308.94814599835468,0.001449366730756261,-27.066295359890528,-26.466713838225733,-25.867132316560145,-25.26755079489374,-24.667969273226543,-24.06838775155855,-23.468806229889733,-22.869224708220113,-22.269643186549679,-21.670061664878439,-21.0704801432064,-20.470898621533554,-19.871317099859883,-19.271735578185417,-18.672154056510156,-18.072572534834073,-17.472991013157184,-16.87340949147951,-16.273827969801005,-15.674246448121718,-15.079812173455387,-14.531703608452386,-13.98359504344856,-13.435486478443938,-12.887377913438495,-12.339269348432255,-11.791160783425198,-11.243052218417318,-10.694943653408654,-10.146835088399179,-9.5987265233888781,-9.0506179583777744,-8.502509393365866,-7.9544008283531413,-7.4062922633396182,-6.8581836983252789,-6.310075133310133,-5.7619665682941683,-5.2138580032774025,-4.6657494382598337,-4.1382195334390248,-3.6930052419838471,-3.2477909505278544,-2.8025766590710512,-2.3573623676134363,-1.9121480761550083,-1.4669337846957662,-1.0217194932357103,-0.5765052017748451,-0.13129091031316575,0.31392338114932794,0.75913767261263787,1.2043519640767577,1.649566255541691,2.0947805470074377,2.5399948384739974,2.985209129941369,3.43042342140955,3.8756377128785475,4.3208520043483567,4.7229240429521164,5.0243294655644464,5.3257348881776121,5.6271403107915932,5.9285457334064038,6.2299511560220457,6.5313565786385013,6.8327620012557819,7.1341674238738957,7.4355728464928328,7.7369782691125906,8.0383836917331752,8.3397891143545948,8.6411945369768262,8.94259995959989,9.2440053822237758,9.5454108048484869,9.8468162274740259,10.148221650100393,10.449627072727575,10.681285843888247,10.80832298969106,10.935360135494726,11.062397281299219,11.189434427104537,11.316471572910698,11.443508718717693,11.57054586452551,11.697583010334165,11.824620156143656,11.951657301953977,12.078694447765136,12.205731593577116,12.332768739389925,12.4598058852036,12.586843031018079,12.713880176833408,12.840917322649558,12.967954468466532,13.094991614284346,12.990248984026907,12.922944135371916,12.855639286717748,12.788334438064441,12.721029589411966,12.653724740760344,12.586419892109555,12.51911504345961,12.451810194810523,12.384505346162269,12.317200497514857,12.249895648868289,12.18259080022256,12.115285951577668,12.047981102933626,11.980676254290433,11.913371405648075,11.846066557006557,11.655712179194925,11.383322843449811,11.110933507705564,10.83854417196218,10.566154836219678,10.293765500478047,10.021376164737285,9.7489868289973991,9.4765974932583976,9.204208157520247,8.931818821782997,8.6594294860466032,8.3870401503110834,8.11465081457645,7.8422614788426683,7.5698721431097766,7.2974828073777482,7.0250934716465991,6.7527041359163205,6.480314800186922,6.0615216846809021,5.5799821152205951,5.09844254576114,4.6169029763025513,4.1353634068448129,3.6538238373879519,3.1722842679319494,2.6907446984767862,2.2092051290225072,1.7276655595690709,1.2461259901165085,0.76458642066479732,0.28304685121395684,-0.19849271823603909,-0.68003228768515556,-1.1615718571334259,-1.643111426580828,-2.1246509960273654,-2.6061905654730526,-3.0877301349178747,-3.7366706169950037,-4.4274633051100016,-5.1182559932240839,-5.8090486813372495,-6.4998413694495021,-7.1906340575608416,-7.8814267456712814,-8.5722194337807878,-9.26301212188939,-9.95380480999709,-10.644597498103865,-11.335390186209729,-12.026182874314667,-12.716975562418718,-13.407768250521837,-14.098560938624033,-14.789353626725346,-15.480146314825733,-16.170939002925188,-16.86173169102376,-17.739913774305933,-18.63891886953936,-19.537923964771888,-20.436929060003436,-21.335934155234085,-22.234939250463785,-23.133944345692576,-24.032949440920426,-24.931954536147352,-25.830959631373364,-26.729964726598446,-27.628969821822611,-28.527974917045846,-29.426980012268139,-30.3259851074895,-31.224990202709929,-32.123995297929454,-33.023000393148017,-33.922005488365706,-34.821010583582392,0,0.018287242565437688,0.0512962735861847,0.10638042405164665,0.18791389417810792,0.29637662747274462,0.43192374261227112,0.59446241872094174,0.78363239591284883,0.99870830382064357,1.1584665084616166,1.5291582636167633
DP 117,207.00107530693137,0.0011522072333882286,-16.60672831048543,-16.266017606699265,-15.925306902912615,-15.584596199125457,-15.243885495337798,-14.903174791549631,-14.562464087760969,-14.221753383971791,-13.881042680182121,-13.540331976391959,-13.199621272601275,-12.858910568810101,-12.518199865018421,-12.177489161226237,-11.836778457433553,-11.496067753640361,-11.155357049846666,-10.814646346052481,-10.473935642257786,-10.133224938462581,-9.7951303298272983,-9.48058082491979,-9.1660313200117809,-8.8514818151032646,-8.536932310194242,-8.2223828052847168,-7.9078333003746719,-7.593283795464127,-7.2787342905530794,-6.96418478564152,-6.6496352807294565,-6.3350857758168848,-6.0205362709038051,-5.7059867659902208,-5.391437261076133,-5.0768877561615318,-4.7623382512464252,-4.4477887463308123,-4.1332392414146941,-3.8186897364980688,-3.5148095551861336,-3.2536071725415794,-2.992404789896506,-2.731202407250914,-2.4700000246048059,-2.208797641958181,-1.9475952593110384,-1.6863928766633798,-1.4251904940152038,-1.1639881113665118,-0.90278572871730067,-0.64158334606757172,-0.38038096341732713,-0.11917858076656457,0.14202380188471464,0.4032261845365106,0.66442856718882348,0.92563094984165273,1.1868333324949982,1.4480357151488614,1.6861303513917947,1.8703061846087612,2.0544820178262539,2.2386578510442687,2.422833684262812,2.6070095174818797,2.7911853507014754,2.9753611839215948,3.1595370171422421,3.3437128503634121,3.5278886835851075,3.7120645168073336,3.896240350030086,4.0804161832533525,4.2645920164771534,4.44876784970148,4.632943682926336,4.8171195161517142,5.0012953493776138,5.1854711826040427,5.3306432710475882,5.4173088206333109,5.5039743702195629,5.5906399198063532,5.6773054693936844,5.76397101898155,5.8506365685699464,5.9373021181588843,6.02396766774836,6.1106332173383739,6.1972987669289141,6.2839643165200014,6.3706298661116181,6.4572954157037774,6.5439609652964617,6.6306265148896957,6.7172920644834626,6.8039576140777616,6.890623163672605,6.9772887132679795,6.9513598526822706,6.9236549823205911,6.89595011195946,6.8682452415988759,6.8405403712388368,6.81283550087934,6.7851306305204,6.7574257601619925,6.7297208898041383,6.7020160194468295,6.6743111490900642,6.646606278733846,6.6189014083781723,6.5911965380230475,6.56349166766847,6.5357867973144312,6.5080819269609478,6.4803770566080052,6.3761732299122222,6.2209688938454315,6.065764557779211,5.9105602217135562,5.7553558856484743,5.6001515495839609,5.4449472135200319,5.28974287745666,5.1345385413938613,4.9793342053316332,4.82412986926999,4.6689255332089079,4.5137211971483975,4.3585168610884626,4.2033125250290961,4.0481081889703008,3.8929038529120725,3.7376995168544225,3.5824951807973444,3.4272908447408366,3.1760782032128105,2.8837178486428843,2.59135749407352,2.2989971395047215,2.0066367849364806,1.7142764303688123,1.4219160758017071,1.1295557212351559,0.837195366669178,0.54483501210375529,0.25247465753890314,-0.039885697025388862,-0.33224605158911252,-0.62460640615228213,-0.91696676071487626,-1.2093271152769152,-1.5016874698383855,-1.7940478243992912,-2.0864081789596378,-2.3787685335194175,-2.7859919780406575,-3.22193255218576,-3.6578731263302586,-4.09381370047415,-4.5297542746174386,-4.9656948487601191,-5.4016354229021983,-5.8375759970436638,-6.2735165711845235,-6.7094571453247953,-7.1453977194644365,-7.5813382936034923,-8.0172788677419238,-8.4532194418797673,-8.8891600160169855,-9.3251005901536139,-9.76104116428963,-10.196981738425052,-10.632922312559858,-11.068862886694045,-11.637381044611232,-12.220631437556326,-12.803881830500822,-13.387132223444674,-13.970382616387933,-14.553633009330563,-15.136883402272575,-15.720133795213945,-16.30338418815473,-16.886634581094889,-17.469884974034439,-18.053135366973361,-18.636385759911676,-19.219636152849354,-19.802886545786418,-20.386136938722888,-20.969387331658737,-21.552637724593922,-22.13588811752853,-22.719138510462496,0,0.012673933450102898,0.034729287239585585,0.0710575468415488,0.12476091561303951,0.19614710828293486,0.28530945624119736,0.39218558913573631,0.5165430954289576,0.65791412679511652,0.76289986922681829,1.0066944079008846
DP 118,87.3083200684608,0.0047937268039288036,-37.688459609266594,-37.11072589279145,-36.53299217631568,-35.955258459839328,-35.377524743362365,-34.799791026884805,-34.22205731040664,-33.644323593927865,-33.066589877448507,-32.48885616096856,-31.911122444487997,-31.333388728006842,-30.7556550115251,-30.177921295042726,-29.600187578559776,-29.022453862076198,-28.444720145592076,-27.866986429107332,-27.28925271262197,-26.711518996136011,-26.137967358721259,-25.602054828260048,-25.066142297798194,-24.530229767335712,-23.994317236872568,-23.4584047064088,-22.922492175944388,-22.38657964547934,-21.85066711501365,-21.314754584547309,-20.778842054080346,-20.242929523612734,-19.707016993144485,-19.17110446267559,-18.635191932206077,-18.099279401735881,-17.563366871265075,-17.027454340793636,-16.491541810321532,-15.955629279848814,-15.43694326360915,-14.987164118452636,-14.537384973295371,-14.087605828137347,-13.637826682978575,-13.188047537819038,-12.738268392658741,-12.288489247497674,-11.838710102335867,-11.388930957173294,-10.939151812009959,-10.489372666845863,-10.039593521681013,-9.589814376515406,-9.1400352313490441,-8.6902560861819165,-8.24047694101404,-7.7906977958453947,-7.3409186506759978,-6.8911395055058433,-6.4793219233853909,-6.1560825177877643,-5.8328431121893516,-5.5096037065901609,-5.186364300990193,-4.8631248953894479,-4.5398854897879195,-4.2166460841856113,-3.8934066785825276,-3.5701672729786633,-3.24692786737402,-2.9236884617686,-2.6004490561623963,-2.2772096505554154,-1.9539702449476568,-1.6307308393391173,-1.3074914337297971,-0.98425202811969759,-0.66101262250882142,-0.33777321689716661,-0.080009177639128931,0.079540264863695,0.23908970736738641,0.39863914987195115,0.55818859237738327,0.71773803488368892,0.87728747739085944,1.0368369198989043,1.1963863624078177,1.3559358049176014,1.5154852474282567,1.6750346899397797,1.8345841324521754,1.994133574965439,2.1536830174795707,2.3132324599945777,2.4727819025104489,2.6323313450271995,2.7918807875448164,2.9514302300632966,2.9379994138082282,2.900716826706951,2.863434239606605,2.8261516525071784,2.78886906540868,2.751586478311105,2.7143038912144575,2.6770213041187265,2.639738717023929,2.6024561299300539,2.565173542837103,2.5278909557450815,2.4906083686539757,2.4533257815637994,2.4160431944745504,2.3787606073862264,2.3414780202988239,2.30419543321235,2.1319099347413064,1.8696203685504009,1.6073308023605504,1.3450412361717268,1.0827516699839512,0.82046210379720774,0.55817253761151819,0.295882971426864,0.033593405243249372,-0.22869616093932091,-0.49098572712084176,-0.75327529330133014,-1.0155648594807765,-1.277854425659174,-1.5401439918365378,-1.8024335580128532,-2.0647231241881365,-2.3270126903623711,-2.58930225653556,-2.8515918227077104,-3.2873193821152866,-3.7973798520056037,-4.3074403218948909,-4.8175007917831376,-5.3275612616703611,-5.8376217315565322,-6.3476822014416738,-6.8577426713258,-7.367803141208868,-7.8778636110909188,-8.3879240809719313,-8.8979845508519073,-9.4080450207308424,-9.9181054906087578,-10.428165960485618,-10.938226430361468,-11.448286900236269,-11.958347370110033,-12.468407839982767,-12.978468309854462,-13.699910843093821,-14.474201389702092,-15.24849193630917,-16.022782482915041,-16.797073029519716,-17.571363576123176,-18.345654122725456,-19.1199446693265,-19.894235215926361,-20.668525762525032,-21.44281630912246,-22.217106855718736,-22.991397402313765,-23.765687948907605,-24.539978495500247,-25.314269042091691,-26.08855958868191,-26.862850135270964,-27.6371406818588,-28.411431228445419,-29.432711238184289,-30.481437115593536,-31.530162993001554,-32.578888870408257,-33.627614747813737,-34.676340625217904,-35.725066502620884,-36.773792380022563,-37.822518257422992,-38.87124413482217,-39.919970012220077,-40.968695889616768,-42.017421767012173,-43.066147644406279,-44.114873521799161,-45.1635993991908,-46.212325276581176,-47.261051153970257,-48.309777031358124,-49.358502908744647,0,0.035703542533528559,0.081820127099226939,0.15026198366443613,0.25031959342861554,0.38266486840644603,0.54739848273736746,0.74440930127352412,0.97335938691021018,1.2335368794663784,1.4257310321093322,1.8739529885219228
DP 119,57.052599228908,0.0036208586003740584,-19.82198511178628,-19.609741539075571,-19.397497966364856,-19.1852543936541,-18.973010820943326,-18.76076724823254,-18.548523675521714,-18.336280102810882,-18.124036530100025,-17.911792957389142,-17.699549384678239,-17.487305811967317,-17.275062239256389,-17.062818666545414,-16.850575093834429,-16.638331521123433,-16.426087948412402,-16.213844375701356,-16.001600802990289,-15.789357230279213,-15.578647244433084,-15.38173968533299,-15.184832126232834,-14.987924567132625,-14.791017008032373,-14.594109448932047,-14.397201889831678,-14.200294330731236,-14.003386771630744,-13.8064792125302,-13.60957165342958,-13.412664094328917,-13.215756535228198,-13.018848976127403,-12.821941417026579,-12.625033857925679,-12.428126298824727,-12.23121873972371,-12.034311180622643,-11.837403621521513,-11.646803470264834,-11.481433248482904,-11.316063026700821,-11.150692804918544,-10.985322583136115,-10.819952361353515,-10.654582139570742,-10.489211917787797,-10.323841696004688,-10.158471474221418,-9.9931012524379739,-9.8277310306543519,-9.66236080887057,-9.4969905870866178,-9.3316203653025074,-9.16625014351821,-9.0008799217337518,-8.8355096999491263,-8.6701394781643319,-8.5047692563793671,-8.35330984271977,-8.2343094196471736,-8.1153089965743952,-7.9963085735014356,-7.8773081504283029,-7.7583077273549934,-7.6393073042815027,-7.5203068812078229,-7.4013064581339769,-7.2823060350599453,-7.1633056119857441,-7.0443051889113644,-6.9253047658367963,-6.8063043427620569,-6.6873039196871371,-6.5683034966120362,-6.4493030735367594,-6.3303026504613014,-6.2113022273856719,-6.0923018043098551,-5.9972893759421941,-5.9382595064883086,-5.87922963703416,-5.8201997675797541,-5.7611698981250843,-5.7021400286701533,-5.6431101592149737,-5.5840802897595223,-5.5250504203038178,-5.4660205508478477,-5.4069906813916218,-5.3479608119351294,-5.2889309424783821,-5.2299010730213729,-5.1708712035641007,-5.1118413341065692,-5.0528114646487818,-4.9937815951907272,-4.9347517257324158,-4.8757218562738425,-4.8790476384514561,-4.892184061638992,-4.905320484826226,-4.9184569080131553,-4.9315933311997791,-4.9447297543860982,-4.9578661775721047,-4.9710026007578172,-4.98413902394322,-4.9972754471283185,-5.0104118703131135,-5.0235482934975968,-5.0366847166817834,-5.0498211398656618,-5.0629575630492329,-5.0760939862324985,-5.08923040941546,-5.1023668325981157,-5.1650139302328366,-5.2606689241457527,-5.3563239180582691,-5.4519789119703983,-5.5476339058821242,-5.64328889979346,-5.7389438937043913,-5.8345988876149333,-5.9302538815250792,-6.0259088754348236,-6.1215638693441781,-6.2172188632531373,-6.3128738571617,-6.4085288510698657,-6.5041838449776321,-6.5998388388850078,-6.6954938327919828,-6.7911488266985671,-6.8868038206047517,-6.9824588145105349,-7.141772422651754,-7.3283691536263316,-7.5149658846005174,-7.7015626155743071,-7.888159346547706,-8.0747560775207052,-8.2613528084933048,-8.4479495394655171,-8.6345462704373226,-8.8211430014087391,-9.0077397323797523,-9.1943364633503819,-9.3809331943206011,-9.5675299252904349,-9.75412665625986,-9.9407233872289016,-10.127320118197547,-10.313916849165786,-10.500513580133635,-10.687110311101094,-10.95129324844655,-11.234873654085062,-11.518454059723068,-11.80203446536053,-12.085614870997485,-12.369195276633917,-12.652775682269828,-12.936356087905219,-13.219936493540086,-13.503516899174434,-13.787097304808251,-14.070677710441554,-14.354258116074339,-14.637838521706602,-14.921418927338328,-15.20499933296955,-15.488579738600249,-15.772160144230426,-16.055740549860086,-16.339320955489207,-16.713597199734565,-17.097951711907314,-17.482306224079519,-17.866660736251134,-18.251015248422203,-18.63536976059271,-19.019724272762634,-19.40407878493199,-19.7884332971008,-20.172787809269035,-20.557142321436725,-20.941496833603821,-21.325851345770374,-21.710205857936359,-22.094560370101771,-22.478914882266622,-22.863269394430915,-23.247623906594633,-23.631978418757811,-24.016332930920388,0,0.024436296501654037,0.04764103041231816,0.0761092959391033,0.11569371196188188,0.16703023964974098,0.23029813021612272,0.30557134985593304,0.39287972986412745,0.49210541603982927,0.56363146054974311,0.730793430394654
DP 120,274.3696005798991,0.0043969067938129467,-75.813799226796675,-74.170886246295424,-72.5279732657919,-70.885060285286073,-69.242147304777973,-67.599234324267613,-65.95632134375488,-64.31340836323983,-62.670495382722457,-61.027582402202846,-59.38466942168084,-57.74175644115661,-56.098843460630015,-54.455930480101188,-52.813017499569966,-51.1701045190365,-49.527191538500674,-47.884278557962588,-46.2413655774222,-44.598452596879511,-42.969085857946034,-41.4616365739632,-39.954187289978094,-38.446738005990639,-36.939288722000882,-35.431839438008808,-33.924390154014411,-32.416940870017683,-30.909491586018667,-29.402042302017325,-27.894593018013666,-26.387143734007672,-24.879694449999384,-23.372245165988748,-21.864795881975834,-20.357346597960593,-18.849897313943028,-17.34244802992314,-15.834998745900945,-14.327549461876426,-12.874648342065866,-11.639942457140236,-10.405236572212267,-9.17053068728196,-7.9358248023493214,-6.7011189174143482,-5.4664130324770355,-4.2317071475373886,-2.99700126259541,-1.7622953776510952,-0.52758949270443889,0.70711639224456069,1.9418222771958882,3.1765281621495527,4.4112340471055553,5.6459399320638886,6.880645817024563,8.1153517019875672,9.350057586952893,10.584763471920573,11.703759706427238,12.552763110804371,13.401766515183862,14.250769919565728,15.099773323949982,15.94877672833657,16.797780132725563,17.646783537116931,18.495786941510648,19.344790345906734,20.193793750305204,21.042797154706051,21.891800559109267,22.74080396351486,23.5898073679228,24.438810772333156,25.28781417674584,26.136817581160933,26.985820985578378,27.834824389998211,28.493780389770897,28.867660791630971,29.241541193493362,29.615421595358253,29.989301997225457,30.363182399095088,30.737062800967131,31.110943202841579,31.484823604718411,31.858704006597648,32.2325844084793,32.606464810363377,32.9803452122498,33.354225614138635,33.728106016029862,34.101986417923527,34.475866819819558,34.849747221718,35.22362762361886,35.597508025522089,35.369822944368686,35.203971811206259,35.038120678046234,34.872269544888667,34.706418411733551,34.540567278580845,34.374716145430554,34.208865012282729,34.04301387913732,33.877162745994326,33.711311612853805,33.545460479715707,33.379609346580033,33.2137582134468,33.047907080315944,32.882055947187588,32.716204814061655,32.550353680938116,32.035543699973118,31.288088989716933,30.540634279463262,29.793179569212136,29.0457248589635,28.298270148717382,27.55081543847384,26.803360728232793,26.055906017994278,25.308451307758272,24.56099659752482,23.813541887293887,23.066087177065473,22.318632466839617,21.571177756616226,20.823723046395394,20.07626833617708,19.328813625961313,18.581358915748051,17.833904205537333,16.662529670743091,15.309469486888897,13.956409303037193,12.603349119188008,11.25028893534126,9.8972287514970656,8.54416856765534,7.1911083838160605,5.8380481999793279,4.4849880161450413,3.1319278323132687,1.7788676484839741,0.42580746465719177,-0.92725271916714691,-2.2803129029889422,-3.6333730868082839,-4.9864332706251151,-6.3394934544394523,-7.6925536382513275,-9.04561382206069,-10.892213237161462,-12.862203291363139,-14.832193345562191,-16.802183399758579,-18.772173453952327,-20.742163508143456,-22.71215356233192,-24.682143616517674,-26.652133670700835,-28.622123724881369,-30.592113779059186,-32.562103833234389,-34.532093887406909,-36.502083941576871,-38.472073995744068,-40.442064049908694,-42.412054104070656,-44.382044158229945,-46.352034212386584,-48.3220242665406,-50.851375260547051,-53.442883344735712,-56.034391428921722,-58.625899513105,-61.217407597285636,-63.808915681463468,-66.400423765638635,-68.991931849811081,-71.5834399339809,-74.174948018147958,-76.766456102312461,-79.357964186474177,-81.949472270633152,-84.540980354789511,-87.132488438943156,-89.723996523094087,-92.315504607242374,-94.9070126913879,-97.498520775530849,-100.09002885967081,0,0.053600702739770162,0.14958104696915042,0.30925824617954883,0.54552978480003045,0.8597775560242904,1.2524422981827668,1.7232537824363656,2.2711728442016725,2.8941081296167908,3.356805513860631,4.4306219083664447
DP 121,128.83350821452484,0.0016263419027871832,-17.21532558008435,-16.902089384945597,-16.588853189806429,-16.275616994666795,-15.962380799526773,-15.649144604386315,-15.335908409245402,-15.022672214104087,-14.709436018962332,-14.396199823820147,-14.082963628677541,-13.769727433534507,-13.456491238391036,-13.143255043247134,-12.83001884810281,-12.516782652958064,-12.203546457812868,-11.890310262667256,-11.577074067521211,-11.263837872374744,-10.952888853580854,-10.662524638157317,-10.37216042273335,-10.081796207308944,-9.7914319918841031,-9.5010677764588163,-9.210703561033089,-8.9203393456069264,-8.6299751301803251,-8.3396109147532727,-8.0492466993257956,-7.7588824838978772,-7.4685182684695119,-7.17815405304072,-6.88778983761148,-6.5974256221817988,-6.3070614067516848,-6.0166971913211338,-5.7263329758901325,-5.4359687604586995,-5.1550165743124357,-4.9117129501337589,-4.6684093259546104,-4.4251057017749975,-4.1818020775949138,-3.9384984534143674,-3.6951948292333463,-3.451891205051862,-3.2085875808699109,-2.9652839566874896,-2.7219803325045988,-2.4786767083212418,-2.2353730841374162,-1.9920694599531226,-1.7487658357683598,-1.5054622115831304,-1.2621585873974339,-1.0188549632112693,-0.77555133902463769,-0.532247714837537,-0.30963205661032489,-0.13528897078211433,0.039054115046576451,0.21339720087574265,0.38774028670538635,0.56208337253550789,0.7364264583661071,0.9107695441971847,1.085112630028739,1.2594557158607715,1.433798801693281,1.6081418875262672,1.7824849733597319,1.956828059193672,2.1311711450280928,2.30551423086299,2.4798573166983648,2.6542004025342196,2.8285434883705465,3.0028865742073565,3.1416526360684331,3.2270523212580371,3.3124520064481411,3.3978516916387513,3.4832513768298532,3.5686510620214693,3.6540507472135775,3.7394504324061941,3.8248501175993108,3.9102498027929218,3.9956494879870417,4.0810491731816594,4.1664488583767776,4.2518485435723985,4.3372482287685239,4.4226479139651476,4.5080475991622766,4.5934472843599,4.6788469695580295,4.7642466547566595,4.7540246053683717,4.73285564711368,4.7116866888595039,4.6905177306058441,4.669348772352703,4.6481798141000805,4.6270108558479732,4.6058418975963864,4.5846729393453174,4.5635039810947635,4.542335022844731,4.5211660645952128,4.4999971063462105,4.4788281480977306,4.4576591898497657,4.4364902316023214,4.4153212733553966,4.3941523151089843,4.3001412839234954,4.1575677232456627,4.0149941625683816,3.8724206018916618,3.7298470412154905,3.5872734805398778,3.4446999198648265,3.3021263591903267,3.1595527985163794,3.016979237842992,2.8744056771701634,2.7318321164978876,2.5892585558261683,2.4466849951550067,2.3041114344843954,2.1615378738143463,2.0189643131448483,1.8763907524759085,1.7338171918075274,1.5912436311397025,1.3553975127310043,1.0795761815346583,0.803754850338861,0.52793351914361553,0.252112187948913,-0.023709143245227653,-0.29953047443882258,-0.57535180563187671,-0.85117313682437046,-1.1269944680163224,-1.4028157992077195,-1.6786371303985692,-1.9544584615888638,-2.2302797927786182,-2.5061011239678113,-2.7819224551564625,-3.0577437863445627,-3.3335651175321073,-3.6093864487191079,-3.8852077799055564,-4.2744329669131984,-4.6920104577684389,-5.1095879486230764,-5.5271654394771064,-5.9447429303305288,-6.3623204211833349,-6.7798979120355432,-7.1974754028871368,-7.6150528937381194,-8.0326303845885114,-8.4502078754382772,-8.86778536628744,-9.2853628571359828,-9.7029403479839491,-10.12051783883128,-10.538095329678017,-10.95567282052413,-11.373250311369665,-11.79082780221457,-12.208405293058872,-12.758264246239637,-13.32282252895539,-13.887380811670521,-14.451939094385009,-15.016497377098894,-15.581055659812135,-16.145613942524758,-16.710172225236732,-17.274730507948096,-17.839288790658859,-18.403847073368972,-18.968405356078481,-19.532963638787336,-20.097521921495563,-20.662080204203178,-21.226638486910172,-21.791196769616533,-22.355755052322245,-22.920313335027391,-23.484871617731848,0,0.014362452713402973,0.036829519518525679,0.072611722230649184,0.1253556151146267,0.19535343325940202,0.28267544369950209,0.3872575972265539,0.50888509287419059,0.64712526470206666,0.7496679665399143,0.98820105149462345
DP 122,188.92350177297843,0.0027530021400460321,-37.478010034380269,-36.723787666173713,-35.969565297966085,-35.215342929757306,-34.461120561547432,-33.706898193336428,-32.952675825124324,-32.198453456911082,-31.444231088696757,-30.690008720481309,-29.93578635226476,-29.181563984047038,-28.427341615828269,-27.673119247608355,-26.918896879387344,-26.164674511165202,-25.410452142941949,-24.6562297747176,-23.902007406492139,-23.14778503826556,-22.399264184731503,-21.702057502371044,-21.004850820009452,-20.307644137646722,-19.610437455282913,-18.91323077291792,-18.216024090551826,-17.518817408184603,-16.821610725816267,-16.1244040434468,-15.427197361076198,-14.729990678704489,-14.03278399633165,-13.335577313957675,-12.638370631582585,-11.941163949206373,-11.24395726682903,-10.546750584450557,-9.849543902070959,-9.1523372196902475,-8.4784496492469685,-7.89783962865048,-7.3172296080528492,-6.7366195874540553,-6.1560095668541166,-5.5753995462530215,-4.9947895256507673,-4.4141795050473664,-3.83356948444281,-3.2529594638370978,-2.6723494432302313,-2.0917394226222057,-1.5111294020130306,-0.93051938140270107,-0.34990936079121737,0.23070065982142038,0.81131068043521137,1.3919207010501535,1.9725307216662467,2.5531407422834977,3.0830153191754333,3.4945055954950277,3.9059958718158021,4.3174861481377427,4.72897642446086,5.1404667007851526,5.5519569771106152,5.9634472534372556,6.3749375297650683,6.7864278060940562,7.1979180824242182,7.6094083587555472,8.020898635088054,8.4323889114217412,8.8438791877565954,9.2553694640926185,9.6668597404298335,10.078350016768212,10.489840293107763,10.901330569448483,11.226682408237881,11.422824555193751,11.618966702150821,11.815108849109096,12.011250996068574,12.207393143029256,12.40353528999114,12.599677436954231,12.795819583918515,12.991961730884006,13.188103877850693,13.384246024818594,13.580388171787689,13.776530318757985,13.972672465729481,14.168814612702185,14.364956759676096,14.561098906651207,14.75724105362751,14.953383200605021,14.906096816190699,14.847953352322453,14.789809888455444,14.731666424589655,14.673522960725096,14.615379496861758,14.557236032999656,14.499092569138757,14.44094910527912,14.382805641420681,14.324662177563475,14.266518713707489,14.208375249852736,14.150231785999216,14.092088322146909,14.033944858295831,13.975801394445975,13.917657930597361,13.688250611887941,13.344664691896712,13.001078771906789,12.657492851918134,12.313906931930772,11.970321011944694,11.626735091959915,11.283149171976422,10.939563251994196,10.59597733201327,10.252391412033642,9.9088054920552917,9.565219572078238,9.2216336521024758,8.8780477321279818,8.53446181215479,8.1908758921828717,7.8472899722122493,7.5037040522429237,7.1601181322748868,6.6001992549396267,5.9475633318494809,5.2949274087605973,4.6422914856729918,3.9896555625866434,3.3370196395015905,2.6843837164178006,2.0317477933352577,1.3791118702540144,0.72647594717402,0.073840024095309459,-0.57879589898213724,-1.2314318220583027,-1.8840677451332177,-2.5367036682068371,-3.189339591279202,-3.8419755143502905,-4.4946114374201045,-5.1472473604886506,-5.7998832835559266,-6.7127011216906691,-7.6905675127006949,-8.6684339037093583,-9.6463002947166423,-10.624166685722566,-11.602033076727109,-12.579899467730302,-13.557765858732097,-14.535632249732528,-15.513498640731619,-16.491365031729291,-17.469231422725628,-18.447097813720561,-19.424964204714179,-20.402830595706362,-21.380696986697231,-22.358563377686693,-23.3364297686748,-24.314296159661527,-25.292162550646911,-26.571374300389152,-27.884072032626374,-29.196769764862218,-30.509467497096626,-31.822165229329656,-33.134862961561289,-34.447560693791495,-35.760258426020272,-37.072956158247706,-38.385653890473769,-39.698351622698389,-41.0110493549216,-42.323747087143445,-43.636444819363852,-44.949142551582895,-46.261840283800488,-47.574538016016739,-48.887235748231539,-50.199933480445004,-51.512631212656935,0,0.029125629991572036,0.079136581686294144,0.16115296473171634,0.28234973271686814,0.44341564628565311,0.64455450576713269,0.88562459084026157,1.1661050742309407,1.4849481382386414,1.7217029005181665,2.2716247614293557
DP 123,103.34081130690431,0.00190040849239744,-17.094831177503732,-16.809029412592878,-16.523227647681672,-16.237425882770143,-15.951624117858232,-15.665822352945982,-15.380020588033393,-15.09421882312045,-14.808417058207162,-14.522615293293519,-14.236813528379541,-13.951011763465209,-13.665209998550528,-13.379408233635502,-13.093606468720116,-12.807804703804402,-12.522002938888336,-12.236201173971915,-11.950399409055148,-11.664597644138041,-11.380869276739247,-11.115801682994585,-10.850734089249567,-10.58566649550418,-10.32059890175843,-10.055531308012327,-9.7904637142658526,-9.525396120519007,-9.26032852677182,-8.99526093302427,-8.730193339276342,-8.4651257455280575,-8.20005815177942,-7.93499055803041,-7.6699229642810431,-7.4048553705313118,-7.1397877767812163,-6.8747201830307629,-6.6096525892799445,-6.344584995528761,-6.08805708048191,-5.86568828385055,-5.6433194872187782,-5.4209506905866105,-5.1985818939540351,-4.9762130973210565,-4.7538443006876738,-4.5314755040538879,-4.3091067074196987,-4.08673791078511,-3.8643691141501111,-3.6420003175147091,-3.4196315208789065,-3.197262724242699,-2.9748939276060886,-2.7525251309690724,-2.5301563343316564,-2.3077875376938333,-2.0854187410556113,-1.8630499444169841,-1.6594875944910914,-1.4998075461055369,-1.3401274977195643,-1.180447449333182,-1.0207674009463861,-0.86108735255917612,-0.70140730417155328,-0.5417272557835161,-0.38204720739506742,-0.22236715900620543,-0.062687110616930442,0.096992937772757193,0.2566729861628595,0.41635303455337358,0.57603308294430144,0.73571313133564331,0.89539317972739774,1.0550732281195667,1.2147532765121458,1.3744333249051393,1.5016969869969909,1.5803353036171635,1.6589736202377803,1.7376119368588452,1.8162502534803548,1.8948885701023108,1.9735268867247131,2.05216520334756,2.1308035199708533,2.20944183659459,2.2880801532187758,2.3667184698434056,2.4453567864684818,2.5239951030940042,2.6026334197199725,2.6812717363463854,2.7599100529732468,2.8385483696005518,2.9171866862283018,2.9958250028565003,2.9883316893336072,2.9696065165407686,2.9508813437483954,2.9321561709564876,2.9134309981650537,2.8947058253740781,2.8759806525835683,2.8572554797935266,2.8385303070039543,2.8198051342148474,2.801079961426205,2.7823547886380315,2.7636296158503226,2.7449044430630827,2.7261792702763055,2.7074540974899994,2.6887289247041575,2.6700037519187791,2.58455460740895,2.4546217639326571,2.324688920456881,2.1947560769816117,2.0648232335068593,1.9348903900326122,1.8049575465588812,1.6750247030856635,1.5450918596129537,1.4151590161407581,1.2852261726690781,1.1552933291979057,1.0253604857272476,0.89542764225710325,0.76549479878746707,0.63556195531834558,0.50562911184973214,0.37569626838163428,0.24576342491404976,0.11583058144697739,-0.09975307751836697,-0.35204538539297797,-0.60433769326708386,-0.85663000114067855,-1.1089223090137728,-1.3612146168863497,-1.6135069247584202,-1.8657992326299944,-2.11809154050105,-2.3703838483716053,-2.62267615624165,-2.8749684641111908,-3.1272607719802146,-3.3795530798487414,-3.6318453877167562,-3.8841376955842635,-4.1364300034512613,-4.3887223113177525,-4.6410146191837391,-4.893306927049216,-5.2499303609576735,-5.6326378090728113,-6.0153452571873736,-6.3980527053013567,-6.7807601534147688,-7.1634676015276071,-7.5461750496398752,-7.9288824977515553,-8.3115899458626714,-8.6942973939732155,-9.0770048420831717,-9.4597122901925648,-9.8424197383013716,-10.225127186409621,-10.607834634517278,-10.990542082624362,-11.373249530730874,-11.755956978836821,-12.138664426942187,-12.52137187504699,-13.025932997101282,-13.544034696019452,-14.062136394937033,-14.580238093853987,-15.098339792770359,-15.616441491686134,-16.134543190601306,-16.652644889515887,-17.170746588429878,-17.688848287343248,-18.206949986256038,-18.725051685168239,-19.243153384079832,-19.761255082990829,-20.279356781901232,-20.79745848081102,-21.31556017972024,-21.833661878628849,-22.351763577536857,-22.869865276444258,0,0.015145450804155866,0.036708859140944364,0.069974320722230976,0.11885283400167324,0.18362847807545007,0.26435409204577709,0.3609702812506887,0.47329188854996729,0.60094161456109851,0.69547622420414745,0.91566614586840578
DP 124,154.11291548710321,0.0017355154412908159,-20.745354238078946,-20.347595262643328,-19.949836287207123,-19.552077311770368,-19.154318336333024,-18.7565593608951,-18.358800385456618,-17.96104141001755,-17.563282434577932,-17.16552345913772,-16.767764483696944,-16.370005508255581,-15.972246532813667,-15.574487557371159,-15.17672858192809,-14.778969606484443,-14.381210631040222,-13.983451655595427,-13.585692680150062,-13.187933704704127,-12.793111621765807,-12.424721849008407,-12.05633207625042,-11.687942303491859,-11.319552530732702,-10.951162757972966,-10.582772985212651,-10.214383212451752,-9.8459934396902735,-9.4776036669282089,-9.1092138941655616,-8.740824121402321,-8.3724343486385155,-8.0040445758741221,-7.635654803109146,-7.2672650303435811,-6.8988752575774335,-6.5304854848107095,-6.1620957120433975,-5.7937059392754993,-5.43737908589376,-5.1293044801687167,-4.8212298744430635,-4.5131552687167984,-4.205080662989932,-3.8970060572624559,-3.5889314515343709,-3.2808568458056819,-2.9727822400763833,-2.6647076343464766,-2.3566330286159642,-2.0485584228848404,-1.7404838171531107,-1.4324092114207747,-1.1243346056878298,-0.81625999995427645,-0.50818539422011666,-0.20011078848535083,0.1079638172500214,0.41603842298600319,0.69768590378009387,0.917669260390658,1.1376526170018426,1.3576359736136454,1.5776193302260664,1.7976026868391073,2.0175860434527664,2.2375694000670454,2.457552756681944,2.6775361132974589,2.8975194699135929,3.1175028265303464,3.3374861831477216,3.5574695397657119,3.7774528963843235,3.9974362530035572,4.2174196096234038,4.4374029662438721,4.65738632286496,4.8773696794866668,5.0520910830156769,5.1589184873366873,5.2657458916583337,5.3725732959806161,5.4794007003035512,5.5862281046271187,5.6930555089513311,5.7998829132761838,5.9067103176016724,6.0135377219278068,6.12036512625458,6.22719253058199,6.3340199349100494,6.4408473392387462,6.547674743568078,6.6545021478980573,6.761329552228676,6.8681569565599361,6.9749843608918356,7.0818117652243817,7.0649156625944718,7.0367914855606344,7.0086673085274471,6.9805431314949189,6.9524189544630461,6.9242947774318333,6.8961706004012822,6.8680464233713812,6.8399222463421392,6.8117980693135571,6.78367389228563,6.7555497152583683,6.7274255382317474,6.6993013612057908,6.6711771841804941,6.6430530071558547,6.6149288301318663,6.5868046531085351,6.4668661840487438,6.2857167405488106,6.10456729704958,5.92341785355104,5.7422684100532013,5.5611189665560516,5.3799695230596072,5.1988200795638573,5.0176706360688019,4.83652119257444,4.65537174908079,4.4742223055878263,4.2930728620955625,4.1119234186039968,3.9307739751131265,3.7496245316229513,3.5684750881334706,3.38732564464469,3.2061762011566088,3.025026757669226,2.7268125336940017,2.3784261087704395,2.0300396838475607,1.6816532589253741,1.3332668340038669,0.98488040908306107,0.63649398416294167,0.2881075592434974,-0.060278865675243126,-0.40866529059330708,-0.75705171551067474,-1.1054381404273579,-1.4538245653433466,-1.8022109902586576,-2.1505974151732676,-2.4989838400871971,-2.8473702650004342,-3.1957566899129795,-3.5441431148248439,-3.8925295397360133,-4.3827682874453,-4.9084717918715191,-5.4341752962969938,-5.9598788007217163,-6.48558230514568,-7.0112858095689035,-7.5369893139913753,-8.0626928184130868,-8.58839632283405,-9.1140998272542788,-9.63980333167374,-10.165506836092451,-10.691210340510406,-11.216913844927628,-11.742617349344078,-12.2683208537598,-12.794024358174745,-13.319727862588964,-13.84543136700241,-14.371134871415119,-15.061939089878004,-15.77108956608118,-16.480240042283572,-17.189390518485187,-17.898540994686069,-18.607691470886152,-19.31684194708545,-20.025992423284,-20.735142899481776,-21.444293375678768,-22.153443851874989,-22.862594328070479,-23.57174480426518,-24.2808952804591,-24.990045756652226,-25.699196232844606,-26.408346709036245,-27.117497185227045,-27.826647661417159,-28.535798137606445,0,0.016714815938758013,0.044272422693806671,0.088891793648924577,0.154755172702626,0.24223005611321974,0.35141652417456537,0.48223600040221454,0.63441168189985708,0.80738683609898187,0.93577766001481844,1.2342018843127447
DP 125,249.4129894727001,0.0014765287625872312,-23.931523513796289,-23.42216740615839,-22.912811298519756,-22.403455190880393,-21.894099083240292,-21.38474297559948,-20.875386867957904,-20.366030760315613,-19.856674652672577,-19.34731854502882,-18.83796243738432,-18.32860632973911,-17.819250222093135,-17.309894114446433,-16.800538006799012,-16.291181899150871,-15.781825791501962,-15.272469683852334,-14.763113576201976,-14.253757468550877,-13.748484672425013,-13.27996206600411,-12.811439459582475,-12.342916853160105,-11.874394246736989,-11.405871640313141,-10.93734903388855,-10.468826427463227,-10.00030382103717,-9.5317812146103673,-9.0632586081828386,-8.5947360017545673,-8.1262133953255571,-7.6576907888958106,-7.1891681824653375,-6.7206455760341051,-6.2521229696021523,-5.7836003631694535,-5.3150777567360237,-4.846555150301854,-4.3945575671953074,-4.0086608583970751,-3.6227641495980909,-3.2368674407983624,-2.8509707319978923,-2.465074023196673,-2.0791773143947068,-1.6932806055919982,-1.3073838967885434,-0.92148718798434393,-0.53559047917939573,-0.14969377037369985,0.236202938432739,0.62209964723992417,1.0079963560478555,1.3938930648565326,1.779789773665956,2.1656864824761213,2.5515831912870315,2.9374799000986909,3.2880340698582038,3.5561212016079948,3.8242083333585533,4.0922954651098591,4.3603825968619265,4.6284697286147534,4.8965568603683369,5.1646439921226772,5.4327311238777769,5.7008182556336315,5.9689053873902438,6.2369925191476128,6.505079650905742,6.7731667826646316,7.0412539144242743,7.3093410461846728,7.5774281779458343,7.8455153097077535,8.1136024414704284,8.3816895732338583,8.5910935571029,8.712471432409961,8.8338493077177755,8.9552271830263734,9.0766050583357369,9.1979829336458678,9.3193608089567661,9.4407386842684247,9.562116559580863,9.6834944348940741,9.804872310208042,9.9262501855227754,10.047628060838292,10.16900593615456,10.290383811471605,10.411761686789434,10.533139562108,10.65451743742736,10.775895312747473,10.89727318806837,10.839361294152214,10.791920642383328,10.744479990615226,10.697039338847903,10.649598687081362,10.602158035315595,10.554717383550619,10.507276731786412,10.459836080022985,10.412395428260341,10.364954776498472,10.317514124737389,10.27007347297708,10.222632821217557,10.175192169458812,10.127751517700847,10.080310865943655,10.032870214187247,9.8747581654506309,9.6428634419086539,9.4109687183675135,9.1790739948271636,8.9471792712876272,8.7152845477489,8.4833898242109953,8.2514951006738855,8.0196003771376,7.78770565360212,7.5558109300674587,7.3239162065336032,7.0920214830005666,6.8601267594683435,6.6282320359369153,6.3963373124063088,6.1644425888765157,5.9325478653475283,5.7006531418193589,5.4687584182920022,5.1005953024250923,4.6740296069362284,4.247463911448162,3.8208982159609035,3.3943325204744275,2.967766824988773,2.5412011295039143,2.1146354340198386,1.6880697385365824,1.2615040430541122,0.83493834757245122,0.40837265209158491,-0.018193043388473832,-0.44475873886774653,-0.87132443434620244,-1.2978901298238703,-1.7244558253007307,-2.1510215207767898,-2.5775872162520561,-3.0041529117265191,-3.5911877296751498,-4.2183417242214425,-4.8454957187668954,-5.4726497133114824,-6.0998037078552256,-6.7269577023981046,-7.3541116969401434,-7.9812656914813154,-8.6084196860216338,-9.2355736805611119,-9.8627276750997268,-10.489881669637489,-11.117035664174377,-11.744189658710456,-12.371343653245654,-12.998497647779985,-13.625651642313473,-14.252805636846126,-14.879959631377911,-15.507113625908824,-16.317546564200974,-17.14834575445,-17.979144944698167,-18.809944134945439,-19.640743325191849,-20.471542515437388,-21.302341705682068,-22.133140895925841,-22.9639400861688,-23.794739276410862,-24.62553846665207,-25.456337656892419,-26.28713684713189,-27.117936037370466,-27.948735227608172,-28.779534417845024,-29.610333608081021,-30.441132798316076,-31.271931988550385,-32.102731178783721,0,0.017439725175040707,0.04842178050762358,0.099816036476354786,0.17584124725278186,0.276939349408256,0.40324941678565684,0.55468410518858113,0.73091065047703407,0.93125905234869577,1.0800647917996944,1.4254709310734619
DP 126,175.01882577429831,0.0050273667140097941,-65.223812724515085,-63.933522883556734,-62.643233042596634,-61.35294320163456,-60.062653360670609,-58.772363519704747,-57.482073678736967,-56.191783837767375,-54.901493996795786,-53.611204155822392,-52.320914314847073,-51.030624473869807,-49.740334632890637,-48.450044791909676,-47.15975495092674,-45.869465109941913,-44.579175268955211,-43.288885427966576,-41.99859558697613,-40.708305745983687,-39.427668041822223,-38.233900481515633,-37.040132921207189,-35.846365360896804,-34.652597800584481,-33.45883024027026,-32.2650626799541,-31.07129511963603,-29.877527559316057,-28.683759998994152,-27.489992438670324,-26.296224878344567,-25.102457318016921,-23.908689757687323,-22.714922197355818,-21.521154637022395,-20.32738707668706,-19.133619516349807,-17.939851956010639,-16.74608439566952,-15.591869514773739,-14.595867220979603,-13.599864927183484,-12.603862633385392,-11.607860339585338,-10.611858045783286,-9.6158557519792609,-8.6198534581732567,-7.6238511643652789,-6.627848870555316,-5.6318465767433725,-4.6358442829294484,-3.6398419891135463,-2.6438396952956671,-1.6478374014758079,-0.65183510765396935,0.34416718616984748,1.3401694799956372,2.3361717738234042,3.3321740676531526,4.2418591421321441,4.9501346518202105,5.6584101615102949,6.3666856712023918,7.0749611808964969,7.7832366905926262,8.4915122002907566,9.1997877099909164,9.90806321969308,10.616338729397269,11.32461423910345,12.032889748811659,12.741165258521885,13.449440768234135,14.157716277948381,14.865991787664637,15.574267297382926,16.282542807103216,16.990818316825532,17.699093826549841,18.260244238703955,18.600703527842331,18.941162816982793,19.2816221061253,19.62208139526992,19.962540684416584,20.30299997356531,20.64345926271611,20.983918551868989,21.324377841023956,21.664837130180949,22.005296419340045,22.345755708501194,22.686214997664429,23.026674286829721,23.367133575997084,23.707592865166518,24.04805215433802,24.388511443511607,24.72897073268723,24.659692491179754,24.56388851202016,24.468084532862679,24.372280553707313,24.276476574554067,24.18067259540291,24.084868616253935,23.989064637107,23.893260657962191,23.797456678819515,23.701652699678956,23.605848720540504,23.51004474140418,23.414240762269944,23.318436783137841,23.222632804007848,23.126828824879986,23.031024845754214,22.640049270194634,22.052287980297841,21.464526690403265,20.876765400510894,20.289004110620766,19.701242820732844,19.113481530847196,18.52572024096375,17.937958951082543,17.350197661203548,16.762436371326793,16.174675081452285,15.586913791579999,14.999152501709927,14.411391211842075,13.823629921976481,13.23586863211308,12.648107342251928,12.06034605239301,11.472584762536332,10.510399399651321,9.38774152100548,8.2650836423618319,7.14242576372039,6.0197678850811265,4.8971100064441044,3.7744521278092726,2.6517942491766018,1.5291363705461762,0.40647849191791308,-0.71617938670812442,-1.838837265331974,-2.9614951439536057,-4.0841530225730738,-5.2068109011902957,-6.3294687798053522,-7.4521266584181909,-8.5747845370288189,-9.69744241563727,-10.820100294243503,-12.394612589697564,-14.082093828126128,-15.769575066552322,-17.457056304976138,-19.144537543397572,-20.832018781816615,-22.519500020233295,-24.206981258647573,-25.894462497059454,-27.581943735469029,-29.269424973876127,-30.956906212280895,-32.644387450683247,-34.331868689083272,-36.019349927480832,-37.70683116587611,-39.394312404268931,-41.081793642659413,-42.769274881047451,-44.456756119433194,-46.668747468985721,-48.939023228404167,-51.209298987820269,-53.479574747233741,-55.749850506644883,-58.020126266053552,-60.290402025459812,-62.560677784863614,-64.830953544265014,-67.101229303663914,-69.371505063060468,-71.641780822454564,-73.912056581846187,-76.18233234123538,-78.452608100622172,-80.722883860006533,-82.993159619388464,-85.263435378767767,-87.533711138144952,-89.80398689751938,0,0.051395378392913,0.13847895604700949,0.28068953962731108,0.49075996697084528,0.76987561225159951,1.1183782762098338,1.5360204965846984,2.0219061175562407,2.5742321247362208,2.98430898818368,3.9370382998558409
DP 127,202.93538775808997,0.0021664960947321336,-30.841644863866005,-30.211471823426777,-29.581298782986657,-28.9511257425456,-28.320952702103597,-27.69077966166066,-27.060606621216809,-26.430433580772029,-25.800260540326317,-25.170087499879664,-24.539914459432087,-23.909741418983572,-23.279568378534137,-22.649395338083785,-22.019222297632496,-21.389049257180265,-20.758876216727092,-20.128703176273007,-19.49853013581799,-18.868357095362025,-18.243004708033769,-17.661038654531033,-17.079072601027356,-16.49710654752273,-15.915140494017169,-15.333174440510678,-14.751208387003238,-14.169242333494864,-13.587276279985549,-13.005310226475295,-12.423344172964113,-11.84137811945198,-11.259412065938914,-10.677446012424905,-10.095479958909964,-9.5135139053940829,-8.9315478518772622,-8.3495817983595,-7.7676157448408,-7.1856496913211663,-6.6233585365882588,-6.139767906868161,-5.6561772771471164,-5.1725866474251081,-4.6889960177021468,-4.2054053879782165,-3.7218147582533372,-3.2382241285274977,-2.7546334988006995,-2.2710428690729443,-1.7874522393442271,-1.3038616096145492,-0.820270979883916,-0.33668035015232273,0.1469102795802282,0.63050090931373826,1.1140915390482058,1.5976821687836305,2.08127279852001,2.5648634282573535,3.0057972502984249,3.3471971770391753,3.6885971037809027,4.0299970305236013,4.3713969572672742,4.7127968840119214,5.0541968107575448,5.3955967375041451,5.7369966642517118,6.0783965910002626,6.41979651774979,6.7611964445002792,7.10259637125175,7.4439962980041994,7.7853962247576192,8.1267961515120142,8.4681960782673826,8.8095960050237334,9.1509959317810541,9.4923958585393482,9.7616949857173658,9.9228412097368519,10.083987433757342,10.245133657778814,10.406279881801295,10.567426105824763,10.728572329849232,10.889718553874689,11.050864777901145,11.212011001928595,11.373157225957044,11.534303449986488,11.695449674016919,11.856595898048349,12.017742122080779,12.178888346114201,12.340034570148624,12.501180794184021,12.662327018220443,12.823473242257842,12.777515074606747,12.726902162424761,12.676289250243817,12.625676338063858,12.575063425884929,12.524450513707,12.473837601530104,12.423224689354198,12.372611777179314,12.321998865005456,12.271385952832599,12.220773040660745,12.170160128489927,12.119547216320107,12.068934304151307,12.018321391983523,11.967708479816746,11.917095567650982,11.724609772552498,11.437539820474463,11.150469868397503,10.863399916321589,10.576329964246748,10.289260012172953,10.002190060100235,9.7151201080285681,9.4280501559579637,9.1409802038884234,8.8539102518199471,8.56684029975253,8.2797703476861688,7.9927003956208846,7.7056304435566414,7.4185604914934755,7.1314905394313639,6.8444205873703119,6.55735063531033,6.2702806832514089,5.8048816436831689,5.2630534443269417,4.721225244971742,4.1793970456176055,3.6375688462644975,3.0957406469124669,2.553912447561467,2.0120842482115,1.470256048862604,0.92842784951473434,0.38659965016792497,-0.15522854917784276,-0.69705674852255484,-1.2388849478662369,-1.7807131472088511,-2.3225413465504325,-2.8643695458909604,-3.4061977452304348,-3.9480259445688737,-4.4898541439062605,-5.2453034785088963,-6.0541606209100847,-6.8630177633101486,-7.6718749057090765,-8.48073204810689,-9.2895891905035715,-10.09844633289914,-10.90730347529356,-11.716160617686866,-12.525017760079081,-13.333874902470118,-14.142732044860047,-14.951589187248821,-15.76044632963653,-16.569303472023059,-17.37816061440849,-18.187017756792791,-18.995874899175952,-19.804732041558012,-20.613589183938931,-21.66921642518944,-22.752265157997385,-23.835313890804219,-24.918362623609859,-26.001411356414355,-27.084460089217711,-28.167508822019922,-29.250557554820947,-30.333606287620867,-31.416655020419633,-32.499703753217254,-33.582752486013725,-34.665801218808987,-35.748849951603169,-36.831898684396187,-37.914947417188053,-38.997996149978789,-40.081044882768325,-41.16409361555678,-42.247142348344006,0,0.023635079958914795,0.064654445988162071,0.13215902599080293,0.23194183650338712,0.364573620133977,0.53022671138335087,0.72878493845493986,0.9598171926400263,1.222455580015567,1.4174932567121241,1.8704272318266795
DP 128,164.97641289691472,0.0030670525568379449,-38.319000881503079,-37.571524950921244,-36.824049020338322,-36.07657308975427,-35.329097159169159,-34.581621228582939,-33.83414529799564,-33.086669367407268,-32.339193436817773,-31.591717506227198,-30.844241575635564,-30.096765645042812,-29.349289714448982,-28.601813783854062,-27.854337853258013,-27.106861922660912,-26.359385992062712,-25.611910061463416,-24.864434130863028,-24.116958200261564,-23.375036431076158,-22.683102639647416,-21.99116884821759,-21.299235056786642,-20.607301265354579,-19.915367473921417,-19.223433682487144,-18.531499891051777,-17.8395660996153,-17.14763230817772,-16.45569851673903,-15.763764725299232,-15.071830933858338,-14.379897142416318,-13.687963350973227,-12.996029559528996,-12.304095768083679,-11.612161976637251,-10.920228185189707,-10.228294393741066,-9.5591485810706018,-8.9811557605077184,-8.4031629399436785,-7.8251701193784982,-7.2471772988121783,-6.66918447824471,-6.0911916576760934,-5.5131988371063336,-4.935206016535429,-4.3572131959633795,-3.779220375390179,-3.201227554815834,-2.6232347342403473,-2.0452419136637108,-1.4672490930859294,-0.88925627250700257,-0.31126345192693,0.26672936865428554,0.84472218923664433,1.4227150098201513,1.9508799665807208,2.3627783378033742,2.7746767090272035,3.1865750802521879,3.5984734514783416,4.0103718227056664,4.4222701939341551,4.83416856516381,5.2460669363946293,5.6579653076266192,6.0698636788597682,6.4817620500940931,6.8936604213295789,7.3055587925662344,7.717457163804057,8.1293555350430378,8.5412539062831936,8.9531522775245129,9.3650506487670011,9.7769490200106564,10.103703626961309,10.302740575470718,10.501777523981312,10.700814472493134,10.899851421006151,11.098888369520367,11.29792531803578,11.496962266552416,11.695999215070239,11.895036163589257,12.0940731121095,12.29311006063095,12.492147009153564,12.69118395767741,12.890220906202449,13.089257854728697,13.288294803256148,13.487331751784799,13.686368700314652,13.885405648845701,13.84956247533219,13.795417337599725,13.741272199868471,13.68712706213846,13.632981924409684,13.57883678668213,13.524691648955811,13.470546511230724,13.416401373506853,13.362256235784237,13.308111098062822,13.25396596034267,13.199820822623725,13.145675684906022,13.091530547189551,13.037385409474304,12.98324027176028,12.929095134047497,12.703158435277642,12.362691322781794,12.022224210287247,11.681757097793984,11.341289985302033,11.000822872811368,10.660355760322018,10.319888647833965,9.9794215353472175,9.6389544228617545,9.2984873103776184,8.9580201978947578,8.617553085413217,8.2770859729329747,7.9366188604540246,7.5961517479763794,7.2556846355000246,6.9152175230249791,6.5747504105512427,6.2342832980788,5.6753214513582044,5.0227160538858744,4.3701106564148287,3.7175052589450721,3.0648998614765861,2.4122944640094044,1.7596890665435039,1.1070836690788641,0.45447827161553628,-0.19812712584652972,-0.85073252330729576,-1.5033379207667861,-2.15594331822498,-2.8085487156819093,-3.4611541131375314,-4.1137595105918878,-4.7663649080449453,-5.4189703054967193,-6.07157570294722,-6.7241811003964269,-7.6410243280744172,-8.6239301353395614,-9.6068359426033272,-10.589741749865693,-11.57264755712667,-12.555553364386242,-13.538459171644435,-14.521364978901211,-15.504270786156603,-16.487176593410616,-17.470082400663209,-18.452988207914412,-19.435894015164205,-20.418799822412645,-21.401705629659634,-22.384611436905278,-23.367517244149504,-24.350423051392344,-25.333328858633767,-26.316234665873832,-27.606289054406659,-28.930474288886337,-30.254659523364616,-31.578844757841395,-32.903029992316782,-34.227215226790726,-35.551400461263249,-36.8755856957343,-38.199770930203975,-39.523956164672207,-40.848141399139,-42.172326633604449,-43.496511868068367,-44.820697102530914,-46.144882336991991,-47.469067571451632,-48.793252805909908,-50.117438040366672,-51.441623274822071,-52.765808509275992,0,0.030508286734705351,0.0815938192354512,0.16470921114699591,0.28744706273563753,0.45049614903226026,0.6540504098370481,0.89796441516721071,1.1817179455377493,1.5042644367156444,1.7437130242235808,2.3001338834329026
DP 129,149.90879835061074,0.00409035213470864,-48.010522294541225,-47.096752275364373,-46.182982256186179,-45.269212237006691,-44.35544221782591,-43.441672198643779,-42.527902179460355,-41.614132160275616,-40.70036214108957,-39.786592121902245,-38.872822102713556,-37.959052083523588,-37.0452820643323,-36.131512045139708,-35.217742025945796,-34.303972006750591,-33.390201987554072,-32.476431968356216,-31.562661949157096,-30.648891929956637,-29.741853963314515,-28.895405106050827,-28.048956248785782,-27.202507391519408,-26.35605853425167,-25.509609676982635,-24.663160819712246,-23.816711962440522,-22.970263105167465,-22.1238142478931,-21.277365390617394,-20.43091653334033,-19.584467676061966,-18.738018818782248,-17.891569961501222,-17.045121104218833,-16.198672246935132,-15.352223389650087,-14.505774532363722,-13.659325675076033,-12.840538813006727,-12.132401239159432,-11.424263665310743,-10.716126091460653,-10.007988517609181,-9.299850943756315,-8.59171336990206,-7.8835757960464043,-7.1754382221893573,-6.4673006483309274,-5.7591630744710942,-5.0510255006098683,-4.3428879267472489,-3.6347503528832403,-2.9266127790178369,-2.2184752051510386,-1.5103376312828498,-0.802200057413273,-0.09406248354230437,0.61407509033005891,1.2615727895600626,1.7675755373474726,2.2735782851363093,2.7795810329265653,3.2855837807182344,3.7915865285113215,4.2975892763058336,4.8035920241017624,5.3095947718991132,5.8155975196978789,6.321600267498062,6.8276030152996627,7.3336057631026916,7.8396085109071354,8.345611258713,8.85161400652028,9.3576167543289888,9.8636195021391071,10.36962224995065,10.875624997763598,11.277685131766852,11.523828888824923,11.769972645884462,12.016116402945483,12.262260160007969,12.508403917071952,12.754547674137378,13.000691431204277,13.246835188272653,13.492978945342511,13.739122702413834,13.985266459486624,14.231410216560894,14.477553973636635,14.723697730713829,14.969841487792525,15.215985244872661,15.462129001954288,15.7082727590374,15.95441651612196,15.917351764214271,15.85329652562743,15.78924128704209,15.725186048458266,15.661130809875967,15.597075571295164,15.533020332715871,15.468965094138083,15.404909855561835,15.34085461698707,15.276799378413838,15.212744139842103,15.148688901271891,15.084633662703162,15.020578424135968,14.956523185570278,14.892467947006084,14.82841270844342,14.553116900777031,14.136990719218598,13.720864537661784,13.304738356106562,12.888612174552959,12.472485993000923,12.056359811450545,11.640233629901742,11.224107448354548,10.807981266808946,10.391855085264975,9.9757289037225974,9.5596027221818254,9.1434765406426664,8.7273503591050936,8.311224177569148,7.8950979960347842,7.4789718145020485,7.0628456329709088,6.6467194514413812,5.9610312144789352,5.1598127424033455,4.358594270329343,3.5573757982569285,2.7561573261860803,1.954938854116852,1.1537203820492006,0.35250190998310621,-0.44871656208136851,-1.2499350341442834,-2.0511535062055972,-2.8523719782653321,-3.6535904503234677,-4.4548089223800407,-5.2560273944350007,-6.0572458664883966,-6.8584643385401955,-7.6596828105904038,-8.4609012826390373,-9.262119754686081,-10.390201462186804,-11.600002840514296,-12.809804218840082,-14.019605597164118,-15.229406975486418,-16.43920835380699,-17.649009732125833,-18.858811110442925,-20.068612488758312,-21.278413867071983,-22.48821524538387,-23.698016623694063,-24.907818002002461,-26.117619380309193,-27.327420758614149,-28.537222136917393,-29.747023515218906,-30.9568248935187,-32.166626271816746,-33.376427650113051,-34.966829356781084,-36.599523986047942,-38.232218615313052,-39.86491324457635,-41.497607873837921,-43.130302503097674,-44.76299713235565,-46.395691761611808,-48.028386390866288,-49.661081020118893,-51.293775649369749,-52.926470278618872,-54.559164907866204,-56.191859537111746,-57.824554166355483,-59.457248795597458,-61.089943424837706,-62.722638054075993,-64.355332683312739,-65.988027312547572,0,0.038874589600928072,0.10252352060615086,0.20535710026004492,0.3571238576074634,0.55866880148447073,0.81021862846548709,1.1115917266870246,1.4621528333220113,1.8606238339664707,2.1563664774804416,2.84384864071203
DP 130,305.72258569828909,0.00229578371694548,-42.565435780063005,-41.624331018646231,-40.68322625722822,-39.742121495808881,-38.801016734388305,-37.859911972966486,-36.918807211543395,-35.97770245011899,-35.03659768869332,-34.095492927266356,-33.154388165838157,-32.213283404408713,-31.272178642977966,-30.331073881545912,-29.389969120112646,-28.448864358678097,-27.507759597242252,-26.566654835805142,-25.625550074366767,-24.684445312927121,-23.751389196460217,-22.890771645550906,-22.030154094640345,-21.16953654372848,-20.30891899281535,-19.448301441900938,-18.587683890985254,-17.727066340068276,-16.866448789150052,-16.005831238230524,-15.145213687309749,-14.284596136387675,-13.423978585464345,-12.563361034539717,-11.702743483613837,-10.842125932686674,-9.9815083817582178,-9.1208908308285022,-8.260273279897504,-7.3996557289652429,-6.5712382735440036,-5.8716227219920407,-5.1720071704387953,-4.4723916188842727,-3.7727760673284694,-3.0731605157713844,-2.3735449642130138,-1.673929412653361,-0.97431386109243212,-0.27469830953021945,0.42491724203327763,1.1245327935980625,1.8241483451641232,2.5237638967314706,3.2233794483000966,3.9229949998700051,4.6226105514411939,5.3222261030136657,6.0218416545874138,6.7214572061624454,7.3534928379512445,7.8278398609653488,8.30218688398077,8.7765339069974715,9.2508809300154891,9.7252279530348016,10.199574976055413,10.673921999077338,11.148269022100555,11.622616045125076,12.096963068150899,12.571310091178017,13.045657114206437,13.520004137236175,13.994351160267192,14.468698183299523,14.943045206333146,15.417392229368085,15.891739252404319,16.366086275441859,16.731014472523714,16.9318118450351,17.1326092175478,17.333406590061838,17.534203962577163,17.735001335093802,17.935798707611756,18.136596080131042,18.337393452651629,18.538190825173523,18.738988197696724,18.939785570221261,19.140582942747116,19.341380315274275,19.542177687802724,19.74297506033253,19.943772432863639,20.144569805396035,20.345367177929752,20.546164550464788,20.384965799220026,20.280326246810333,20.175686694401957,20.071047141994914,19.966407589589195,19.86176803718481,19.757128484781763,19.652488932380034,19.547849379979649,19.443209827580596,19.338570275182843,19.233930722786436,19.129291170391369,19.024651617997613,18.920012065605192,18.815372513214108,18.710732960824355,18.606093408435928,18.30767266906858,17.880061418942439,17.452450168817691,17.024838918694293,16.597227668572295,16.169616418451643,15.742005168332401,15.314393918214517,14.886782668098009,14.459171417982917,14.03156016786917,13.603948917756801,13.176337667645814,12.748726417536224,12.32111516742798,11.893503917321134,11.465892667215648,11.038281417111563,10.610670167008836,10.183058916907502,9.5244189817583145,8.76676363341014,8.0091082850633111,7.2514529367178451,6.4937975883737264,5.7361422400309907,4.9784868916896032,4.2208315433495551,3.4631761950108872,2.7055208466735587,1.947865498337602,1.1902101500029953,0.43255480166975824,-0.32510054666214633,-1.0827558949926628,-1.8404112433218429,-2.598066591649653,-3.3557219399761045,-4.1133772883012067,-4.8710326366249488,-5.8933211899830917,-6.9817711713012285,-8.0702211526179219,-9.158671133933181,-10.247121115247001,-11.335571096559381,-12.424021077870316,-13.512471059179799,-14.600921040487856,-15.689371021794498,-16.777821003099639,-17.866270984403378,-18.954720965705633,-20.043170947006494,-21.131620928305903,-22.220070909603859,-23.308520890900382,-24.396970872195457,-25.485420853489103,-26.573870834781296,-27.95891856750902,-29.376924720945677,-30.794930874380903,-32.212937027814576,-33.630943181246842,-35.048949334677651,-36.46695548810699,-37.8849616415348,-39.302967794961241,-40.720973948386138,-42.138980101809622,-43.556986255231642,-44.974992408652142,-46.392998562071277,-47.811004715488835,-49.229010868905078,-50.64701702231973,-52.065023175732932,-53.48302932914477,-54.901035482554946,0,0.028885319010074843,0.080991095144231876,0.16792134638072689,0.29658868837710545,0.46775017295673965,0.68165012880229647,0.93814203303208832,1.2366577104013776,1.5760527334274235,1.8281544034046342,2.4131226462356765
DP 131,139.64730227047357,0.001866099458153594,-20.885599936756503,-20.495963304301725,-20.106326671846411,-19.71669003939056,-19.327053406934127,-18.937416774477157,-18.547780142019661,-18.158143509561604,-17.76850687710299,-17.378870244643835,-16.989233612184155,-16.599596979723902,-16.209960347263081,-15.82032371480175,-15.430687082339867,-15.041050449877421,-14.651413817414431,-14.261777184950894,-13.872140552486801,-13.48250392002217,-13.0957240719308,-12.7346555532387,-12.373587034546036,-12.012518515852827,-11.651449997159055,-11.290381478464727,-10.929312959769826,-10.568244441074377,-10.207175922378367,-9.8461074036817919,-9.48503888498466,-9.1239703662869758,-8.7629018475887275,-8.4018333288899161,-8.04076481019055,-7.6796962914906235,-7.3186277727901361,-6.9575592540890963,-6.5964907353874853,-6.2354222166853281,-5.8861023326610367,-5.5837775426067431,-5.2814527525518615,-4.9791279624963849,-4.67680317244032,-4.3744783823836686,-4.0721535923264272,-3.769828802268596,-3.46750401221018,-3.1651792221511679,-2.86285443209157,-2.5605296420313794,-2.2582048519705986,-1.9558800619092322,-1.6535552718472757,-1.351230481784728,-1.0489056917215929,-0.74658090165786983,-0.44425611159355749,-0.1419313215286557,0.13460215673212625,0.35095509483039,0.56730803292925769,0.78366097102872412,1.0000139091287921,1.2163668472294624,1.4327197853307305,1.6490727234326019,1.8654256615350739,2.0817785996381466,2.2981315377418183,2.5144844758460909,2.730837413950967,2.9471903520564418,3.1635432901625213,3.3798962282691978,3.5962491663764791,3.8126021044843612,4.0289550425928384,4.2453079807019209,4.4173739618604282,4.5230084610638874,4.62864296026797,4.7342774594726835,4.8399119586780275,4.9455464578839932,5.0511809570905868,5.1568154562978057,5.2624499555056508,5.3680844547141247,5.4737189539232221,5.5793534531329456,5.6849879523433016,5.7906224515542766,5.8962569507658849,6.0018914499781157,6.1075259491909746,6.21316044840446,6.318794947618577,6.42442944683332,6.4102613185199369,6.3834669170051983,6.3566725154911055,6.3298781139776583,6.3030837124648551,6.2762893109526949,6.2494949094411805,6.2227005079303188,6.1959061064200922,6.1691117049105095,6.1423173034015752,6.1155229018932937,6.0887285003856393,6.061934098878643,6.0351396973722879,6.0083452958665768,5.9815508943615141,5.9547564928570962,5.837598884114195,5.6601977136564656,5.4827965431994334,5.3053953727430807,5.127994202287419,4.9505930318324376,4.7731918613781517,4.5957906909245576,4.4183895204716448,4.240988350019423,4.0635871795678939,3.8861860091170479,3.7087848386668889,3.5313836682174231,3.3539824977686403,3.1765813273205485,2.9991801568731424,2.8217789864264264,2.6443778159804,2.4669766455350643,2.1740507571577949,1.8316127154375028,1.4891746737178861,1.1467366319989567,0.80429859028069706,0.46186054856313136,0.11942250684624178,-0.22301553486997905,-0.56545357658550532,-0.9078916183003638,-1.2503296600145342,-1.5927677017280264,-1.9352057434408347,-2.2776437851529727,-2.6200818268644182,-2.9625198685751917,-3.3049579102852826,-3.6473959519946888,-3.9898339937034208,-4.3322720354114672,-4.8149939491659195,-5.3327884884177648,-5.8505830276688764,-6.368377566919226,-6.8861721061688392,-7.403966645417702,-7.9217611846658222,-8.4395557239131946,-8.9573502631598121,-9.4751448024056941,-9.99293934165081,-10.510733880895199,-11.028528420138816,-11.546322959381714,-12.064117498623848,-12.581912037865232,-13.099706577105868,-13.617501116345792,-14.135295655584933,-14.653090194823342,-15.334387792166275,-16.033854113142944,-16.73332043411887,-17.432786755093979,-18.132253076068341,-18.83171939704194,-19.531185718014768,-20.230652038986804,-20.930118359958115,-21.629584680928627,-22.329051001898396,-23.028517322867405,-23.727983643835614,-24.42744996480306,-25.126916285769742,-25.826382606735674,-26.525848927700814,-27.225315248665215,-27.924781569628834,-28.624247890591651,0,0.017137021985664719,0.04464903106285123,0.088826651149041952,0.15399220826522747,0.2405070572402469,0.34846384134346864,0.47778396878696311,0.62819786015809076,0.79916269586615529,0.92602252666993035,1.2210091665438882
DP 132,141.05783994746972,0.0053956005015671268,-60.801646791451681,-59.664003143625358,-58.526359495797507,-57.388715847968022,-56.251072200136875,-55.113428552304136,-53.975784904469819,-52.8381412566339,-51.7004976087964,-50.56285396095722,-49.425210313116473,-48.287566665274113,-47.149923017430162,-46.01227936958459,-44.874635721737427,-43.736992073888629,-42.599348426038254,-41.461704778186267,-40.324061130332687,-39.186417482477509,-38.057120495591725,-37.002944246406109,-35.948767997218859,-34.894591748029939,-33.840415498839384,-32.786239249647252,-31.732063000453422,-30.677886751257944,-29.623710502060874,-28.569534252862152,-27.515358003661778,-26.461181754459808,-25.407005505256166,-24.352829256050889,-23.298653006843978,-22.244476757635418,-21.190300508425246,-20.136124259213421,-19.081948009999966,-18.027771760784876,-17.007915564622646,-16.125341202690205,-15.24276684075603,-14.360192478820148,-13.477618116882537,-12.595043754943212,-11.712469393002147,-10.829895031059371,-9.947320669114875,-9.0647463071686545,-8.1821719452206967,-7.2995975832710229,-6.41702322131963,-5.5344488593665124,-4.6518744974116668,-3.769300135455103,-2.8867257734968179,-2.0041514115368124,-1.1215770495750872,-0.23900268761163454,0.568242863399498,1.199718815433261,1.831194767468787,2.4626707195060669,3.0941466715450985,3.7256226235858931,4.3570985756284406,4.9885745276727489,5.6200504797188042,6.2515264317666324,6.8830023838161987,7.51447833586753,8.1459542879206168,8.7774302399754571,9.4089061920320578,10.040382144090417,10.671858096150533,11.303334048212417,11.934810000276036,12.566285952341406,13.068442280481481,13.376616116827954,13.684789953176253,13.992963789526385,14.301137625878349,14.609311462232133,14.917485298587746,15.225659134945209,15.533832971304475,15.842006807665598,16.150180644028538,16.458354480393297,16.766528316759914,17.074702153128328,17.382875989498597,17.691049825870692,17.99922366224461,18.307397498620372,18.615571334997952,18.923745171377359,18.881765893944447,18.803338684856495,18.724911475770398,18.646484266686183,18.568057057603873,18.489629848523446,18.411202639444888,18.332775430368187,18.254348221293434,18.175921012220506,18.097493803149476,18.01906659408036,17.940639385013082,17.862212175947707,17.783784966884202,17.705357757822597,17.626930548762882,17.548503339705036,17.206344166880246,16.688359530120383,16.170374893362517,15.652390256606644,15.1344056198528,14.616420983100943,14.098436346351111,13.580451709603281,13.062467072857462,12.544482436113649,12.026497799371858,11.50851316263207,10.99052852589428,10.472543889158507,9.9545592524247315,9.4365746156929742,8.9185899789632064,8.4006053422354654,7.8826207055097406,7.3646360687860071,6.509564924113632,5.5100235814594472,4.51048223880723,3.5109408961570123,2.5113995535087552,1.5118582108625211,0.51231686821826139,-0.48722447442404881,-1.4867658170643323,-2.486307159702668,-3.4858485023389929,-4.4853898449733443,-5.4849311876056994,-6.4844725302360979,-7.4840138728644758,-8.4835552154908935,-9.4830965581153137,-10.482637900737743,-11.482179243358207,-12.481720585976669,-13.890519792143259,-15.401638299671452,-16.912756807197482,-18.423875314721332,-19.934993822243,-21.446112329762496,-22.957230837279816,-24.46834934479493,-25.979467852307902,-27.490586359818721,-29.001704867327284,-30.512823374833708,-32.023941882337922,-33.535060389840041,-35.046178897339921,-36.557297404837655,-38.06841591233313,-39.579534419826537,-41.090652927317663,-42.601771434806643,-44.589829515635451,-46.630885891410223,-48.671942267182772,-50.712998642953025,-52.754055018721047,-54.795111394486796,-56.836167770250405,-58.8772241460117,-60.918280521770782,-62.959336897527656,-65.000393273282214,-67.041449649034561,-69.082506024784792,-71.1235624005326,-73.164618776278346,-75.205675152021726,-77.24673152776289,-79.287787903501822,-81.328844279238567,-83.36990065497298,0,0.049791964352222384,0.12996547571410622,0.25882395375340317,0.44891563447254718,0.70129508131617158,1.0162345429357422,1.3935050109478671,1.8323187396834664,2.3310898264821356,2.7012025436569993,3.5617857934650035
DP 133,162.15657255222237,0.0032960364577167582,-40.725100946011771,-39.934056503662376,-39.143012061311829,-38.351967618960146,-37.560923176607268,-36.76987873425329,-35.978834291898096,-35.187789849541758,-34.396745407184319,-33.605700964825715,-32.81465652246596,-32.023612080105,-31.232567637742964,-30.441523195379734,-29.650478753015378,-28.859434310649856,-28.068389868283184,-27.277345425915378,-26.486300983546396,-25.695256541176278,-24.910079872586184,-24.177713722672941,-23.445347572758514,-22.712981422842951,-21.9806152729262,-21.248249123008289,-20.5158829730892,-19.783516823168938,-19.051150673247534,-18.318784523324954,-17.586418373401198,-16.85405222347627,-16.121686073550183,-15.389319923622917,-14.656953773694491,-13.924587623764904,-13.192221473834143,-12.459855323902206,-11.727489173969103,-10.995123024034845,-10.286838711846043,-9.6748828887837117,-9.0629270657201673,-8.4509712426554113,-7.8390154195894484,-7.2270595965222739,-6.61510377345389,-6.00314795038429,-5.3911921273134773,-4.77923630424146,-4.1672804811682216,-3.5553246580937765,-2.9433688350181155,-2.3314130119412457,-1.719457188863164,-1.1075013657838688,-0.49554554270336443,0.1164102803783489,0.728366103461273,1.340321926545412,1.8995935222545051,2.3359335941405814,2.7722736660278988,3.2086137379164428,3.6449538098062191,4.08129388169724,4.5176339535894865,4.9539740254829683,5.3903140973776846,5.8266541692736356,6.2629942411708219,6.6993343130692296,7.1356743849688868,7.5720144568697663,8.0083545287718909,8.444694600675243,8.88103467257983,9.3173747444856581,9.7537148163927156,10.190054888301,10.536313462483344,10.7474476613932,10.958581860304346,11.169716059216753,11.380850258130433,11.591984457045397,11.803118655961621,12.014252854879116,12.225387053797895,12.436521252717956,12.647655451639279,12.858789650561882,13.069923849485761,13.281058048410909,13.492192247337323,13.703326446265006,13.914460645193975,14.125594844124212,14.33672904305573,14.547863241988512,14.511114626398737,14.454187833628003,14.397261040858567,14.340334248090445,14.28340745532361,14.226480662558094,14.169553869793882,14.11262707703095,14.055700284269356,13.998773491509056,13.941846698750044,13.884919905992358,13.827993113235962,13.771066320480877,13.714139527727093,13.657212734974612,13.600285942223422,13.543359149473552,13.304409912750458,12.9441095125162,12.583809112283348,12.223508712051862,11.86320831182176,11.50290791159302,11.142607511365682,10.782307111139705,10.422006710915113,10.061706310691898,9.7014059104700756,9.341105510249621,8.9808051100305448,8.6205047098128613,8.26020430959654,7.8999039093816128,7.5396035091680478,7.179303108955863,6.8190027087450744,6.4587023085356572,5.8667379788057055,5.1754859796678314,4.4842339805313118,3.7929819813961623,3.1017299822623596,2.4104779831299457,1.7192259839988844,1.0279739848691625,0.33672198574083323,-0.35453001338616058,-1.0457820125117747,-1.7370340116360359,-2.4282860107589235,-3.1195380098804724,-3.8107900090006295,-4.5020420081194441,-5.1932940072368927,-5.8845460063529673,-6.5757980054676981,-7.2670500045810531,-8.2386192262406972,-9.2802710655485541,-10.321922904854938,-11.36357474415983,-12.405226583463254,-13.446878422765192,-14.488530262065668,-15.530182101364622,-16.571833940662106,-17.613485779958154,-18.655137619252656,-19.696789458545727,-20.738441297837291,-21.7800931371274,-22.821744976415992,-23.863396815703126,-24.905048654988754,-25.94670049427296,-26.988352333555639,-28.030004172836815,-29.397610245048082,-30.801436877559631,-32.205263510069649,-33.609090142578104,-35.012916775085074,-36.416743407590538,-37.82057004009441,-39.224396672596825,-40.628223305097741,-42.032049937597122,-43.435876570094955,-44.839703202591359,-46.243529835086179,-47.6473564675795,-49.05118310007127,-50.455009732561564,-51.85883636505028,-53.262662997537518,-54.666489630023364,-56.07031626250744,0,0.032521307348647166,0.086775057854027116,0.17494236722428055,0.3051277192841379,0.47806058271959695,0.69394476122869841,0.95262570561032966,1.2535527690772084,1.5956181187137741,1.8495475386247227,2.4396541084646617
DP 134,161.76363194700505,0.0026659615284014789,-32.888463084882453,-32.250021823661456,-31.611580562439524,-30.973139301216616,-30.334698039992865,-29.696256778768145,-29.0578155175425,-28.419374256315916,-27.780932995088403,-27.142491733859977,-26.504050472630613,-25.865609211400319,-25.22716795016909,-24.588726688936958,-23.950285427703879,-23.311844166469886,-22.673402905234941,-22.034961643999079,-21.396520382762287,-20.758079121524556,-20.124372870190292,-19.533282155567928,-18.942191440944612,-18.351100726320364,-17.760010011695169,-17.168919297069031,-16.577828582441956,-15.986737867813916,-15.395647153184962,-14.804556438555048,-14.213465723924203,-13.622375009292416,-13.031284294659677,-12.440193580025998,-11.849102865391382,-11.258012150755819,-10.666921436119319,-10.075830721481875,-9.4847400068434862,-8.8936492922041488,-8.32199026740986,-7.8280589203671918,-7.3341275733235456,-6.8401962262789278,-6.3462648792333329,-5.85233353218676,-5.3584021851392105,-4.86447083809068,-4.3705394910411757,-3.8766081439906892,-3.3826767969392266,-2.8887454498867813,-2.3948141028333625,-1.9008827557789651,-1.4069514087235884,-0.91302006166723459,-0.41908871460990371,0.074842632448402543,0.56877397950768538,1.062705326567948,1.5141210925362467,1.8663324963972614,2.2185439002592755,2.570755304122283,2.9229667079862818,3.2751781118512815,3.6273895157172795,3.9796009195842674,4.3318123234522545,4.6840237273212351,5.0362351311912139,5.3884465350621795,5.740657938934155,6.0928693428071217,6.4450807466810751,6.7972921505560393,7.1495035544319956,7.501714958308944,7.853926362186888,8.2061377660658223,8.485648599212082,8.6561068582982248,8.8265651173853943,8.9970233764735887,9.1674816355628188,9.3379398946530667,9.5083981537443538,9.6788564128366659,9.8493146719299887,10.019772931024361,10.190231190119759,10.360689449216174,10.531147708313627,10.701605967412096,10.872064226511606,11.042522485612142,11.212980744713684,11.383439003816287,11.553897262919905,11.724355522024544,11.69482638349737,11.648922667250243,11.603018951004168,11.557115234759129,11.51121151851517,11.465307802272251,11.419404086030386,11.373500369789571,11.327596653549806,11.2816929373111,11.235789221073432,11.189885504836841,11.143981788601282,11.098078072366793,11.052174356133337,11.00627063990094,10.960366923669595,10.914463207439317,10.721627908472243,10.4308359062963,10.140043904121468,9.8492519019477385,9.55845989977513,9.2676678976036264,8.97687589543325,8.6860838932639872,8.3952918910958214,8.1044998889287765,7.8137078867628516,7.5229158845980351,7.2321238824343324,6.94133188027175,6.6505398781102727,6.3597478759499095,6.0689558737906522,5.7781638716325263,5.4873718694755089,5.1965798673196044,4.7187679128415372,4.16080202487336,3.6028361369062796,3.0448702489403003,2.4869043609754096,1.9289384730116386,1.3709725850489605,0.81300669708736528,0.25504080912689231,-0.30292507883250125,-0.86089096679078192,-1.4188568547479696,-1.9768227427040495,-2.5347886306590457,-3.0927545186129231,-3.6507204065657124,-4.2086862945173991,-4.76665218246798,-5.3246180704174746,-5.8825839583658635,-6.6668639079987368,-7.5077250470047661,-8.3485861860096087,-9.1894473250132549,-10.030308464015709,-10.871169603016964,-11.712030742017042,-12.552891881015892,-13.393753020013547,-14.23461415901005,-15.075475298005307,-15.916336436999408,-16.757197575992258,-17.598058714983978,-18.438919853974461,-19.279780992963751,-20.120642131951858,-20.961503270938767,-21.802364409924493,-22.643225548909005,-23.74725911859878,-24.880536833425268,-26.013814548250533,-27.147092263074558,-28.280369977897347,-29.413647692718946,-30.546925407539284,-31.680203122358371,-32.813480837176279,-33.94675855199295,-35.080036266808428,-36.213313981622676,-37.346591696435667,-38.479869411247456,-39.613147126057981,-40.746424840867327,-41.879702555675429,-43.012980270482267,-44.146257985287974,-45.27953570009236,0,0.026274396590893624,0.070083273655555153,0.141264823590931,0.24636801279639536,0.38598162711618145,0.56027002131743742,0.76910833605035678,1.012052154420342,1.28820740755809,1.4932079709776667,1.969612782837781
DP 135,153.77446710033627,0.0010565761302483297,-12.611501716866009,-12.36983557118352,-12.128169425500666,-11.886503279817466,-11.644837134133923,-11.40317098845002,-11.161504842765778,-10.919838697081186,-10.678172551396246,-10.436506405710956,-10.194840260025316,-9.9531741143393351,-9.7115079686530077,-9.4698418229663215,-9.228175677279296,-8.9865095315919152,-8.7448433859041863,-8.503177240216111,-8.2615110945276928,-8.0198449488389212,-7.779962877640429,-7.5561376454956095,-7.3323124133504329,-7.10848718120491,-6.8846619490590273,-6.6608367169127964,-6.4370114847662023,-6.2131862526192618,-5.9893610204719625,-5.7655357883243088,-5.5417105561763051,-5.3178853240279453,-5.0940600918792347,-4.8702348597301652,-4.6464096275807449,-4.4225843954309694,-4.1987591632808412,-3.9749339311303604,-3.7511086989795221,-3.5272834668283313,-3.3107862633838812,-3.1236015211002823,-2.9364167788163162,-2.74923203653198,-2.5620472942472756,-2.3748625519622006,-2.1876778096767571,-2.0004930673909462,-1.8133083251047661,-1.6261235828182166,-1.4389388405312951,-1.2517540982440052,-1.0645693559563478,-0.87738461366832066,-0.690199871379925,-0.50301512909115942,-0.31583038680202535,-0.12864564451252289,0.058539097777347934,0.24572384006758863,0.41685405293562311,0.5505231913138714,0.68419232969249777,0.81786146807149818,0.95153060645087373,1.0851997448306274,1.2188688832107564,1.3525380215912619,1.4862071599721427,1.6198762983533996,1.7535454367350298,1.8872145751170397,2.0208837134994253,2.1545528518821864,2.2882219902653231,2.421891128648836,2.5555602670327255,2.6892294054169907,2.8228985438016321,2.95656768218665,3.0627376486767339,3.1276582075013537,3.1925787663263656,3.2574993251517639,3.3224198839775552,3.3873404428037337,3.4522610016303004,3.51718156045726,3.5821021192846052,3.6470226781123434,3.7119432369404683,3.7768637957689846,3.8417843545978871,3.9067049134271805,3.9716254722568634,4.0365460310869361,4.101466589917397,4.1663871487482487,4.2313077075794912,4.2962282664111191,4.2860023335953734,4.268927693697262,4.2518530537995511,4.2347784139022329,4.217703774005324,4.2006291341088087,4.1835544942126957,4.1664798543169805,4.1494052144216633,4.1323305745267405,4.1152559346322288,4.0981812947381124,4.081106654844386,4.064032014951068,4.0469573750581516,4.029882735165625,4.0128080952735079,3.995733455381786,3.9228677598407713,3.81280714828406,3.7027465367277776,3.5926859251719145,3.4826253136164782,3.3725647020614593,3.2625040905068681,3.1524434789527058,3.0423828673989579,2.9323222558456377,2.8222616442927437,2.7122010327402708,2.60214042118822,2.4920798096365968,2.3820191980853922,2.2719585865346152,2.1618979749842588,2.0518373634343283,1.9417767518848201,1.8317161403357398,1.6505174653810615,1.4388300883813476,1.2271427113820479,1.0154553343831716,0.80376795738470785,0.59208058038667055,0.38039320338904914,0.16870582639183895,-0.042981550604943582,-0.254668927601315,-0.46635630459726357,-0.67804368159279571,-0.88973105858790646,-1.1014184355826047,-1.3131058125768764,-1.5247931895707358,-1.7364805665641734,-1.9481679435571932,-2.1598553205497955,-2.3715426975419791,-2.6694372675233042,-2.9888846543094769,-3.3083320410951957,-3.6277794278804576,-3.9472268146652669,-4.2666742014496117,-4.586121588233512,-4.9055689750169424,-5.2250163617999243,-5.5444637485824515,-5.8639111353645115,-6.1833585221461282,-6.5028059089272725,-6.82225329570798,-7.1417006824882128,-7.4611480692679981,-7.7805954560473278,-8.1000428428262037,-8.4194902296046159,-8.7389376163825716,-9.1587231891234477,-9.58965850298724,-10.020593816850571,-10.451529130713407,-10.882464444575792,-11.313399758437713,-11.744335072299153,-12.175270386160129,-12.606205700020647,-13.03714101388068,-13.468076327740269,-13.899011641599374,-14.329946955457995,-14.760882269316182,-15.191817583173872,-15.622752897031122,-16.053688210887891,-16.48462352474418,-16.91555883860002,-17.346494152455367,0,0.010165218862022721,0.026915539656965769,0.054031961060524165,0.094058395085252836,0.14721813342530776,0.21357189771350216,0.29307194211684523,0.3855501394498958,0.49066817021042386,0.56869159107267531,0.750046254735327
DP 136,174.44675496935304,0.0035204355955903164,-45.578553798462771,-44.677580179481268,-43.776606560498422,-42.87563294151424,-41.97465932252873,-41.073685703541919,-40.172712084553773,-39.271738465564312,-38.3707648465735,-37.469791227581396,-36.568817608587992,-35.667843989593187,-34.766870370597125,-33.865896751599678,-32.964923132600944,-32.063949513600917,-31.162975894599519,-30.262002275596792,-29.361028656592772,-28.460055037587427,-27.565818516099434,-26.732216509097597,-25.898614502094421,-25.065012495089938,-24.231410488084087,-23.397808481076897,-22.564206474068378,-21.730604467058516,-20.897002460047297,-20.063400453034777,-19.229798446020869,-18.396196439005649,-17.562594431989066,-16.728992424971167,-15.895390417951939,-15.061788410931351,-14.228186403909429,-13.39458439688617,-12.56098238986155,-11.727380382835619,-10.921387518915417,-10.225832532268756,-9.530277545620697,-8.8347225589712579,-8.1391675723204386,-7.4436125856682427,-6.7480575990146567,-6.0525026123596959,-5.3569476257033513,-4.6613926390456228,-3.965837652386516,-3.2702826657260213,-2.5747276790641478,-1.8791726924008902,-1.1836177057362518,-0.488062719070231,0.2074922675971706,0.90304725426595123,1.5986022409361103,2.2941572276076543,2.9294517184618485,3.4241364870850837,3.9188212557097328,4.4135060243357831,4.9081907929632393,5.402875561592106,5.8975603302223769,6.3922450988540556,6.8869298674871366,7.3816146361216255,7.8762994047575221,8.3709841733948256,8.8656689420335368,9.3603537106736567,9.8550384793151764,10.349723247958101,10.84440801660244,11.339092785248184,11.833777553895331,12.328462322543883,12.720419529041589,12.958282964794796,13.196146400549466,13.434009836305581,13.671873272063122,13.909736707822125,14.147600143582567,14.385463579344474,14.623327015107819,14.8611904508726,15.09905388663883,15.336917322406501,15.574780758175619,15.812644193946184,16.050507629718204,16.288371065491678,16.526234501266579,16.76409793704293,17.001961372820727,17.23982480859997,17.19175982322076,17.124960565972316,17.058161308725342,16.991362051479854,16.924562794235836,16.857763536993296,16.790964279752231,16.724165022512647,16.657365765274548,16.590566508037931,16.523767250802759,16.456967993569076,16.390168736336879,16.323369479106166,16.256570221876935,16.189770964649153,16.122971707422867,16.056172450198058,15.783204891829802,15.372788551450121,14.962372211071994,14.551955870695393,14.141539530320372,13.731123189946898,13.320706849574979,12.910290509204632,12.499874168835825,12.089457828468566,11.679041488102905,11.268625147738771,10.858208807376183,10.447792467015191,10.037376126655728,9.6269597862978262,9.2165434459414772,8.80612710558669,8.39571076523346,7.985294424881797,7.3133129762487057,6.5292286635511054,5.7451443508550355,4.9610600381605066,4.1769757254674982,3.3928914127760605,2.6088071000861457,1.8247227873977421,1.0406384747109103,0.25655416202558623,-0.52753015065818165,-1.3116144633404216,-2.095698776021111,-2.8797830887002873,-3.6638674013779005,-4.4479517140539979,-5.2320360267285437,-6.0161203394015468,-6.80020465207303,-7.58428896474297,-8.684070902660455,-9.86278097692898,-11.041491051195841,-12.22020112546104,-13.398911199724573,-14.577621273986455,-15.756331348246663,-16.935041422505183,-18.113751496762053,-19.292461571017302,-20.471171645270822,-21.649881719522707,-22.828591793772908,-24.007301868021511,-25.186011942268369,-26.364722016513593,-27.543432090757147,-28.722142164999063,-29.900852239239281,-31.079562313477883,-32.624761994289059,-34.210686591524713,-35.796611188758746,-37.382535785990967,-38.968460383221554,-40.5543849804504,-42.140309577677556,-43.726234174902963,-45.312158772126764,-46.898083369348782,-48.484007966569131,-50.069932563787866,-51.655857161004768,-53.241781758220064,-54.82770635543357,-56.4136309526454,-57.999555549855572,-59.585480147063933,-61.171404744270717,-62.7573293414757,0,0.035935963219300718,0.09678772591767669,0.19614143855833321,0.34290219513791503,0.5378978629398663,0.78136688881583416,1.073136272221616,1.4125802606072293,1.7984395806698799,2.0849209731083249,2.7505083102856571
DP 137,284.78486904903451,0.0028770971488663553,-50.848086407810449,-49.738510740803179,-48.628935073794345,-47.519359406783977,-46.409783739772024,-45.300208072758636,-44.190632405743628,-43.081056738727078,-41.971481071709057,-40.861905404689438,-39.752329737668319,-38.642754070645644,-37.5331784036214,-36.423602736595662,-35.314027069568368,-34.204451402539512,-33.09487573550912,-31.985300068477247,-30.875724401443787,-29.766148734408773,-28.665832915701262,-27.648856607234126,-26.631880298765406,-25.614903990295151,-24.597927681823371,-23.580951373350043,-22.563975064875141,-21.546998756398708,-20.530022447920746,-19.513046139441229,-18.496069830960163,-17.479093522477545,-16.462117213993388,-15.445140905507685,-14.428164597020441,-13.411188288531646,-12.394211980041302,-11.377235671549421,-10.360259363055988,-9.3432830545610184,-8.3635140063047189,-7.5325757574746834,-6.7016375086430795,-5.8706992598099283,-5.03976101097523,-4.2088227621389631,-3.3778845133011433,-2.5469462644617651,-1.7160080156208366,-0.88506976677834948,-0.054131517934303479,0.77680673091130448,1.6077449797584633,2.4386832286071791,3.269621477457453,4.1005597263092763,4.9314979751626629,5.7624362240176037,6.5933744728740926,7.4243127217321483,8.1766027678650133,8.7453778629651744,9.3141529580668951,9.88292805317021,10.451703148275094,11.020478243381559,11.589253338489598,12.15802843359924,12.726803528710434,13.29557862382323,13.864353718937593,14.433128814053537,15.001903909171059,15.570679004290177,16.139454099410859,16.708229194533136,17.277004289656986,17.845779384782407,18.41455447990943,18.983329575038027,19.42353331362283,19.670876979168469,19.918220644715696,20.165564310264525,20.412907975814957,20.660251641366973,20.90759530692058,21.154938972475808,21.402282638032627,21.649626303591049,21.896969969151062,22.144313634712677,22.39165730027587,22.639000965840697,22.8863446314071,23.133688296975087,23.381031962544689,23.628375628115887,23.875719293688675,24.123062959263063,23.957369988480231,23.841623380658305,23.72587677283801,23.610130165019331,23.49438355720228,23.378636949386831,23.262890341573023,23.147143733760796,23.031397125950228,22.915650518141238,22.7999039103339,22.684157302528138,22.568410694724029,22.452664086921555,22.336917479120679,22.2211708713214,22.105424263523762,21.989677655727721,21.640608870494969,21.135988291280853,20.631367712068432,20.126747132857645,19.622126553648567,19.117505974441144,18.612885395235448,18.108264816031387,17.603644236829027,17.099023657628326,16.594403078429327,16.089782499231994,15.585161920036334,15.080541340842389,14.575920761650092,14.071300182459478,13.566679603270547,13.062059024083304,12.557438444897739,12.05281786571385,11.266459413060254,10.359352353151964,9.4522452932453263,8.5451382333403547,7.6380311734370157,6.7309241135353641,5.82381705363536,4.9167099937369851,4.0096029338402941,3.1024958739452324,2.1953888140518454,1.2882817541601033,0.38117469427003209,-0.52593236561841572,-1.4330394255051724,-2.3401464853903002,-3.2472535452737556,-4.1543606051555582,-5.061467665035714,-5.9685747249142116,-7.2019944842273915,-8.5169962738578775,-9.831998063486612,-11.146999853113579,-12.462001642738779,-13.777003432362235,-15.092005221983936,-16.407007011603852,-17.72200880122201,-19.037010590838459,-20.352012380453079,-21.667014170065993,-22.9820159596771,-24.297017749286507,-25.612019538894106,-26.927021328499954,-28.242023118104033,-29.557024907706417,-30.872026697306957,-32.187028486905774,-33.8705588099413,-35.595040618244205,-37.319522426545369,-39.044004234844728,-40.768486043142296,-42.492967851438053,-44.217449659732054,-45.941931468024194,-47.666413276314614,-49.390895084603208,-51.115376892890083,-52.839858701175181,-54.564340509458376,-56.288822317739879,-58.013304126019477,-59.737785934297378,-61.462267742573552,-63.186749550847772,-64.911231359120379,-66.635713167391046,0,0.035475538321450596,0.099172476113386379,0.20524989509543234,0.36222739225529471,0.57102507436181482,0.83193762343614941,1.1447859091993784,1.5088784606389554,1.9228232678367685,2.230293325561179,2.9438168521056891
DP 138,53.387698933309117,0.0039656261241395735,-20.531622971565145,-20.328973978420674,-20.126324985276252,-19.923675992131848,-19.721026998987483,-19.518378005843132,-19.315729012698828,-19.113080019554559,-18.910431026410304,-18.707782033266106,-18.505133040121951,-18.302484046977806,-18.099835053833687,-17.897186060689627,-17.694537067545571,-17.491888074401569,-17.289239081257591,-17.086590088113645,-16.883941094969746,-16.681292101825864,-16.480107099237124,-16.292098150027073,-16.104089200816986,-15.916080251606932,-15.728071302396856,-15.540062353186759,-15.352053403976658,-15.164044454766556,-14.976035505556446,-14.788026556346338,-14.600017607136206,-14.412008657926073,-14.223999708715917,-14.035990759505768,-13.847981810295623,-13.659972861085455,-13.471963911875282,-13.283954962665105,-13.095946013454913,-12.907937064244717,-12.725946793901169,-12.568031523475293,-12.410116253049292,-12.252200982623162,-12.094285712196887,-11.936370441770492,-11.778455171343957,-11.62053990091729,-11.4626246304905,-11.304709360063582,-11.146794089636504,-10.988878819209322,-10.830963548781996,-10.673048278354544,-10.515133007926956,-10.357217737499232,-10.199302467071378,-10.041387196643395,-9.8834719262152717,-9.7255566557870239,-9.5809162515471442,-9.46725095333761,-9.3535856551279331,-9.23992035691811,-9.126255058708157,-9.012589760498054,-8.8989244622878072,-8.7852591640774182,-8.6715938658668925,-8.5579285676562229,-8.44426326944541,-8.3305979712344573,-8.2169326730233614,-8.1032673748121216,-7.9896020766007476,-7.8759367783892227,-7.7622714801775583,-7.6486061819657492,-7.5349408837538041,-7.4212755855417134,-7.3304971193645585,-7.2740494420701793,-7.21760176477557,-7.161154087480722,-7.1047064101856412,-7.0482587328903286,-6.9918110555947841,-6.9353633782990025,-6.8789157010029918,-6.8224680237067439,-6.7660203464102606,-6.7095726691135535,-6.6531249918166075,-6.5966773145194262,-6.54022963722201,-6.4837819599243636,-6.4273342826264876,-6.37088660532837,-6.3144389280300235,-6.2579912507314459,-6.2607997221228251,-6.2732127763149856,-6.2856258305068522,-6.2980388846984487,-6.3104519388897558,-6.3228649930807812,-6.3352780472715242,-6.3476911014619839,-6.360104155652162,-6.3725172098420586,-6.3849302640316719,-6.397343318221,-6.4097563724100493,-6.422169426598809,-6.4345824807872907,-6.44699553497549,-6.4594085891634094,-6.47182164335104,-6.5314735137109992,-6.62261867237245,-6.7137638310335186,-6.8049089896942032,-6.8960541483545095,-6.9871993070144374,-7.0783444656739718,-7.1694896243331305,-7.2606347829919144,-7.3517799416503067,-7.4429251003083117,-7.5340702589659383,-7.6252154176231945,-7.7163605762800564,-7.8075057349365409,-7.8986508935926434,-7.9897960522483613,-8.0809412109036973,-8.1720863695586523,-8.2632315282132218,-8.4151188573390314,-8.593039365446776,-8.7709598735541388,-8.9488803816611071,-9.1268008897677024,-9.3047213978739123,-9.482641905979726,-9.66056241408518,-9.8384829221902326,-10.016403430294904,-10.19432393839921,-10.372244446503121,-10.55016495460664,-10.728085462709796,-10.906005970812547,-11.083926478914925,-11.261846987016927,-11.439767495118527,-11.617688003219762,-11.79560851132061,-12.047556639866057,-12.318012548175696,-12.588468456484803,-12.858924364793406,-13.129380273101487,-13.399836181409052,-13.6702920897161,-13.940747998022601,-14.21120390632861,-14.481659814634083,-14.752115722939042,-15.022571631243487,-15.293027539547397,-15.563483447850786,-15.833939356153682,-16.104395264456041,-16.374851172757882,-16.645307081059197,-16.915762989360005,-17.186218897660279,-17.543212485049196,-17.90982227896944,-18.276432072889147,-18.643041866808254,-19.009651660726828,-19.37626145464483,-19.742871248562228,-20.109481042479093,-20.476090836395372,-20.842700630311107,-21.209310424226256,-21.575920218140855,-21.942530012054867,-22.309139805968314,-22.675749599881204,-23.042359393793543,-23.408969187705285,-23.775578981616459,-24.142188775527071,-24.50879856943714,0,0.026609572680767243,0.050739173042442,0.079144433557277627,0.11796021847950144,0.16789057187902665,0.22916956600189825,0.30192405636884229,0.38624866623375648,0.48208355917221707,0.55049240302090607,0.71021315987097644
DP 139,92.1869368805591,0.0037873616606749921,-31.125779320386723,-30.633851375139251,-30.141923429891239,-29.649995484642695,-29.158067539393581,-28.666139594143957,-28.174211648893792,-27.682283703643048,-27.190355758391785,-26.698427813139983,-26.206499867887608,-25.714571922634729,-25.222643977381281,-24.730716032127305,-24.238788086872802,-23.746860141617727,-23.254932196362123,-22.763004251105979,-22.271076305849284,-21.77914836059205,-21.290783323890626,-20.83448480097735,-20.378186278063531,-19.921887755149104,-19.465589232234116,-19.009290709318563,-18.552992186402431,-18.096693663485709,-17.640395140568437,-17.184096617650592,-16.727798094732158,-16.271499571813145,-15.815201048893577,-15.358902525973432,-14.90260400305271,-14.446305480131421,-13.990006957209552,-13.533708434287114,-13.077409911364095,-12.621111388440506,-12.179488484547608,-11.796568750369353,-11.413649016190416,-11.030729282010821,-10.647809547830571,-10.264889813649646,-9.8819700794680667,-9.4990503452858235,-9.1161306111029123,-8.73321087691934,-8.3502911427351112,-7.9673714085502008,-7.5844516743646375,-7.2015319401784108,-6.8186122059915144,-6.4356924718039554,-6.052772737615741,-5.6698530034268613,-5.2869332692373181,-4.9040135350471115,-4.5534306701381784,-4.2783015190724614,-4.003172368006056,-3.7280432169389761,-3.452914065871215,-3.1777849148027757,-2.9026557637336494,-2.6275266126638437,-2.3523974615933567,-2.07726831052219,-1.8021391594503453,-1.5270100083778189,-1.2518808573046083,-0.97675170623071939,-0.70162255515614869,-0.42649340408089581,-0.15136425300496323,0.12376489807165204,0.39889404914894666,0.67402320022692053,0.893387598228344,1.0291035488581426,1.1648194994886869,1.3005354501199857,1.4362514007520331,1.571967351384834,1.7076833020183841,1.8433992526526826,1.9791152032877317,2.1148311539235367,2.2505471045600891,2.3862630551973925,2.5219790058354477,2.6576949564742489,2.793410907113806,2.92912685775411,3.0648428083951655,3.2005587590369715,3.3362747096795311,3.4719906603228381,3.4601284984085718,3.4282401266713549,3.3963517549349307,3.3644633831993023,3.3325750114644634,3.3006866397304244,3.2687982679971763,3.2369098962647165,3.2050215245330538,3.173133152802182,3.1412447810721082,3.1093564093428241,3.0774680376143309,3.0455796658866365,3.0136912941597327,2.9818029224336211,2.949914550708304,2.9180261789837862,2.7712031583199233,2.547755227715955,2.3243072971128753,2.1008593665106736,1.8774114359093586,1.6539635053089243,1.4305155747093854,1.207067644110726,0.98361971351294752,0.76017178291605736,0.53672385232005848,0.31327592172493612,0.089827991130701015,-0.13361993946264247,-0.35706787005511059,-0.5805158006466864,-0.80396373123738629,-1.0274116618271942,-1.2508595924161143,-1.4743075230041514,-1.8453801209567873,-2.2797224268872012,-2.71406473281674,-3.1484070387453968,-3.5827493446731857,-4.01709165060008,-4.4514339565261,-4.8857762624512535,-5.3201185683755163,-5.7544608742989123,-6.1888031802214236,-6.6231454861430556,-7.0574877920638066,-7.4918300979837,-7.9261724039026822,-8.3605147098208086,-8.7948570157380512,-9.229199321654411,-9.6635416275698987,-10.097883933484503,-10.712127880859386,-11.371349364178037,-12.030570847495671,-12.689792330812304,-13.349013814127929,-14.008235297442518,-14.667456780756135,-15.326678264068708,-15.985899747380268,-16.64512123069084,-17.304342714000374,-17.963564197308919,-18.62278568061642,-19.282007163922966,-19.941228647228439,-20.600450130532938,-21.259671613836407,-21.918893097138891,-22.578114580440346,-23.237336063740777,-24.106737484918511,-24.999494439924824,-25.892251394930089,-26.785008349934255,-27.677765304937378,-28.570522259939477,-29.463279214940481,-30.35603616994046,-31.248793124939361,-32.141550079937225,-33.034307034934017,-33.927063989929756,-34.819820944924437,-35.71257789991806,-36.60533485491063,-37.498091809902171,-38.390848764892624,-39.28360571988204,-40.176362674870425,-41.069119629857674,0,0.028789028674496248,0.067252748699839549,0.12515662446139572,0.2099807721034046,0.32226094460726512,0.46208223213797084,0.629345889869196,0.82375172531025032,1.044677182419572,1.208039906266269,1.5888595742562979
DP 140,187.35093826647343,0.0035192069547073305,-47.658483512042991,-46.701132611338544,-45.743781710632653,-44.786430809925356,-43.829079909216659,-42.871729008506485,-41.914378107794946,-40.957027207082035,-39.999676306367661,-39.04232540565188,-38.084974504934678,-37.127623604216083,-36.170272703496074,-35.212921802774652,-34.255570902051815,-33.29822000132755,-32.340869100601914,-31.383518199874807,-30.426167299146314,-29.468816398416418,-28.518693570553651,-27.6336240817349,-26.748554592914722,-25.86348510409313,-24.978415615270119,-24.093346126445677,-23.20827663761979,-22.323207148792495,-21.438137659963761,-20.553068171133592,-19.667998682301995,-18.782929193468988,-17.897859704634548,-17.012790215798663,-16.127720726961375,-15.24265123812264,-14.357581749282474,-13.472512260440897,-12.587442771597871,-11.702373282753442,-10.84687303889395,-10.109651172462213,-9.3724293060290123,-8.6352074395943372,-7.8979855731582056,-7.1607637067206058,-6.42354184028154,-5.686319973841008,-4.9490981073990188,-4.21187624095556,-3.47465437451063,-2.7374325080642352,-2.0002106416163774,-1.2629887751670521,-0.52576690871626175,0.21145495773599329,0.94867682418971278,1.6858986906448956,2.4231205571015377,3.1603424235596509,3.8332077521527461,4.3559057980143159,4.8786038438773911,5.401301889741946,5.9239999356079949,6.446697981475535,6.9693960273445565,7.4920940732150827,8.0147921190870939,8.5374901649606016,9.0601882108355873,9.5828862567120687,10.105584302590042,10.628282348469503,11.150980394350468,11.673678440232914,12.196376486116849,12.71907453200229,13.241772577889197,13.764470623777607,14.177851859634258,14.427255297216927,14.676658734801135,14.92606217238686,15.175465609974118,15.424869047562899,15.674272485153207,15.92367592274505,16.173079360338416,16.422482797933323,16.67188623552973,16.921289673127678,17.170693110727147,17.420096548328154,17.669499985930678,17.918903423534751,18.168306861140323,18.417710298747426,18.667113736356079,18.916517173966252,18.857529749937953,18.784053482425847,18.710577214915304,18.637100947406303,18.56362467989889,18.490148412393008,18.416672144888697,18.343195877385941,18.269719609884731,18.196243342385095,18.122767074887008,18.049290807390481,17.975814539895509,17.902338272402098,17.828862004910246,17.755385737419935,17.681909469931192,17.608433202444026,17.31737305010591,16.881253546780211,16.445134043456139,16.009014540133716,15.572895036812929,15.136775533493763,14.700656030176253,14.264536526860361,13.828417023546111,13.392297520233498,12.956178016922539,12.520058513613206,12.083939010305501,11.647819506999436,11.211700003695006,10.775580500392227,10.339460997091066,9.9033414937915545,9.46722199049368,9.0311024871974457,8.3200003670784817,7.4910448409134105,6.6620893147499443,5.83313378858811,5.0041782624278719,4.1752227362692773,3.3462672101122908,2.51731168395689,1.68835615780314,0.85940063165097613,0.03044510550044556,-0.79851042064847788,-1.6274659467957724,-2.4564214729414804,-3.2853769990855373,-4.1143325252280043,-4.9432880513688451,-5.7722435775080623,-6.60119910364568,-7.4301546297816756,-8.5899653421968,-9.8324937603108822,-11.075022178423225,-12.31755059653382,-13.560079014642678,-14.802607432749783,-16.045135850855168,-17.287664268958778,-18.530192687060683,-19.772721105160841,-21.015249523259225,-22.257777941355894,-23.500306359450764,-24.74283477754398,-25.98536319563539,-27.227891613725095,-28.470420031813038,-29.712948449899233,-30.955476867983677,-32.198005286066412,-33.823836072004347,-35.492260035528439,-37.160683999050768,-38.829107962571236,-40.497531926089948,-42.165955889606913,-43.834379853122115,-45.502803816635414,-47.171227780147092,-48.8396517436569,-50.508075707164927,-52.176499670671255,-53.844923634175693,-55.513347597678411,-57.18177156117931,-58.850195524678455,-60.518619488175887,-62.187043451671364,-63.855467415165258,-65.523891378657169,0,0.037095098097353382,0.10070400947296065,0.20497523721121857,0.3590524962750366,0.56381078367334914,0.81950831818874714,1.1259646502000418,1.4825183235384893,1.8878382789256527,2.1888022843808543,2.8878832275800903
DP 141,253.08073027816633,0.0054063356413991308,-88.4501031651813,-86.562300305758228,-84.67449744633241,-82.7866945869039,-80.898891727472673,-79.0110888680388,-77.1232860086021,-75.2354831491628,-73.347680289720728,-71.459877430275981,-69.572074570828519,-67.684271711378358,-65.796468851925482,-63.9086659924699,-62.020863133011595,-60.133060273550591,-58.245257414086893,-56.357454554620467,-54.469651695151327,-52.581848835679544,-50.70924108084786,-48.97339070410689,-47.237540327363114,-45.501689950616615,-43.765839573867396,-42.029989197115469,-40.294138820360814,-38.5582884436034,-36.822438066843269,-35.086587690080471,-33.350737313314895,-31.614886936546672,-29.879036559775653,-28.143186183001905,-26.407335806225472,-24.67148542944631,-22.935635052664416,-21.1997846758798,-19.463934299092454,-17.728083922302382,-16.053683369212276,-14.625085015134346,-13.196486661053621,-11.76788830697018,-10.339289952883982,-8.9106915987950241,-7.4820932447033242,-6.0534948906088584,-4.6248965365116517,-3.1962981824116881,-1.7676998283089678,-0.33910147420348541,1.0894968799047391,2.5180952340157239,3.9466935881294569,5.3752919422459424,6.8038902963651759,8.23248865048717,9.6610870046118968,11.089685358739391,12.387013674546221,13.378041098282075,14.369068522020731,15.3600959457622,16.351123369506428,17.342150793253484,18.333178217003308,19.32420564075597,20.315233064511386,21.306260488269629,22.297287912030665,23.288315335794486,24.279342759561064,25.2703701833305,26.261397607102715,27.252425030877685,28.243452454655536,29.234479878436154,30.225507302219537,31.216534726005733,31.989941149743323,32.436910930884217,32.88388071202796,33.3308504931745,33.77782027432395,34.224790055476205,34.671759836631296,35.1187296177892,35.565699398949974,36.012669180113555,36.459638961279978,36.90660874244923,37.353578523621309,37.800548304796244,38.247518085974036,38.694487867154635,39.1414576483381,39.588427429524351,40.035397210713484,40.482366991905423,40.2610082310844,40.083069589177022,39.905130947272482,39.727192305370849,39.5492536634721,39.37131502157618,39.19337637968318,39.01543773779305,38.837499095905805,38.6595604540214,38.481621812139913,38.30368317026128,38.125744528385511,37.94780588651264,37.769867244642647,37.591928602775511,37.413989960911259,37.236051319049864,36.649246134147411,35.789856812718774,34.930467491293157,34.071078169870525,33.211688848450862,32.352299527034205,31.492910205620557,30.633520884209876,29.774131562802189,28.914742241397491,28.055352919995816,27.195963598597125,26.336574277201404,25.477184955808724,24.617795634418993,23.758406313032275,22.899016991648516,22.039627670267766,21.180238348890054,20.3208490275153,18.958977143198609,17.381748803969511,15.804520464743341,14.227292125520153,12.650063786299862,11.072835447082596,9.4956071078682527,7.9183787686568117,6.3411504294483869,4.7639220902428558,3.186693751040313,1.6094654118407001,0.032237072644065667,-1.5449912665496708,-3.1222196057403933,-4.6994479449282123,-6.2766762841130586,-7.8539046232949392,-9.4311329624739013,-11.00836130164989,-13.176374340016771,-15.492090533436746,-17.8078067268536,-20.123522920267277,-22.439239113677854,-24.754955307085236,-27.070671500489521,-29.386387693890573,-31.702103887288558,-34.017820080683428,-36.33353627407503,-38.649252467463583,-40.964968660848875,-43.280684854231161,-45.596401047610236,-47.912117240986191,-50.227833434358914,-52.543549627728595,-54.859265821095065,-57.174982014458344,-60.164741308900666,-63.229401360323784,-66.2940614117438,-69.35872146316045,-72.423381514574061,-75.488041565984346,-78.552701617391449,-81.617361668795283,-84.6820217201961,-87.7466817715936,-90.8113418229879,-93.876001874379057,-96.940661925766932,-100.00532197715167,-103.06998202853309,-106.13464207991146,-109.19930213128661,-112.26396218265839,-115.32862223402722,-118.39328228539256,0,0.064179749175031053,0.17834624122350773,0.36781924211130185,0.64811104998477209,1.020852630263217,1.4865584051341767,2.0449065281005274,2.6946692829520287,3.4333745210835747,3.9820412495639541,5.2555634430171985
DP 142,93.293967868902243,0.0014741040484944395,-12.231798573153258,-12.037248138659137,-11.842697704164802,-11.648147269670243,-11.453596835175473,-11.259046400680488,-11.064495966185286,-10.869945531689854,-10.675395097194219,-10.480844662698365,-10.286294228202287,-10.091743793706005,-9.8971933592094867,-9.7026429247127588,-9.5080924902158159,-9.3135420557186546,-9.11899162122128,-8.9244411867236888,-8.7298907522258773,-8.5353403177278455,-8.3421990958241032,-8.16174092047551,-7.9812827451266761,-7.800824569777622,-7.6203663944283289,-7.4399082190788182,-7.2594500437290721,-7.0789918683791013,-6.898533693028897,-6.7180755176784626,-6.5376173423278008,-6.3571591669769143,-6.1767009916257916,-5.9962428162744423,-5.8157846409228657,-5.6353264655710564,-5.4548682902190242,-5.2744101148667575,-5.0939519395142643,-4.9134937641615419,-4.7388405062084979,-4.5874071922033206,-4.43597387819788,-4.2845405641921728,-4.1331072501862023,-3.9816739361799693,-3.8302406221734726,-3.6788073081667108,-3.5273739941596878,-3.3759406801523979,-3.2245073661448447,-3.0730740521370286,-2.9216407381289473,-2.7702074241206049,-2.6187741101119957,-2.4673407961031235,-2.3159074820939867,-2.1644741680845887,-2.0130408540749256,-1.861607540064997,-1.7229638266153273,-1.6141629174411263,-1.5053620082666523,-1.3965610990919106,-1.2877601899168973,-1.1789592807416125,-1.0701583715660581,-0.9613574623902319,-0.85255655321413593,-0.74375564403776884,-0.63495473486113174,-0.52615382568422442,-0.41735291650704442,-0.30855200732959492,-0.19975109815187495,-0.090950188973883309,0.017850720204377963,0.1266516293829113,0.23545253856171405,0.34425344774078753,0.4309983446409848,0.48465870192518451,0.53831905920967993,0.59197941649447494,0.64563977377956672,0.69930013106495792,0.75296048835064322,0.80662084563662817,0.86028120292291088,0.91394156020949113,0.96760191749636937,1.021262274783544,1.0749226320710179,1.1285829893587873,1.1822433466468556,1.235903703935221,1.2895640612238846,1.3432244185128472,1.3968847758021077,1.4505451330916626,1.4458144376583109,1.4331899627207754,1.420565487783555,1.4079410128466465,1.3953165379100541,1.3826920629737742,1.3700675880378106,1.35744311310216,1.344818638166823,1.3321941632317988,1.319569688297092,1.3069452133626995,1.2943207384286191,1.2816962634948537,1.2690717885614013,1.2564473136282643,1.2438228386954424,1.231198363762934,1.1731214460981141,1.0847421839004507,0.99636292170313978,0.90798365950617455,0.81960439730956114,0.73122513511329568,0.64284587291738249,0.554466610721818,0.46608734852660211,0.37770808633173669,0.28932882413722427,0.20094956194305877,0.11257029974924333,0.024191037555779508,-0.0641882246373372,-0.15256748683010143,-0.24094674902251886,-0.32932601121458432,-0.41770527340629859,-0.506084535597664,-0.65284185972343545,-0.82461914153538685,-0.9963964233469923,-1.1681737051582493,-1.3399509869691628,-1.5117282687797227,-1.6835055505899368,-1.8552828323998096,-2.0270601142093283,-2.1988373960185075,-2.3706146778273323,-2.5423919596358164,-2.714169241443948,-2.8859465232517372,-3.0577238050591746,-3.2295010868662666,-3.4012783686730113,-3.5730556504794064,-3.744832932285461,-3.9166102140911612,-4.159526625265042,-4.4202286593059164,-4.6809306933463954,-4.9416327273864669,-5.2023347614261475,-5.4630367954654329,-5.7237388295043123,-5.9844408635427868,-6.24514289758087,-6.5058449316185563,-6.7665469656558432,-7.0272489996927243,-7.2879510337292039,-7.5486530677652972,-7.8093551018009792,-8.0700571358362669,-8.3307591698711665,-8.5914612039056468,-8.8521632379397417,-9.1128652719734333,-9.4566769839487677,-9.80972397743693,-10.162770970924679,-10.515817964412003,-10.868864957898914,-11.221911951385417,-11.57495894487149,-11.928005938357151,-12.281052931842417,-12.63409992532724,-12.987146918811671,-13.340193912295671,-13.693240905779248,-14.04628789926242,-14.399334892745161,-14.752381886227512,-15.105428879709445,-15.458475873190935,-15.811522866672039,-16.164569860152692,0,0.011257668670804997,0.026406055465828238,0.049276576944464912,0.082792861813231769,0.12716420215327431,0.18242432972398689,0.24853394592265265,0.32537341136342868,0.41269517889140989,0.47727751280187236,0.6278135610454435
DP 143,250.62431969990644,0.0057761199391988234,-93.91021073134057,-91.9095881053449,-89.908965479346165,-87.908342853344763,-85.907720227340377,-83.907097601333092,-81.906474975322908,-79.9058523493099,-77.905229723294013,-75.904607097275274,-73.903984471253651,-71.9033618452291,-69.902739219201749,-67.902116593171471,-65.901493967138336,-63.90087134110226,-61.900248715063384,-59.899626089021616,-57.899003462976978,-55.898380836929434,-53.913817655792116,-52.073790996877314,-50.233764337959606,-48.393737679039006,-46.55371102011555,-44.713684361189152,-42.8736577022599,-41.033631043327752,-39.1936043843927,-37.353577725454741,-35.513551066513905,-33.67352440757017,-31.833497748623561,-29.993471089674056,-28.153444430721652,-26.31341777176635,-24.473391112808152,-22.63336445384709,-20.79333779488308,-18.953311135916231,-17.178262398665574,-15.663128419235449,-14.147994439802375,-12.632860460366391,-11.117726480927493,-9.60259250148566,-8.0874585220409,-6.5723245425932131,-5.0571905631426137,-3.5420565836890896,-2.0269226042326278,-0.51178862477323461,1.0033453546890749,2.5184793341543137,4.0336133136224737,5.5487472930935624,7.0638812725675795,8.5790152520445044,10.09414923152435,11.609283211007144,12.985502688007436,14.037583949034619,15.089665210064789,16.14174647109791,17.193827732134022,18.245908993173092,19.29799025421514,20.350071515260172,21.402152776308142,22.454234037359107,23.506315298413043,24.558396559469941,25.610477820529816,26.662559081592669,27.714640342658498,28.76672160372728,29.818802864799022,30.870884125873793,31.922965386951507,32.975046648032176,33.796591603341973,34.272326652274849,34.748061701210709,35.223796750149546,35.69953179909146,36.175266848036365,36.651001896984262,37.126736945935193,37.60247199488915,38.078207043846078,38.553942092806047,39.029677141769049,39.505412190735051,39.98114723970405,40.456882288676091,40.932617337651138,41.408352386629176,41.88408743561024,42.359822484594325,42.835557533581415,42.605752999481865,42.418682923063258,42.231612846647685,42.044542770235225,41.857472693825841,41.670402617419441,41.483332541016182,41.296262464615936,41.109192388218752,40.922122311824587,40.735052235433542,40.547982159045532,40.360912082660576,40.173842006278655,39.98677192989981,39.799701853524034,39.612631777151321,39.425561700781657,38.80425732743565,37.893456581970469,36.982655836508464,36.071855091049571,35.161054345593904,34.250253600141427,33.339452854692141,32.428652109245995,31.5178513638031,30.607050618363321,29.696249872926749,28.785449127493361,27.874648382063153,26.963847636636157,26.0530468912123,25.142246145791638,24.231445400374131,23.32064465495985,22.409843909548755,21.49904316414084,20.053909730886488,18.379769359113364,16.705628987343339,15.03148861557646,13.357348243812682,11.68320787205211,10.009067500294659,8.33492712854029,6.6607867567891246,4.9866463850410385,3.3125060132961295,1.6383656415543384,-0.03577473018428743,-1.7099151019198324,-3.3840554736521709,-5.058195845381424,-6.7323362171075116,-8.4064765888304471,-10.080616960550278,-11.754757332266959,-14.057801543484437,-16.518079145218795,-18.97835674694981,-21.438634348677478,-23.898911950401814,-26.359189552122785,-28.81946715384046,-31.279744755554692,-33.740022357265623,-36.200299958973275,-38.660577560677453,-41.120855162378369,-43.581132764075839,-46.041410365770119,-48.501687967460938,-50.961965569148461,-53.422243170832587,-55.882520772513395,-58.342798374190814,-60.803075975864964,-63.981400641179825,-67.2395158547971,-70.49763106841111,-73.755746282021533,-77.01386149562866,-80.271976709232334,-83.530091922832582,-86.7882071364294,-90.046322350022848,-93.3044375636129,-96.562552777199571,-99.82066799078288,-103.07878320436272,-106.33689841793922,-109.59501363151209,-112.85312884508188,-116.11124405864794,-119.3693592722108,-122.62747448577038,-125.88558969932627,0,0.068338740923983163,0.18979742941747518,0.39130958530317134,0.68940205544805855,1.0858082094318451,1.5810740063350079,2.1748569751355777,2.8658518914150508,3.6514314695542236,4.2349103910838251,5.5892614229722426
DP 144,160.74777034791683,0.003347676893092193,-41.130458106983333,-40.333279082143214,-39.536100057301923,-38.73892103245948,-37.941742007615865,-37.144562982771077,-36.347383957925146,-35.550204933078085,-34.753025908229837,-33.955846883380474,-33.158667858529888,-32.36148883367818,-31.564309808825318,-30.7671307839713,-29.969951759116121,-29.172772734259748,-28.37559370940226,-27.578414684543624,-26.781235659683823,-25.984056634822846,-25.19278571605728,-24.454688310619368,-23.71659090518029,-22.978493499740036,-22.240396094298603,-21.502298688855987,-20.7642012834122,-20.02610387796722,-19.288006472521094,-18.549909067073777,-17.811811661625292,-17.07371425617562,-16.335616850724765,-15.597519445272749,-14.85942203981957,-14.121324634365189,-13.383227228909652,-12.64512982345294,-11.907032417995039,-11.168935012535977,-10.455089526190937,-9.838252862484973,-9.2214161987777974,-8.6045795350694,-7.9877428713597824,-7.3709062076489476,-6.7540695439368834,-6.137232880223606,-5.5203962165091074,-4.90355955279339,-4.2867228890764446,-3.6698862253582805,-3.0530495616388982,-2.4362128979182933,-1.8193762341964683,-1.2025395704734181,-0.585702906749153,0.031133756976330976,0.64797042070303368,1.2648070844309609,1.8285739680484079,2.26850969264569,2.7084454172442225,3.1483811418439922,3.5883168664450014,4.0282525910472629,4.4681883156507594,4.9081240402555073,5.3480597648614925,5.7879954894687247,6.2279312140771941,6.6678669386869087,7.1078026632978712,7.5477383879100692,7.9876741125235107,8.4276098371382062,8.8675455617541346,9.3074812863713152,9.7474170109897322,10.187352735609387,10.536521566681055,10.749537912550835,10.962554258421898,11.17557060429424,11.388586950167884,11.601603296042795,11.814619641918993,12.027635987796481,12.240652333675241,12.453668679555289,12.666685025436619,12.879701371319241,13.092717717203131,13.30573406308832,13.518750408974794,13.731766754862546,13.944783100751573,14.157799446641894,14.370815792533509,14.583832138426381,14.547377599004578,14.490192003261704,14.433006407520152,14.375820811779931,14.318635216041002,14.26144962030339,14.204264024567118,14.147078428832131,14.089892833098473,14.032707237366118,13.975521641635085,13.91833604590536,13.861150450176947,13.803964854449879,13.746779258724105,13.689593662999645,13.632408067276488,13.57522247155466,13.334496888481812,12.971408422405712,12.608319956331,12.245231490257671,11.882143024185735,11.519054558115181,11.155966092046034,10.792877625978276,10.429789159911895,10.066700693846911,9.7036122277833243,9.3405237617211281,8.97743529566032,8.6143468296009065,8.251258363542874,7.8881698974862511,7.5250814314309995,7.1619929653771512,6.7989044993246894,6.4358160332736318,5.8390538558449308,5.1421426467883844,4.4452314377332032,3.7483202286794044,3.0514090196269614,2.3544978105759227,1.6575866015262506,0.96067539247792733,0.26376418343100611,-0.43314702561456486,-1.1300582346587451,-1.82696944370156,-2.5238806527429896,-3.2207918617830682,-3.9177030708217462,-4.6146142798590679,-5.3115254888950085,-6.0084366979295645,-6.7053479069627624,-7.402259115994581,-8.3819929080243814,-9.43243568741672,-10.482878466807563,-11.533321246196916,-12.583764025584779,-13.634206804971136,-14.684649584356016,-15.735092363739383,-16.785535143121269,-17.835977922501669,-18.886420701880542,-19.936863481257959,-20.987306260633844,-22.037749040008269,-23.088191819381176,-24.1386345987526,-25.189077378122509,-26.239520157490958,-27.289962936857872,-28.340405716223326,-29.719772630433827,-31.135690125237382,-32.551607620039455,-33.96752511483993,-35.383442609638912,-36.799360104436332,-38.215277599232252,-39.631195094026594,-41.047112588819459,-42.463030083610789,-43.878947578400577,-45.294865073188809,-46.710782567975542,-48.126700062760754,-49.542617557544368,-50.958535052326553,-52.374452547107133,-53.790370041886156,-55.206287536663716,-56.622205031439677,0,0.032894981930777847,0.087665933121516076,0.17661996754557921,0.30796030826548065,0.48242233097825937,0.70021062852650884,0.96116917800672752,1.2647430639534616,1.6098158794727881,1.8659727295157227,2.4612745170311281
DP 145,243.40947774958161,0.0033696538534056276,-53.772317978749861,-52.633156876605675,-51.493995774459833,-50.354834672312307,-49.21567357016319,-48.076512468012417,-46.937351365859982,-45.798190263705877,-44.659029161550166,-43.519868059392792,-42.380706957233784,-41.241545855073092,-40.1023847529108,-38.9632236507468,-37.824062548581182,-36.684901446413932,-35.545740344245026,-34.406579242074457,-33.267418139902269,-32.1282570377284,-30.998168763004252,-29.9497367929432,-28.901304822880476,-27.852872852816134,-26.804440882750086,-25.756008912682411,-24.707576942613088,-23.659144972542094,-22.610713002469453,-21.562281032395173,-20.513849062319178,-19.465417092241552,-18.416985122162284,-17.368553152081347,-16.320121181998761,-15.271689211914502,-14.223257241828589,-13.174825271741025,-12.126393301651788,-11.077961331560919,-10.066289168373629,-9.2016579701253214,-8.3370267718753386,-7.4723955736236753,-6.6077643753703352,-5.7431331771153236,-4.8785019788586261,-4.0138707806002483,-3.1492395823402033,-2.2846083840784717,-1.4199771858150623,-0.55534598754996889,0.30928521071679715,1.1739164089852432,2.0385476072553685,2.9031788055271708,3.7678100038006512,4.632441202075805,5.4970724003526339,6.3617035986311468,7.147565098356516,7.74962815295567,8.3516912075565433,8.9537542621591086,9.5558173167633846,10.157880371369369,10.759943425977056,11.362006480586452,11.964069535197552,12.566132589810353,13.168195644424856,13.770258699041065,14.372321753658976,14.974384808278611,15.57644786289994,16.178510917522978,16.780573972147707,17.382637026774155,17.9847000814023,18.586763136032161,19.057708684793152,19.331974876360118,19.606241067928831,19.880507259499264,20.154773451071417,20.429039642645318,20.703305834220934,20.977572025798306,21.251838217377365,21.526104408958194,21.800370600540738,22.074636792125034,22.348902983711035,22.623169175298777,22.897435366888239,23.171701558479452,23.44596775007237,23.720233941667047,23.994500133263436,24.268766324861549,24.145788448869837,24.041743344985566,23.937698241103078,23.833653137222313,23.729608033343318,23.625562929466078,23.521517825590575,23.417472721716859,23.313427617844884,23.209382513974681,23.10533741010622,23.001292306239534,22.897247202374569,22.793202098511394,22.689156994649981,22.5851118907903,22.481066786932384,22.377021683076222,22.024191309948687,21.505500171348981,20.986809032751115,20.468117894155036,19.949426755560822,19.430735616968406,18.912044478377847,18.39335333978913,17.874662201202213,17.355971062617133,16.837279924033894,16.318588785452476,15.799897646872896,15.281206508295146,14.762515369719212,14.243824231145119,13.72513309257284,13.2064419540024,12.687750815433811,12.169059676867036,11.343118702448631,10.385495078120892,9.427871453794948,8.4702478294708214,7.5126242051484633,6.5550005808279526,5.5973769565092457,4.6397533321922984,3.6821297078771984,2.7245060835638695,1.7668824592523675,0.80925883494265582,-0.14836478936523428,-1.105988413671352,-2.063612037975628,-3.0212356622781287,-3.9788592865788059,-4.9364829108776771,-5.89410653517476,-6.8517301594700308,-8.1720851053217949,-9.58312716731562,-10.994169229307531,-12.405211291297512,-13.816253353285568,-15.227295415271698,-16.6383374772559,-18.04937953923816,-19.4604216012185,-20.871463663196948,-22.282505725173422,-23.693547787148013,-25.104589849120618,-26.515631911091351,-27.926673973060129,-29.33771603502699,-30.748758096991896,-32.159800158954923,-33.570842220916013,-34.981884282875157,-36.807918868031472,-38.680068091968494,-40.552217315903512,-42.424366539836569,-44.2965157637677,-46.168664987696829,-48.040814211624038,-49.912963435549244,-51.785112659472468,-53.657261883393815,-55.529411107313159,-57.401560331230527,-59.273709555145977,-61.145858779059409,-63.01800800297088,-64.890157226880419,-66.762306450788017,-68.634455674693584,-70.506604898597317,-72.3787541224989,0,0.039458451982213344,0.10939776177161718,0.22532194679943227,0.39678992114885531,0.62479677581100423,0.90965433573499754,1.2511655101697403,1.6485806108517485,2.1003903803569308,2.4359604055760729,3.2149201461443591
DP 146,201.20002296880483,0.0013097727485242466,-18.5459398471524,-18.167676270756,-17.78941269435904,-17.411149117961525,-17.032885541563449,-16.654621965164822,-16.276358388765633,-15.898094812365878,-15.519831235965576,-15.141567659564707,-14.763304083163282,-14.385040506761303,-14.006776930358754,-13.628513353955659,-13.250249777552003,-12.871986201147795,-12.493722624743018,-12.115459048337684,-11.737195471931795,-11.358931895525348,-10.983557475558905,-10.634185736652542,-10.284813997745617,-9.9354422588381279,-9.5860705199300771,-9.236698781021456,-8.88732704211228,-8.53795530320253,-8.1885835642922231,-7.8392118253813532,-7.4898400864699193,-7.1404683475579125,-6.7910966086453559,-6.4417248697322371,-6.0923531308185446,-5.7429813919042925,-5.3936096529894755,-5.0442379140740963,-4.69486617515815,-4.3454944362416432,-4.0079176190738588,-3.7175210463470734,-3.4271244736197071,-3.1367279008917661,-2.84633132816325,-2.555934755434158,-2.2655381827044914,-1.9751416099742471,-1.6847450372434283,-1.3943484645120336,-1.1039518917800621,-0.81355531904751321,-0.52315874631439008,-0.23276217358069021,0.057634399153585238,0.3480309718884364,0.63842754462386353,0.92882411735986514,1.2192206900964402,1.5096172628335944,1.7744296050341062,1.9795446032208426,2.1846596014081641,2.3897745995960711,2.5948895977845634,2.8000045959736433,3.0051195941633062,3.2102345923535562,3.4153495905443916,3.620464588735814,3.8255795869278209,4.0306945851204121,4.2358095833135918,4.4409245815073533,4.6460395797017027,4.8511545778966427,5.0562695760921583,5.2613845742882672,5.4664995724849641,5.671614570682233,5.83346061316872,5.9304021996158491,6.0273437860635743,6.1242853725118991,6.2212269589608162,6.3181685454103409,6.4151101318604518,6.5120517183111719,6.60899330476249,6.7059348912143966,6.8028764776669073,6.899818064120014,6.9967596505737246,7.0937012370280241,7.1906428234829312,7.2875844099384333,7.3845259963945384,7.4814675828512351,7.57840916930853,7.6753507557664236,7.64826655221781,7.6180443131135345,7.587822074009865,7.55759983490682,7.5273775958043778,7.4971553567025442,7.4669331176013207,7.4367108785006995,7.4064886394006928,7.3762664003012972,7.346044161202502,7.3158219221043312,7.2855996830067591,7.2553774439097909,7.2251552048134409,7.1949329657176957,7.1647107266225589,7.1344884875280368,7.0190107842432869,6.8466947617417633,6.674378739240888,6.502062716740638,6.3297466942410363,6.1574306717420679,5.9851146492437373,5.8127986267460541,5.6404826042489935,5.4681665817525769,5.2958505592568077,5.1235345367616709,4.951218514267171,4.7789024917733149,4.6065864692800895,4.4342704467875071,4.2619544242955572,4.0896384018042529,3.9173223793135841,3.7450063568235588,3.4654586561906005,3.1399530741060668,2.8144474920221634,2.4889419099388874,2.1634363278562359,1.837930745774226,1.5124251636928421,1.1869195816120777,0.8614139995319563,0.53590841745245366,0.21040283537358734,-0.11510274670465209,-0.44060832878225659,-0.76611391085924208,-1.0916194929355851,-1.4171250750113074,-1.7426306570863963,-2.068136239160852,-2.3936418212346866,-2.7191474033078835,-3.1731740055358792,-3.6593323813076157,-4.1454907570786768,-4.6316491328490592,-5.1178075086187649,-5.60396588438779,-6.0901242601561449,-6.5762826359238185,-7.0624410116908125,-7.5485993874571466,-8.0347577632227747,-8.5209161389877455,-9.0070745147520253,-9.4932328905156425,-9.9793912662785722,-10.465549642040839,-10.951708017802412,-11.437866393563317,-11.924024769323536,-12.410183145083082,-13.044856910762183,-13.696033946203231,-14.347210981643592,-14.998388017083251,-15.649565052522226,-16.300742087960522,-16.951919123398103,-17.603096158834987,-18.254273194271214,-18.905450229706716,-19.556627265141557,-20.207804300575688,-20.858981336009137,-21.5101583714419,-22.161335406873949,-22.812512442305319,-23.463689477736011,-24.114866513165975,-24.766043548595306,-25.417220584023877,0,0.014237328831309366,0.038916954329308591,0.079515592624719272,0.13952492489229562,0.219287947034559,0.31890794775172948,0.438315100158067,0.57725025273134145,0.73519177183448681,0.85247946637685956,1.1248616418182462
DP 147,115.04283454036359,0.0014976956953810729,-14.610839619453785,-14.355435561127132,-14.100031502800155,-13.844627444472836,-13.589223386145195,-13.333819327817212,-13.0784152694889,-12.823011211160269,-12.567607152831282,-12.312203094501967,-12.056799036172327,-11.801394977842358,-11.545990919512045,-11.29058686118141,-11.035182802850438,-10.779778744519142,-10.524374686187501,-10.268970627855541,-10.013566569523249,-9.7581625111906121,-9.50461571745645,-9.2677844806678,-9.03095324387881,-8.7941220070894861,-8.5572907702998027,-8.3204595335097888,-8.0836282967194322,-7.8467970599287264,-7.6099658231376823,-7.3731345863462874,-7.13630334955456,-6.89947211276249,-6.6626408759700686,-6.42580963917731,-6.18897840238421,-5.9521471655907625,-5.7153159287969793,-5.4784846920028469,-5.2416534552083753,-5.0048222184135582,-4.77563913615429,-4.5770490335006331,-4.3784589308466044,-4.1798688281922,-3.9812787255374307,-3.7826886228822869,-3.5840985202267714,-3.3855084175708816,-3.1869183149146179,-2.9883282122579828,-2.7897381096009775,-2.5911480069435964,-2.3925579042858436,-2.1939678016277209,-1.9953776989692247,-1.7967875963103543,-1.5981974936511132,-1.3996073909915014,-1.201017288331516,-1.0024271856711595,-0.82066765712693834,-0.67817999847621047,-0.5356923398250989,-0.39320468117360896,-0.25071702252173828,-0.10822936386948653,0.034258294783145307,0.17674595343615823,0.319233612089551,0.46172127074332503,0.60420892939747806,0.74669658805201156,0.88918424670692719,1.0316719053622225,1.174159564017899,1.3166472226739552,1.4591348813303926,1.6016225399872117,1.7441101986444103,1.8865978573019877,2.0001002752143378,2.0701241470690337,2.1401480189241342,2.2101718907796415,2.2801957626355516,2.3502196344918644,2.4202435063485841,2.4902673782057088,2.5602912500632367,2.6303151219211678,2.7003389937795053,2.7703628656382446,2.8403867374973908,2.91041060935694,2.9804344812168981,3.0504583530772575,3.1204822249380193,3.1905060967991878,3.2605299686607605,3.3305538405227355,3.3231974801116242,3.306249997162261,3.2893025142133148,3.2723550312647913,3.2554075483166889,3.2384600653690039,3.2215125824217439,3.2045650994748995,3.1876176165284758,3.1706701335824712,3.15372265063689,3.1367751676917313,3.1198276847469897,3.1028802018026673,3.0859327188587655,3.0689852359152816,3.0520377529722191,3.0350902700295825,2.9585984997782004,2.8424095999441743,2.7262207001106029,2.610031800277484,2.4938429004448226,2.3776540006126181,2.2614651007808662,2.1452762009495738,2.029087301118734,1.9128984012883503,1.7967095014584251,1.6805206016289547,1.5643317017999394,1.4481428019713825,1.3319539021432756,1.2157650023156275,1.0995761024884336,0.983387202661698,0.86719830283541821,0.7510094030095944,0.55845758365383624,0.33317776764791768,0.10789795164244848,-0.1173818643625671,-0.34266168036713762,-0.56794149637124758,-0.79322131237490823,-1.0185011283781265,-1.2437809443808836,-1.4690607603831987,-1.6943405763850561,-1.9196203923864654,-2.14490020838742,-2.3701800243879294,-2.5954598403879805,-2.8207396563875857,-3.0460194723867371,-3.2712992883854368,-3.49657910438369,-3.7218589203814858,-4.0400925910609118,-4.3815658236816377,-4.7230390563018645,-5.06451228892158,-5.4059855215407921,-5.747458754159501,-6.0889319867777134,-6.4304052193954035,-6.7718784520126079,-7.1133516846293068,-7.4548249172454861,-7.7962981498611752,-8.1377713824763411,-8.4792446150910212,-8.82071784770519,-9.16219108031886,-9.5036643129320133,-9.84513754554467,-10.186610778156824,-10.528084010768474,-10.978070168603455,-11.440114457778151,-11.902158746952319,-12.364203036125957,-12.826247325299084,-13.288291614471683,-13.750335903643769,-14.212380192815306,-14.67442448198636,-15.136468771156869,-15.598513060326857,-16.060557349496349,-16.5226016386653,-16.984645927833736,-17.446690217001642,-17.908734506169033,-18.370778795335905,-18.83282308450223,-19.294867373668076,-19.756911662833364,0,0.012531132701489261,0.031293389133990754,0.060750311152075541,0.1041125827218651,0.1616232801077066,0.23333443192138587,0.31919299097159093,0.41902769921331551,0.532492175743576,0.61660084705723961,0.81237350899487815
DP 148,203.97856822383477,0.0021159075788836851,-30.217971400835019,-29.599884289242297,-28.981797177648708,-28.363710066054168,-27.745622954458746,-27.127535842862393,-26.509448731265127,-25.891361619666935,-25.273274508067853,-24.655187396467845,-24.037100284866931,-23.419013173265117,-22.80092606166237,-22.182838950058727,-21.564751838454164,-20.946664726848695,-20.32857761524231,-19.710490503635022,-19.0924033920268,-18.474316280417678,-17.860961955446918,-17.290203157592053,-16.719444359736265,-16.148685561879557,-15.577926764021944,-15.007167966163399,-14.436409168303934,-13.865650370443548,-13.294891572582237,-12.724132774720029,-12.153373976856876,-11.582615178992814,-11.011856381127819,-10.441097583261911,-9.8703387853950915,-9.2995799875273413,-8.7288211896586745,-8.158062391789084,-7.5873035939185671,-7.0165447960471541,-6.4650979565193785,-5.9908998630790142,-5.5167017696377041,-5.0425036761954551,-4.5683055827522736,-4.0941074893081488,-3.619909395863087,-3.1457113024170846,-2.6715132089701421,-2.1973151155222603,-1.723117022073438,-1.2489189286236724,-0.77472083517297163,-0.30052274172132964,0.17367535173125256,0.6478734451847743,1.1220715386392344,1.5962696320946328,2.070467725550968,2.544665819008245,2.9770043447007075,3.3116692267186032,3.6463341087374617,3.980998990757266,4.31566387277803,4.6503287547997472,4.9849936368224226,5.3196585188460537,5.6543234008706404,5.9889882828961811,6.3236531649226757,6.6583180469501251,6.9929829289785328,7.3276478110079,7.6623126930382153,7.9969775750694865,8.3316424571017169,8.6663073391349013,9.0009722211690413,9.3356371032041388,9.5995741489226525,9.7574177688221528,9.91526138872264,10.073105008624097,10.230948628526537,10.388792248429949,10.546635868334326,10.704479488239684,10.862323108146022,11.020166728053329,11.178010347961621,11.335853967870886,11.493697587781122,11.651541207692325,11.809384827604518,11.967228447517686,12.125072067431832,12.282915687346946,12.440759307263024,12.598602927180098,12.553028096171055,12.503229047251839,12.4534299983336,12.403630949416359,12.353831900500113,12.304032851584857,12.254233802670603,12.204434753757329,12.154635704845051,12.10483665593377,12.055037607023483,12.005238558114186,11.955439509205886,11.905640460298583,11.855841411392259,11.806042362486938,11.756243313582598,11.706444264679273,11.517588485730144,11.236026029424279,10.954463573119456,10.672901116815668,10.391338660512924,10.109776204211212,9.82821374791055,9.546651291610921,9.2650888353123371,8.9835263790147781,8.7019639227182779,8.42040146642282,8.1388390101283914,7.85727655383501,7.575714097542658,7.2941516412513581,7.0125891849610849,6.7310267286718632,6.4494642723836817,6.1679018160965384,5.7116178568801148,5.1804508942664631,4.6492839316538452,4.1181169690422532,3.5869500064316773,3.0557830438221476,2.5246160812136353,1.9934491186061323,1.4622821559996804,0.93111519339423321,0.39994823078982428,-0.13121873181356353,-0.66238569441591666,-1.1935526570172619,-1.7247196196175603,-2.2558865822168461,-2.7870535448151004,-3.3182205074123208,-3.8493874700085309,-4.380554432603704,-5.1209533739361461,-5.9136627820762531,-6.7063721902152746,-7.499081598353178,-8.2917910064899836,-9.0845004146256869,-9.8772098227602978,-10.669919230893788,-11.462628639026171,-12.255338047157483,-13.048047455287668,-13.84075686341675,-14.633466271544705,-15.426175679671616,-16.218885087797375,-17.011594495922054,-17.804303904045621,-18.5970133121681,-19.389722720289456,-20.182432128409719,-21.216791286944716,-22.278002955654994,-23.339214624364178,-24.400426293072208,-25.461637961779132,-26.522849630484895,-27.584061299189564,-28.645272967893074,-29.706484636595498,-30.767696305296774,-31.828907973996959,-32.890119642696,-33.9513313113939,-35.012542980090693,-36.07375464878632,-37.134966317480881,-38.19617798617427,-39.257389654866529,-40.318601323557729,-41.379812992247714,0,0.023132712973391915,0.0633086177634129,0.12944052994267163,0.22719631300299015,0.35713540060726223,0.5194268785500703,0.71395708465622876,0.94030333585213066,1.1976151379417805,1.3886983881208388,1.832442900217836
DP 149,288.86006809060456,0.0038262455548572715,-68.26799525208591,-66.774358761405992,-65.28072227072397,-63.787085780039966,-62.293449289353873,-60.799812798665677,-59.306176307975441,-57.812539817283145,-56.318903326588774,-54.825266835892371,-53.331630345193894,-51.8379938544934,-50.344357363790763,-48.850720873086125,-47.357084382379391,-45.863447891670582,-44.369811400959769,-42.876174910246846,-41.3825384195319,-39.888901928814896,-38.407789738859933,-37.039397439631273,-35.671005140400496,-34.302612841167665,-32.934220541932788,-31.565828242695805,-30.19743594345676,-28.829043644215655,-27.460651344972455,-26.092259045727221,-24.723866746479917,-23.35547444723052,-21.987082147979052,-20.618689848725527,-19.250297549469934,-17.881905250212284,-16.513512950952535,-15.145120651690716,-13.776728352426838,-12.408336053160898,-11.090225340507102,-9.97324335068589,-8.85626136086259,-7.739279371037207,-6.62229738120975,-5.505315391380206,-4.38833340154858,-3.2713514117148645,-2.1543694218790765,-1.0373874320412009,0.079594557798762747,1.1965765476408172,2.3135585374849459,3.4305405273311607,4.5475225171794618,5.6645045070298456,6.7814864968823105,7.89846848673685,9.01545047659347,10.13243246645219,11.143276035042756,11.906459943185936,12.669643851331239,13.432827759478633,14.196011667628161,14.959195575779791,15.72237948393356,16.485563392089421,17.248747300247395,18.011931208407514,18.7751151165697,19.538299024734037,20.301482932900495,21.064666841069059,21.82785074923974,22.591034657412511,23.354218565587434,24.117402473764461,24.880586381943608,25.643770290124852,26.233765000022732,26.563971819923932,26.89417863982721,27.224385459732673,27.554592279640232,27.884799099549966,28.215005919461802,28.545212739375764,28.875419559291927,29.20562637921017,29.53583319913059,29.866040019053113,30.196246838977817,30.526453658904611,30.856660478833589,31.186867298764682,31.517074118697913,31.847280938633272,32.177487758570805,32.507694578510431,32.278310088067506,32.120514005370865,31.962717922676411,31.804921839984104,31.647125757294,31.48932967460604,31.331533591920238,31.173737509236613,31.015941426555116,30.858145343875819,30.700349261198713,30.542553178523722,30.384757095850905,30.226961013180272,30.069164930511796,29.91136884784547,29.753572765181328,29.595776682519329,29.125154337989695,28.445976224040425,27.766798110093397,27.087619996148582,26.408441882206034,25.729263768265735,25.05008565432766,24.370907540391848,23.691729426458274,23.012551312526956,22.333373198597894,21.65419508467107,20.975016970746488,20.295838856824162,19.61666074290406,18.937482628986228,18.258304515070627,17.579126401157293,16.899948287246193,16.220770173337353,15.164765511901223,13.94725867033525,12.729751828771473,11.512244987209924,10.294738145650557,9.077231304093452,7.859724462538547,6.6422176209858215,5.4247107794353555,4.2072039378870612,2.9896970963410112,1.7721902547971573,0.55468341325553794,-0.66282342828390672,-1.88033026982109,-3.0978371113560925,-4.3153439528888615,-5.5328507944194136,-6.7503576359477782,-7.9678644774739089,-9.6209079436625355,-11.382840711980899,-13.144773480296916,-14.906706248610568,-16.668639016921873,-18.430571785230818,-20.192504553537443,-21.954437321841677,-23.71637009014357,-25.47830285844314,-27.240235626740304,-29.002168395035159,-30.764101163327624,-32.526033931617768,-34.287966699905546,-36.049899468190986,-37.811832236474025,-39.573765004754769,-41.335697773033132,-43.097630541309144,-45.350743066886629,-47.658436279628894,-49.966129492368793,-52.273822705106248,-54.58151591784128,-56.88920913057401,-59.196902343304281,-61.504595556032122,-63.812288768757639,-66.1199819814807,-68.427675194201427,-70.735368406919847,-73.043061619635751,-75.350754832349324,-77.658448045060467,-79.966141257769181,-82.27383447047562,-84.581527683179544,-86.889220895881166,-89.196914108580273,0,0.047377630687120885,0.13252866435786662,0.27438776615354549,0.48432460844206349,0.76357072220351274,1.1125212268445375,1.530936588557348,2.0178915732289537,2.5715233839650029,2.9827523075129796,3.9370392292826568
DP 150,86.111460394691107,0.0028550759251565094,-22.192846894622381,-21.855422032792607,-21.517997170962456,-21.180572309132,-20.843147447301156,-20.505722585470014,-20.168297723638489,-19.830872861806643,-19.493447999974457,-19.156023138141904,-18.818598276309025,-18.481173414475784,-18.143748552642215,-17.806323690808288,-17.46889882897403,-17.131473967139428,-16.794049105304477,-16.456624243469175,-16.119199381633553,-15.781774519797558,-15.446791902938241,-15.13378972172316,-14.820787540507697,-14.507785359291869,-14.194783178075683,-13.881780996859108,-13.56877881564219,-13.255776634424871,-12.942774453207221,-12.629772271989188,-12.316770090770785,-12.00376790955201,-11.69076572833287,-11.377763547113354,-11.064761365893478,-10.751759184673228,-10.438757003452622,-10.125754822231636,-9.8127526410102828,-9.4997504597885651,-9.1968076202849165,-8.934102623073148,-8.6713976258609318,-8.4086926286482733,-8.1459876314351742,-7.8832826342216427,-7.6205776370076688,-7.3578726397932419,-7.0951676425783932,-6.8324626453630977,-6.5697576481473616,-6.3070526509311913,-6.0443476537145768,-5.7816426564975307,-5.5189376592800308,-5.2562326620621045,-4.9935276648437315,-4.7308226676249232,-4.4681176704056771,-4.2054126731859887,-3.9648779018847375,-3.7760743562546639,-3.5872708106241289,-3.398467264993144,-3.2096637193617115,-3.020860173729826,-2.8320566280974857,-2.6432530824646934,-2.4544495368314521,-2.2656459911977578,-2.0768424455636136,-1.888038899929017,-1.6992353542939653,-1.5104318086584647,-1.321628263022512,-1.1328247173861061,-0.9440211717492496,-0.75521762611194,-0.56641408047418,-0.3776105348359689,-0.22704457720458288,-0.13383590516209748,-0.040627233119107257,0.05258143892439069,0.14579011096839534,0.23899878301290672,0.33220745505792371,0.42541612710344745,0.51862479914947668,0.6118334711960145,0.70504214324305658,0.79825081529060615,0.89145948733866143,0.984668159387222,1.0778768314362923,1.1710855034858652,1.2642941755359445,1.3575028475865327,1.450711519637629,1.5439201916892265,1.5361430991722687,1.5143903104295193,1.4926375216873098,1.4708847329456352,1.4491319442045023,1.4273791554639073,1.4056263667238558,1.3838735779843381,1.3621207892453604,1.3403680005069223,1.3186152117690253,1.296862423031667,1.2751096342948456,1.253356845558564,1.2316040568228221,1.2098512680876197,1.1880984793529579,1.1663456906188341,1.0657445016185627,0.912576470285974,0.75940843895399668,0.60624040762262366,0.45307237629186048,0.29990434496170265,0.14673631363215903,-0.0064317176967774847,-0.15959974902510868,-0.31276778035282904,-0.46593581167993525,-0.61910384300643939,-0.7722718743323338,-0.92543990565761525,-1.0786079369822945,-1.23177596830636,-1.3849439996298203,-1.538112030952671,-1.6912800622749093,-1.844448093596541,-2.0989204568132283,-2.3968103301947572,-2.6947002035756831,-2.9925900769560023,-3.2904799503357234,-3.5883698237148272,-3.8862596970933327,-4.1841495704712424,-4.4820394438485351,-4.7799293172252346,-5.0778191906013221,-5.3757090639768057,-5.6735989373516835,-5.9714888107259627,-6.2693786840996246,-6.5672685574727,-6.8651584308451561,-7.1630483042170123,-7.460938177588269,-7.7588280509589076,-8.1801882477876866,-8.6324174843108636,-9.0846467208333355,-9.5368759573551038,-9.989105193876167,-10.441334430396523,-10.893563666916185,-11.345792903435129,-11.798022139953369,-12.250251376470928,-12.702480612987742,-13.154709849503883,-13.606939086019292,-14.059168322534024,-14.511397559048037,-14.963626795561332,-15.415856032073922,-15.868085268585849,-16.320314505097041,-16.772543741607535,-17.369041460107834,-17.981570525108367,-18.594099590108158,-19.206628655107192,-19.819157720105522,-20.431686785103096,-21.044215850099931,-21.656744915096006,-22.269273980091377,-22.881803045086009,-23.494332110079874,-24.106861175073035,-24.71939024006543,-25.3319193050571,-25.944448370048008,-26.556977435038242,-27.169506500027673,-27.782035565016372,-28.394564630004371,-29.007093694991561,0,0.021160056802299293,0.0482487912981772,0.088293767575996163,0.14680200085210476,0.22417353513169783,0.32046770454369189,0.435620486900452,0.5694371286274732,0.72150497979129335,0.83380527573249474,1.0957335967309874
DP 151,63.428332258443319,0.0013365776284911489,-8.0106740150303057,-7.9145901838314225,-7.8185063526324994,-7.7224225214335291,-7.6263386902345216,-7.5302548590354732,-7.4341710278363839,-7.3380871966372432,-7.2420033654380678,-7.1459195342388577,-7.0498357030395962,-6.9537518718402973,-6.8576680406409558,-6.7615842094415752,-6.6655003782421494,-6.5694165470426826,-6.473332715843175,-6.3772488846436293,-6.2811650534440364,-6.1850812222444054,-6.0896918791362307,-6.0005529944974594,-5.9114141098586357,-5.8222752252197632,-5.7331363405808338,-5.6439974559418467,-5.55485857130281,-5.4657196866637126,-5.3765808020245665,-5.2874419173853653,-5.1983030327461064,-5.1091641481067933,-5.0200252634674252,-4.9308863788280037,-4.8417474941885317,-4.7526086095489966,-4.6634697249094135,-4.5743308402697744,-4.4851919556300812,-4.3960530709903329,-4.30977194046087,-4.2349219614341287,-4.1600719824072945,-4.0852220033803643,-4.0103720243533436,-3.935522045326227,-3.860672066299017,-3.7858220872717117,-3.7109721082443134,-3.6361221292168229,-3.5612721501892373,-3.4864221711615562,-3.4115721921337827,-3.3367222131059142,-3.2618722340779556,-3.1870222550498983,-3.1121722760217474,-3.0373222969935054,-2.9624723179651724,-2.8876223389367386,-2.8190744093467659,-2.7652314603415764,-2.7113885113362834,-2.657545562330895,-2.6037026133254106,-2.549859664319825,-2.4960167153141435,-2.442173766308362,-2.3883308173024833,-2.3344878682965087,-2.280644919290431,-2.22680197028426,-2.1729590212779875,-2.11911607227162,-2.0652731232651553,-2.0114301742585878,-1.9575872252519262,-1.9037442762451642,-1.849901327238304,-1.7960583782313473,-1.7530846915806189,-1.7264151553118272,-1.6997456190429114,-1.6730760827738653,-1.6464065465046926,-1.6197370102353923,-1.5930674739659656,-1.5663979376964106,-1.5397284014267292,-1.51305886515692,-1.4863893288869843,-1.4597197926169214,-1.4330502563467311,-1.4063807200764122,-1.3797111838059677,-1.3530416475353957,-1.3263721112646958,-1.2997025749938673,-1.2730330387229134,-1.2463635024518327,-1.2480975358485238,-1.2541251182727755,-1.2601527006968836,-1.2661802831208484,-1.2722078655446691,-1.2782354479683478,-1.2842630303918809,-1.2902906128152731,-1.2963181952385194,-1.3023457776616234,-1.3083733600845824,-1.3144009425073986,-1.3204285249300729,-1.3264561073526016,-1.332483689774987,-1.33851127219723,-1.3445388546193284,-1.3505664370412829,-1.3790266537517628,-1.4224423133851491,-1.4658579730183585,-1.5092736326513929,-1.5526892922842503,-1.596104951916931,-1.6395206115494318,-1.6829362711817593,-1.72635193081391,-1.7697675904458836,-1.8131832500776779,-1.8565989097092988,-1.9000145693407413,-1.9434302289720056,-1.9868458886030957,-2.0302615482340065,-2.0736772078647436,-2.1170928674953027,-2.1605085271256836,-2.2039241867558879,-2.2761793356780036,-2.3607946551481787,-2.44540997461818,-2.530025294088,-2.6146406135576492,-2.6992559330271182,-2.78387125249641,-2.8684865719655295,-2.9531018914344682,-3.037717210903232,-3.1223325303718186,-3.2069478498402288,-3.2915631693084659,-3.3761784887765249,-3.4607938082443996,-3.5454091277121078,-3.6300244471796348,-3.7146397666469837,-3.7992550861141594,-3.8838704055811579,-4.0036390358797007,-4.1321964092304553,-4.2607537825809878,-4.38931115593129,-4.5178685292813752,-4.6464259026312318,-4.7749832759808708,-4.9035406493302842,-5.0320980226794774,-5.1606553960284476,-5.2892127693771886,-5.4177701427257157,-5.5463275160740109,-5.6748848894220911,-5.8034422627699405,-5.93199963611757,-6.0605570094649819,-6.1891143828121624,-6.3176717561591289,-6.446229129505868,-6.6158751338821746,-6.7900869732362112,-6.964298812590008,-7.1385106519435562,-7.3127224912968662,-7.486934330649941,-7.6611461700027794,-7.8353580093553719,-8.0095698487077343,-8.1837816880598488,-8.3579935274117343,-8.5322053667633675,-8.7064172061147733,-8.8806290454659429,-9.0548408848168638,-9.2290527241675449,-9.4032645635179932,-9.5774764028681982,-9.7516882422181812,-9.9259000815678942,0,0.00914873160880996,0.018539815692875054,0.030785390243592482,0.048175687157811363,0.07093134666136619,0.099099734575117046,0.13268708862048137,0.17167442365414037,0.21598100230109243,0.248262832195049,0.32372258673190552
DP 152,139.56679378877166,0.0036386411068421139,-40.708140120360163,-39.9488269455804,-39.189513770799579,-38.430200596017706,-37.67088742123476,-36.9115742464507,-36.152261071665592,-35.392947896879441,-34.633634722092225,-33.874321547303907,-33.115008372514545,-32.355695197724117,-31.596382022932602,-30.837068848140028,-30.077755673346381,-29.318442498551686,-28.559129323755915,-27.799816148959057,-27.040502974161143,-26.281189799362163,-25.52744374473534,-24.823802297894677,-24.120160851052926,-23.416519404210089,-22.712877957366153,-22.009236510521109,-21.305595063674993,-20.601953616827803,-19.89831216997954,-19.194670723130127,-18.491029276279672,-17.787387829428095,-17.083746382575452,-16.38010493572169,-15.676463488866878,-14.972822042010954,-14.269180595153948,-13.565539148295843,-12.861897701436652,-12.158256254576379,-11.477509953206999,-10.88834531586089,-10.299180678513636,-9.7100160411652379,-9.1208514038156867,-8.53168676646499,-7.9425221291131418,-7.3533574917601525,-6.7641928544060193,-6.1750282170507234,-5.5858635796942879,-4.9966989423366943,-4.4075343049779558,-3.8183696676180734,-3.2292050302570394,-2.6400403928948557,-2.0508757555315253,-1.4617111181670495,-0.87254648080142816,-0.28338184343465489,0.255523120703373,0.67715393041803884,1.0987847401338806,1.5204155498508911,1.942046359569072,2.3636771692884224,2.7853079790089468,3.2069387887306404,3.6285695984535109,4.0502004081775409,4.4718312179027508,4.8934620276291243,5.3150928373566737,5.736723647085392,6.1583544568152826,6.5799852665463483,7.0016160762785837,7.4232468860119836,7.8448776957465611,8.2665085054823066,8.60183510957077,8.8077033657646133,9.0135716219596684,9.2194398781559528,9.4253081343534575,9.6311763905521772,9.8370446467521315,10.042912902953288,10.248781159155678,10.454649415359283,10.660517671564113,10.866385927770157,11.072254183977439,11.278122440185934,11.483990696395635,11.689858952606574,11.89572720881873,12.101595465032092,12.307463721246698,12.513331977462519,12.485739941122164,12.433528987464387,12.38131803380786,12.329107080152589,12.276896126498574,12.224685172845803,12.172474219194326,12.120263265544061,12.068052311895077,12.015841358247341,11.963630404600877,11.911419450955654,11.859208497311691,11.806997543668979,11.754786590027535,11.702575636387337,11.650364682748398,11.598153729110724,11.369842960588926,11.024129541252137,10.678416121916685,10.33270270258258,9.98698928324981,9.6412758639183753,9.2955624445882954,8.9498490252595548,8.6041356059321448,8.258422186606083,7.9127087672813721,7.56699534795799,7.2212819286359453,6.8755685093152659,6.5298550899959036,6.1841416706778904,5.8384282513612158,5.4927148320458823,5.1470014127318988,4.8012879934192529,4.2304367871209472,3.5630949177672075,2.895753048414794,2.2284111790637153,1.5610693097139408,0.89372744036552132,0.22638557101841936,-0.44095629832738081,-1.1082981676718271,-1.7756400370149712,-2.4429819063567737,-3.1103237756972604,-3.7776656450364086,-4.4450075143742467,-5.112349383710745,-5.7796912530459261,-6.4470331223797768,-7.1143749917122934,-7.7817168610435061,-8.4490587303733733,-9.389795566701018,-10.398884375001703,-11.407973183300944,-12.41706199159872,-13.426150799895053,-14.435239608189908,-15.44432841648335,-16.453417224775276,-17.462506033065775,-18.47159484135485,-19.480683649642419,-20.489772457928563,-21.498861266213218,-22.50795007449646,-23.51703888277822,-24.526127691058523,-25.535216499337366,-26.544305307614763,-27.553394115890704,-28.562482924165188,-29.890218372138708,-31.253362348861593,-32.616506325583011,-33.979650302302858,-35.34279427902127,-36.705938255738175,-38.069082232453567,-39.432226209167418,-40.795370185879854,-42.158514162590791,-43.521658139300207,-44.884802116008146,-46.247946092714535,-47.611090069419504,-48.974234046122916,-50.337378022824851,-51.700521999525293,-53.063665976224229,-54.426809952921722,-55.789953929617624,0,0.03340551645333386,0.087025986526686666,0.17312284337970213,0.300122096938422,0.4687278949934105,0.67912080568618116,0.931147589678229,1.2242829308880143,1.5574691211017546,1.8047003489662237,2.3795876323868796
DP 153,134.51020463609964,0.0038361441697394721,-41.845699967665524,-41.073806408163094,-40.3019128486597,-39.530019289155149,-38.758125729649549,-37.986232170142905,-37.214338610635089,-36.442445051126263,-35.6705514916164,-34.898657932105436,-34.126764372593378,-33.354870813080289,-32.582977253566092,-31.811083694050808,-31.039190134534497,-30.267296575017081,-29.495403015498589,-28.72350945597903,-27.951615896458382,-27.179722336936685,-26.413476834132286,-25.698064375670945,-24.982651917208475,-24.267239458744921,-23.551827000280259,-22.836414541814506,-22.121002083347658,-21.405589624879713,-20.690177166410674,-19.974764707940565,-19.259352249469305,-18.543939790996976,-17.828527332523539,-17.113114874049014,-16.3977024155734,-15.682289957096671,-14.966877498618876,-14.251465040139948,-13.536052581659945,-12.820640123178844,-12.128461593501601,-11.529219877110947,-10.929978160719118,-10.330736444326138,-9.7314947279319952,-9.1322530115366831,-8.5330112951402253,-7.9337695787425888,-7.3345278623438066,-6.73528614594386,-6.13604442954274,-5.5368027131404629,-4.9375609967370275,-4.3383192803324322,-3.7390775639266707,-3.1398358475197483,-2.54059413111167,-1.9413524147024277,-1.3421106982920266,-0.74286898188046291,-0.19466405151256505,0.23445343671228711,0.66357092493832948,1.0926884131655528,1.5218059013939602,1.9509233896235534,2.3800408778543289,2.8091583660862955,3.2382758543194403,3.6673933425537739,4.0965108307892883,4.5256283190259836,4.9547458072638708,5.3838632955029411,5.8129807837432033,6.2420982719846378,6.6712157602272608,7.1003332484710695,7.5294507367160639,7.9585682249622485,8.299982219662235,8.50983890155318,8.7196955834453647,8.92955226533878,9.13940894723344,9.3492656291293468,9.55912231102649,9.7689789929248576,9.9788356748244826,10.18869235672534,10.398549038627438,10.608405720530767,10.818262402435344,11.028119084341157,11.237975766248201,11.44783244815649,11.657689130066034,11.867545811976795,12.077402493888808,12.287259175802038,12.260623966252819,12.207998049847726,12.155372133443912,12.102746217041378,12.050120300640122,11.99749438424014,11.944868467841438,11.892242551444008,11.839616635047877,11.786990718652994,11.734364802259394,11.681738885867086,11.629112969476035,11.576487053086279,11.523861136697793,11.471235220310584,11.418609303924651,11.365983387539996,11.134097077086885,10.782701013238375,10.431304949391235,10.079908885545436,9.7285128217010239,9.3771167578579622,9.0257206940162789,8.6743246301759687,8.322928566337005,7.9715325024994153,7.620136438663212,7.2687403748283428,6.9173443109948511,6.56594824716274,6.2145521833319766,5.8631561195025883,5.5117600556745572,5.1603639918478983,4.808967928022609,4.4575718641986928,3.8768196324730235,3.1977688031951756,2.5187179739186769,1.8396671446435395,1.1606163153697338,0.48156548609730737,-0.19748534317377392,-0.87653617244352844,-1.5555870017119038,-2.2346378309789503,-2.9136886602446284,-3.5927394895089644,-4.271790318771937,-4.9508411480335761,-5.62989197729384,-6.3089428065527686,-6.98799363581034,-7.6670444650665557,-8.3460952943214277,-9.0251461235749417,-9.9828868395188,-11.010303319919526,-12.037719800318774,-13.065136280716528,-14.092552761112804,-15.119969241507572,-16.147385721900903,-17.174802202292678,-18.202218682683,-19.229635163071841,-20.257051643459157,-21.284468123845016,-22.311884604229345,-23.339301084612238,-24.366717564993625,-25.394134045373512,-26.421550525751911,-27.448967006128839,-28.476383486504258,-29.503799966878219,-30.856162989391077,-32.244634595977494,-33.633106202562431,-35.021577809145739,-36.410049415727634,-37.798521022307931,-39.1869926288867,-40.575464235463933,-41.963935842039668,-43.352407448613818,-44.740879055186461,-46.129350661757606,-47.517822268327208,-48.906293874895269,-50.294765481461766,-51.6832370880268,-53.071708694590264,-54.460180301152157,-55.848651907712629,-57.237123514271424,0,0.034593102388016092,0.089490904188294668,0.17732380588763774,0.30684380461392757,0.47876833775201544,0.69327633001668332,0.95021099358791439,1.2490402063891628,1.588692313018774,1.8406852733104266,2.42674407990931
DP 154,190.96818901149072,0.0057570107999876932,-78.902993003591888,-77.31140998698838,-75.719826970382542,-74.128243953774316,-72.5366609371638,-70.945077920550929,-69.353494903935655,-67.761911887318078,-66.170328870698128,-64.578745854075834,-62.98716283745118,-61.3955798208242,-59.803996804194867,-58.212413787563193,-56.620830770929167,-55.029247754292761,-53.437664737653975,-51.846081721012922,-50.254498704369475,-48.662915687723718,-47.083383622415724,-45.6123112582746,-44.141238894131135,-42.670166529985309,-41.19909416583711,-39.728021801686509,-38.256949437533564,-36.785877073378238,-35.314804709220525,-33.84373234506041,-32.372659980897957,-30.901587616733128,-29.430515252565936,-27.95944288839635,-26.48837052422439,-25.017298160050057,-23.546225795873372,-22.075153431694293,-20.604081067512826,-19.133008703329011,-17.711213308124254,-16.486528117740985,-15.261842927355282,-14.037157736967165,-12.812472546576597,-11.587787356183608,-10.363102165788179,-9.1384169753903191,-7.9137317849900279,-6.6890465945873094,-5.4643614041821467,-4.2396762137745432,-3.0149910233645145,-1.79030583295205,-0.56562064253715272,0.65906454788017987,1.8837497382999402,3.1084349287221347,4.3331201191467521,5.5578053095738076,6.6753351355008279,7.5428324013975709,8.41032966729679,9.2778269331984831,10.145324199102646,11.012821465009301,11.880318730918423,12.747815996830003,13.615313262744072,14.482810528660622,15.350307794579654,16.217805060501135,17.085302326425111,17.952799592351564,18.820296858280475,19.68779412421188,20.555291390145765,21.422788656082112,22.290285922020946,23.157783187962227,23.843461310847342,24.256406422645256,24.66935153444571,25.082296646248714,25.495241758054245,25.908186869862288,26.321131981672874,26.734077093486025,27.147022205301678,27.559967317119867,27.972912428940571,28.385857540763844,28.798802652589647,29.211747764417943,29.624692876248808,30.0376379880822,30.450583099918141,30.863528211756602,31.276473323597607,31.68941843544113,31.587370842923804,31.463961769612634,31.340552696304073,31.217143622998027,31.093734549694631,30.970325476393793,30.846916403095545,30.723507329799887,30.600098256506783,30.476689183216276,30.353280109928381,30.229871036643051,30.106461963360289,29.983052890080153,29.859643816802549,29.736234743527532,29.61282567025513,29.489416596985279,29.005027558530355,28.279979523177964,27.554931487828295,26.829883452481354,26.104835417137085,25.379787381795548,24.654739346456726,23.929691311120614,23.204643275787202,22.479595240456511,21.754547205128532,21.029499169803263,20.304451134480722,19.579403099160906,18.854355063843762,18.12930702852935,17.404258993217631,16.679210957908658,15.954162922602372,15.229114887298827,14.048402866427988,12.672400127430544,11.296397388435775,9.9203946494436881,8.5443919104542339,7.1683891714675223,5.7923864324834664,4.4163836935020448,3.0403809545233509,1.6643782155472915,0.28837547657393831,-1.0876272623967551,-2.4636300013647481,-3.8396327403301105,-5.2156354792927457,-6.5916382182527355,-7.9676409572100315,-9.34364369616464,-10.719646435116609,-12.095649174065882,-14.019375317492033,-16.080038783513821,-18.140702249532755,-20.201365715548786,-22.262029181561932,-24.322692647572183,-26.383356113579591,-28.444019579584062,-30.504683045585679,-32.565346511584444,-34.626009977580217,-36.686673443573234,-38.747336909563238,-40.808000375550463,-42.868663841534747,-44.929327307516182,-46.989990773494675,-49.050654239470312,-51.111317705443092,-53.171981171412973,-55.866796147988367,-58.632079063644959,-61.397361979298637,-64.162644894949267,-66.9279278105971,-69.693210726241915,-72.458493641883692,-75.223776557522612,-77.989059473158619,-80.754342388791557,-83.519625304421666,-86.284908220048791,-89.050191135673018,-91.815474051294231,-94.580756966912418,-97.346039882527862,-100.11132279814022,-102.87660571374961,-105.64188862935626,-108.40717154495962,0,0.061194286903348612,0.16644947841081498,0.33915979862399093,0.59438848744836636,0.93358744468139354,1.3571876647803882,1.8648908725316082,2.4555995461586755,3.1271046446645081,3.6257333651076751,4.7838869273439819
DP 155,66.0358774996156,0.0022900587096987717,-14.209661400354534,-14.032559611966867,-13.855457823579103,-13.678356035191245,-13.501254246803304,-13.32415245841525,-13.147050670027115,-12.969948881638881,-12.792847093250549,-12.615745304862136,-12.438643516473608,-12.261541728084998,-12.084439939696281,-11.907338151307481,-11.730236362918586,-11.553134574529587,-11.3760327861405,-11.198930997751306,-11.021829209362021,-10.844727420972651,-10.668905745465226,-10.504605206897809,-10.340304668330274,-10.17600412976263,-10.011703591194857,-9.8474030526269782,-9.683102514058973,-9.5188019754908559,-9.3545014369226234,-9.1902008983542736,-9.0259003597858065,-8.8615998212172133,-8.6972992826485136,-8.5329987440796931,-8.3686982055107624,-8.2043976669417,-8.040097128372528,-7.8757965898032465,-7.7114960512338424,-7.5471955126643184,-7.3881645419811068,-7.2502120918905471,-7.1122596417997981,-6.9743071917088724,-6.8363547416177548,-6.6984022915264569,-6.5604498414349788,-6.422497391343315,-6.2845449412514762,-6.146592491159443,-6.0086400410672338,-5.8706875909748373,-5.7327351408822596,-5.5947826907894971,-5.4568302406965543,-5.3188777906034241,-5.1809253405101154,-5.04297289041662,-4.9050204403229429,-4.7670679902290827,-4.6407331919965351,-4.5415066141500287,-4.442280036303325,-4.3430534584564322,-4.2438268806093475,-4.14460030276208,-4.0453737249146133,-3.9461471470669576,-3.8469205692191117,-3.7476939913710781,-3.648467413522849,-3.5492408356744329,-3.4500142578258237,-3.3507876799770275,-3.2515611021280355,-3.1523345242788556,-3.0531079464294835,-2.9538813685799181,-2.8546547907301694,-2.7554282128802257,-2.6762426237386845,-2.6271189912410815,-2.5779953587432418,-2.5288717262451605,-2.47974809374684,-2.4306244612482764,-2.3815008287494757,-2.3323771962504352,-2.2832535637511562,-2.2341299312516312,-2.1850062987518726,-2.1358826662518706,-2.0867590337516289,-2.0376354012511482,-1.9885117687504268,-1.9393881362494649,-1.8902645037482626,-1.8411408712468209,-1.7920172387451387,-1.7428936062432179,-1.7462267603506541,-1.7573848624519373,-1.7685429645529547,-1.7797010666537032,-1.7908591687541833,-1.802017270854396,-1.8131753729543394,-1.824333475054019,-1.8354915771534275,-1.8466496792525702,-1.8578077813514433,-1.8689658834500484,-1.8801239855483878,-1.8912820876464576,-1.9024401897442618,-1.9135982918417953,-1.9247563939390633,-1.9359144960360608,-1.9884315276230662,-2.0685218304266724,-2.1486121332299519,-2.2287024360329086,-2.3087927388355425,-2.3888830416378504,-2.4689733444398323,-2.5490636472414923,-2.6291539500428249,-2.7092442528438352,-2.7893345556445159,-2.8694248584448756,-2.9495151612449106,-3.0296054640446193,-3.1096957668440033,-3.1897860696430631,-3.2698763724417996,-3.3499666752402084,-3.4300569780382908,-3.5101472808360543,-3.6434037123308585,-3.7994463454613494,-3.9554889785915135,-4.1115316117213556,-4.2675742448508744,-4.42361687798007,-4.579659511108936,-4.7357021442374867,-4.8917447773657061,-5.0477874104936085,-5.2038300436211786,-5.3598726767484317,-5.5159153098753553,-5.6719579430019591,-5.8280005761282361,-5.9840432092541915,-6.1400858423798255,-6.2961284755051325,-6.4521711086301172,-6.6082137417547706,-6.8290649750534769,-7.0661191241239747,-7.3031732731940675,-7.54022742226376,-7.7772815713330417,-8.0143357204019328,-8.2513898694704153,-8.4884440185384928,-8.72549816760616,-8.9625523166734364,-9.1996064657403078,-9.4366606148067671,-9.6737147638728249,-9.9107689129384759,-10.147823062003724,-10.38487721106857,-10.621931360133019,-10.858985509197069,-11.0960396582607,-11.333093807323932,-11.645897442442983,-11.967118482676566,-12.288339522909727,-12.609560563142447,-12.930781603374747,-13.252002643606616,-13.57322368383805,-13.894444724069039,-14.215665764299617,-14.536886804529766,-14.858107844759463,-15.179328884988747,-15.500549925217602,-15.821770965446024,-16.142992005674007,-16.464213045901566,-16.785434086128696,-17.106655126355385,-17.427876166581655,-17.749097206807487,0,0.015787314224122041,0.032491307451084035,0.054735319356490682,0.086518087177958045,0.12820617141936616,0.17987079319825661,0.24151119962643011,0.31307681049570152,0.39440487656711715,0.45383431818498315,0.59272922153275354
DP 156,156.58621926789024,0.0045837751537000969,-55.36555024531841,-54.299601927449082,-53.233653609578234,-52.1677052917059,-51.101756973831954,-50.035808655956508,-48.969860338079492,-47.903912020200927,-46.837963702320835,-45.772015384439221,-44.706067066556059,-43.640118748671355,-42.574170430785067,-41.508222112897251,-40.442273795007942,-39.376325477117085,-38.310377159224664,-37.244428841330688,-36.178480523435191,-35.112532205538145,-34.054464896817251,-33.067327415641486,-32.080189934464123,-31.093052453285186,-30.105914972104681,-29.118777490922625,-28.13164000973898,-27.14450252855379,-26.157365047367026,-25.1702275661787,-24.183090084988791,-23.195952603797355,-22.208815122604314,-21.221677641409713,-20.234540160213538,-19.247402679015838,-18.260265197816537,-17.273127716615686,-16.285990235413255,-15.298852754209273,-14.344079952597115,-13.518767398956776,-12.693454845314804,-11.868142291671205,-11.042829738025986,-10.217517184379131,-9.3922046307306442,-8.5668920770805226,-7.741579523428781,-6.9162669697754042,-6.0909544161203959,-5.2656418624637533,-4.4403293088054872,-3.6150167551455876,-2.7897042014840574,-1.9643916478208996,-1.1390790941561113,-0.31376654048969849,0.51154601317834192,1.3368585668480177,2.091299932228841,2.6803729586288894,3.2694459850306075,3.8585190114339802,4.4475920378390121,5.0366650642457067,5.6257380906540613,6.2148111170640741,6.8038841434757575,7.3929571698890886,7.9820301963040752,8.5711032227207333,9.160176249139047,9.74924927555903,10.338322301980655,10.927395328403952,11.516468354828906,12.105541381255529,12.694614407683821,13.283687434113746,13.751435763111061,14.037194178979025,14.32295259484872,14.608711010720121,14.894469426593254,15.180227842468089,15.46598625834466,15.751744674222941,16.037503090102934,16.32326150598465,16.609019921868075,16.894778337753227,17.180536753640094,17.466295169528671,17.752053585418967,18.037812001310986,18.323570417204721,18.609328833100161,18.895087248997331,19.180845664896218,19.134312518332248,19.058546893094046,18.982781267857636,18.907015642622966,18.831250017390055,18.7554843921589,18.679718766929525,18.603953141701894,18.528187516476027,18.452421891251912,18.376656266029574,18.300890640808987,18.225125015590162,18.149359390373096,18.073593765157806,17.997828139944232,17.922062514732453,17.846296889522424,17.524705668085982,17.039226843166517,16.553748018248925,16.068269193333176,15.582790368419341,15.09731154350731,14.611832718597174,14.126353893688899,13.640875068782496,13.155396243877938,12.669917418975274,12.184438594074447,11.698959769175511,11.213480944278423,10.728002119383206,10.242523294489859,9.7570444695983465,9.2715656447087369,8.7860868198209765,8.3006079949350919,7.501866973194625,6.5688664942150918,5.6358660152373972,4.7028655362615464,3.769865057287523,2.8368645783153759,1.9038640993450595,0.9708636203765536,0.037863141409930433,-0.89513733755488578,-1.8281378165178361,-2.761138295478955,-3.6941387744382164,-4.6271392533956668,-5.5601397323512334,-6.4931402113049881,-7.4261406902568883,-8.3591411692069375,-9.2921416481551624,-10.225142127101529,-11.537579332214195,-12.944880201999515,-14.352181071782837,-15.759481941564147,-17.166782811343449,-18.574083681120754,-19.981384550896056,-21.388685420669312,-22.795986290440595,-24.203287160209882,-25.61058802997713,-27.017888899742392,-28.425189769505586,-29.832490639266858,-31.23979150902607,-32.6470923787833,-34.054393248538517,-35.461694118291739,-36.868994988042914,-38.276295857792121,-40.125095602561238,-42.022955414694408,-43.920815226825567,-45.818675038954595,-47.7165348510816,-49.614394663206554,-51.512254475329435,-53.41011428745022,-55.30797409956898,-57.205833911685687,-59.103693723800355,-61.001553535912976,-62.89941334802355,-64.797273160131979,-66.695132972238426,-68.592992784342783,-70.490852596445052,-72.38871240854526,-74.286572220643563,-76.184432032739579,0,0.04448356722103184,0.11810423551328163,0.23744765048683666,0.41363003861745734,0.64763561333369135,0.93973474551500247,1.2897175822154252,1.6968421314541056,2.1596158363876889,2.5031237046691488,3.301505012017707
DP 157,185.61182817989663,0.0027403774036476175,-36.8947934299013,-36.155178894630147,-35.415564359357859,-34.6759498240845,-33.9363352888101,-33.196720753534564,-32.457106218257948,-31.717491682980242,-30.977877147701456,-30.238262612421572,-29.498648077140579,-28.759033541858496,-28.019419006575358,-27.279804471291079,-26.540189936005739,-25.800575400719318,-25.060960865431767,-24.321346330143154,-23.581731794853436,-22.842117259562635,-22.108078995985469,-21.424227704932939,-20.740376413879329,-20.056525122824596,-19.372673831768768,-18.688822540711826,-18.004971249653792,-17.32111995859465,-16.637268667534403,-15.953417376473064,-15.269566085410597,-14.585714794347053,-13.901863503282403,-13.218012212216633,-12.534160921149782,-11.850309630081814,-11.166458339012747,-10.482607047942579,-9.7987557568712962,-9.1149044657989311,-8.4538720043588587,-7.8841159399009886,-7.3143598754419736,-6.74460381098184,-6.1748477465205687,-5.6050916820581591,-5.0353356175946242,-4.4655795531299542,-3.8958234886641532,-3.3260674241972188,-2.7563113597291506,-2.1865552952599474,-1.6167992307896142,-1.0470431663181472,-0.47728710184554779,0.092468962628185034,0.66222502710304909,1.2319810915790428,1.8017371560561681,2.3714932205344281,2.8915657010597582,3.2957082536231121,3.6998508061876194,4.1039933587532751,4.5081359113200845,4.9122784638880406,5.3164210164571593,5.7205635690274272,6.1247061215988454,6.52884867417142,6.9329912267451315,7.3371337793200091,7.741276331896044,8.1454188844732229,8.5495614370515529,8.953703989631034,9.35784654221168,9.7619890947934671,10.16613164737641,10.570274199960505,10.889979748202233,11.083027794629849,11.276075841058676,11.469123887488649,11.662171933919819,11.855219980352187,12.048268026785713,12.241316073220428,12.434364119656308,12.627412166093396,12.820460212531643,13.013508258971083,13.2065563054117,13.399604351853492,13.592652398296472,13.785700444740634,13.978748491185984,14.171796537632499,14.364844584080204,14.5578926305291,14.513187574017243,14.456695470386656,14.40020336675726,14.343711263129068,14.287219159502076,14.2307270558763,14.174234952251741,14.11774284862836,14.061250745006197,14.004758641385235,13.948266537765491,13.891774434146937,13.835282330529589,13.778790226913442,13.722298123298513,13.665806019684773,13.609313916072251,13.552821812460929,13.328068515480695,12.991138438849633,12.654208362219851,12.317278285591298,11.980348208964044,11.643418132338036,11.306488055713304,10.969557979089849,10.632627902467632,10.295697825846704,9.958767749227043,9.6218376726086436,9.2849075959915126,8.9479775193756428,8.6110474427610431,8.27411736614772,7.937187289535637,7.6002572129248476,7.26332713631531,6.9263970597070417,6.3767010877787085,5.7358168591392795,5.0949326305010869,4.4540484018641582,3.8131641732284605,3.1722799445940382,2.5313957159608567,1.8905114873289048,1.2496272586982309,0.6087430300687845,-0.032141198559398475,-0.67302542718633906,-1.3139096558120185,-1.954793884436471,-2.5956781130596451,-3.2365623416815907,-3.877446570302272,-4.5183307989217054,-5.1592150275398971,-5.80009925615683,-6.6970974849080065,-7.6581272397378237,-8.6191569945663016,-9.5801867493934161,-10.541216504219197,-11.502246259043623,-12.463276013866707,-13.424305768688413,-14.385335523508795,-15.346365278327841,-16.3073950331455,-17.268424787961841,-18.229454542776818,-19.190484297590466,-20.151514052402739,-21.112543807213672,-22.073573562023235,-23.034603316831486,-23.995633071638359,-24.956662826443903,-26.214491554211964,-27.505301062749769,-28.796110571286267,-30.086920079821269,-31.377729588354995,-32.6685390968873,-33.959348605418242,-35.250158113947769,-36.540967622475968,-37.831777131002731,-39.122586639528137,-40.413396148052243,-41.704205656574878,-42.995015165096149,-44.285824673616069,-45.5766341821346,-46.867443690651776,-48.158253199167476,-49.449062707681946,-50.7398722161949,0,0.028766758834694987,0.07801876670684553,0.15871555416995642,0.27795277712877758,0.43640697257469679,0.6342772573934049,0.87142385769532071,1.1473352766616152,1.4609822511950628,1.6938727531208846,2.2348472502633276
DP 158,98.022327710341216,0.00376068659853653,-32.459870431453794,-31.9304640624835,-31.401057693512591,-30.871651324541062,-30.34224495556893,-29.812838586596175,-29.283432217622813,-28.754025848648798,-28.224619479674192,-27.69521311069893,-27.165806741723095,-26.636400372746614,-26.106994003769543,-25.57758763479184,-25.048181265813497,-24.518774896834582,-23.989368527854992,-23.459962158874816,-22.930555789894015,-22.401149420912621,-21.875580284758868,-21.384546606770819,-20.893512928782133,-20.402479250792783,-19.911445572802798,-19.420411894812169,-18.929378216820879,-18.438344538828936,-17.947310860836382,-17.456277182843159,-16.965243504849287,-16.474209826854761,-15.983176148859581,-15.492142470863765,-15.001108792867322,-14.510075114870192,-14.019041436872428,-13.528007758874036,-13.036974080874975,-12.545940402875273,-12.070712929861278,-11.65871102381522,-11.246709117768429,-10.834707211720916,-10.422705305672666,-10.010703399623685,-9.5987014935739712,-9.186699587523524,-8.7746976814723361,-8.3626957754204252,-7.9506938693677789,-7.5386919633143927,-7.1266900572602792,-6.7146881512054337,-6.3026862451498475,-5.8906843390935348,-5.4786824330364849,-5.0666805269787076,-4.6546786209202,-4.2426767148609486,-3.8654921994095992,-3.5695493590519343,-3.2736065186935144,-2.9776636783343493,-2.6817208379744328,-2.3857779976137574,-2.0898351572523373,-1.7938923168901604,-1.4979494765272352,-1.2020066361635589,-0.90606379579913232,-0.61012095543395561,-0.3141781150680229,-0.01823527470134171,0.27770756566609106,0.573650406034275,0.869593246403211,1.1655360867729,1.4614789271433379,1.7574217675145249,1.9933325563427704,2.1391938492607889,2.2850551421796252,2.4309164350992827,2.5767777280197564,2.7226390209410494,2.8685003138631608,3.01436160678609,3.1602228997098325,3.3060841926343971,3.4519454855597815,3.5978067784859817,3.7436680714129995,3.8895293643408348,4.0353906572694909,4.1812519501989627,4.3271132431292552,4.472974536060363,4.6188358289922951,4.764697121925038,4.7513665792423776,4.7168617626147746,4.6823569459880261,4.6478521293621382,4.6133473127371083,4.5788424961129364,4.5443376794896313,4.50983286286718,4.4753280462455889,4.4408232296248569,4.4063184130049873,4.3718135963859792,4.3373087797678211,4.3028039631505361,4.2682991465341065,4.233794329918525,4.1992895133038157,4.1647846966899644,4.0066286160308362,3.7660364113752718,3.5254442067206613,3.2848520020669918,3.0442597974142758,2.803667592762507,2.5630753881116934,2.3224831834618294,2.081890978812913,1.8412987741649471,1.6007065695179405,1.3601143648718761,1.1195221602267609,0.87892995558260412,0.63833775093938816,0.39774554629713182,0.15715334165581474,-0.083438862984544782,-0.32403106762395106,-0.56462327226240783,-0.96398917225034142,-1.4314030856133295,-1.8988169989753816,-2.3662309123364826,-2.8336448256966538,-3.3010587390558634,-3.7684726524141379,-4.2358865657714846,-4.70330047912787,-5.1707143924833323,-5.6381283058378342,-6.1055422191914044,-6.572956132544026,-7.0403700458957186,-7.5077839592464493,-7.9751978725962536,-8.442611785945104,-8.9100256992930138,-9.3774396126399822,-9.8448535259860126,-10.505717169533195,-11.214945531283112,-11.92417389303195,-12.633402254779725,-13.342630616526415,-14.051858978272024,-14.761087340016585,-15.470315701760038,-16.179544063502426,-16.888772425243779,-17.598000786983995,-18.307229148723177,-19.016457510461251,-19.72568587219828,-20.434914233934226,-21.144142595669095,-21.853370957402884,-22.562599319135607,-23.271827680867244,-23.98105604259781,-24.916257134221009,-25.876568680203683,-26.836880226185222,-27.797191772165636,-28.75750331814497,-29.717814864123184,-30.678126410100237,-31.638437956076157,-32.598749502051014,-33.559061048024709,-34.519372593997346,-35.479684139968825,-36.439995685939181,-37.400307231908442,-38.360618777876539,-39.320930323843541,-40.281241869809428,-41.241553415774177,-42.201864961737868,-43.162176507700394,0,0.029302208075940472,0.06986414817431072,0.13178656913862297,0.22266072464208977,0.34303172175020052,0.49299359553200583,0.67243735270880356,0.88102818682171724,1.1180790857281218,1.2935244538578337,1.7023227766511642
DP 159,59.471451090058444,0.0014574502805983036,-8.2656390661060062,-8.17289591328688,-8.0801527604677332,-7.9874096076485568,-7.8946664548293572,-7.8019233020101506,-7.7091801491909084,-7.6164369963716458,-7.5236938435523637,-7.4309506907330576,-7.3382075379137284,-7.2454643850943761,-7.1527212322750007,-7.0599780794556093,-6.9672349266361886,-6.8744917738167493,-6.7817486209972868,-6.689005468177796,-6.5962623153582962,-6.5035191625387618,-6.41144626505051,-6.3254057288993319,-6.2393651927481129,-6.1533246565968636,-6.06728412044557,-5.9812435842942433,-5.8952030481428794,-5.8091625119914756,-5.7231219758400442,-5.6370814396885676,-5.5510409035370607,-5.46500036738551,-5.3789598312339226,-5.2929192950823021,-5.2068787589306442,-5.1208382227789526,-5.0347976866272184,-4.9487571504754477,-4.8627166143236407,-4.7766760781718,-4.6933925421746663,-4.6211371370961229,-4.5488817320174988,-4.47662632693879,-4.4043709218600027,-4.3321155167811325,-4.2598601117021833,-4.1876047066231505,-4.1153493015440414,-4.0430938964648506,-3.9708384913855772,-3.8985830863062212,-3.8263276812267883,-3.7540722761472765,-3.6818168710676762,-3.6095614659879969,-3.53730606090824,-3.4650506558284015,-3.392795250748482,-3.3205398456684811,-3.2543647883905842,-3.2023774008940262,-3.1503900133973848,-3.0984026259006567,-3.0464152384038456,-2.9944278509069497,-2.942440463409965,-2.8904530759128977,-2.8384656884157429,-2.7864783009185063,-2.7344909134211846,-2.6825035259237793,-2.6305161384262821,-2.5785287509287049,-2.5265413634310439,-2.4745539759332962,-2.4225665884354619,-2.3705792009375437,-2.31859181343954,-2.2666044259414528,-2.2251029990752715,-2.1993307609468751,-2.1735585228183658,-2.1477862846897349,-2.122014046560988,-2.0962418084321222,-2.07046957030314,-2.04469733217404,-2.0189250940448225,-1.9931528559154854,-1.9673806177860333,-1.941608379656462,-1.9158361415267744,-1.8900639033969697,-1.8642916652670449,-1.8385194271370038,-1.8127471890068454,-1.7869749508765682,-1.7612027127461725,-1.735430474615663,-1.7369762813853713,-1.7427491113528579,-1.7485219413202098,-1.7542947712874262,-1.7600676012545053,-1.7658404312214515,-1.7716132611882598,-1.7773860911549366,-1.7831589211214736,-1.7889317510878773,-1.7947045810541455,-1.8004774110202759,-1.8062502409862731,-1.8120230709521332,-1.8177959009178581,-1.8235687308834481,-1.8293415608489025,-1.8351143908142196,-1.8625297067112865,-1.9043736875123018,-1.9462176683131454,-1.9880616491138192,-2.0299056299143192,-2.0717496107146509,-2.1135935915148054,-2.1554375723147885,-2.1972815531146046,-2.2391255339142448,-2.2809695147137106,-2.3228134955130089,-2.3646574763121322,-2.4065014571110859,-2.4483454379098673,-2.4901894187084754,-2.5320333995069131,-2.5738773803051784,-2.61572136110327,-2.6575653419011904,-2.7272343910458914,-2.8088288452071786,-2.8904232993682939,-2.9720177535292396,-3.053612207690013,-3.1352066618506091,-3.2168011160110392,-3.2983955701712966,-3.3799900243313794,-3.4615844784912939,-3.5431789326510357,-3.6247733868106029,-3.70636784097,-3.7879622951292258,-3.869556749288277,-3.9511512034471581,-4.0327456576058678,-4.1143401117644069,-4.1959345659227711,-4.277529020080963,-4.3930389753518746,-4.5170282066202763,-4.6410174378884568,-4.7650066691564152,-4.8889959004241508,-5.0129851316916616,-5.136974362958953,-5.26096359422602,-5.3849528254928662,-5.5089420567594978,-5.6329312880258868,-5.7569205192920681,-5.8809097505580237,-6.004898981823759,-6.128888213089267,-6.2528774443545592,-6.3768666756196151,-6.5008559068844614,-6.6248451381490847,-6.748834369413486,-6.9124675680813406,-7.0805060683737606,-7.24854456866594,-7.4165830689578849,-7.5846215692495829,-7.7526600695410481,-7.9206985698322647,-8.0887370701232424,-8.25677557041399,-8.4248140707044925,-8.5928525709947561,-8.76089107128478,-8.928929571574562,-9.09696807186411,-9.2650065721534158,-9.4330450724424768,-9.6010835727312962,-9.7691220730198722,-9.9371605733082315,-10.105199073596326,0,0.0098831010585850171,0.019554352768450915,0.03171696421872415,0.048785180169980139,0.071010067972275548,0.09845525257539596,0.13114084991845956,0.16906556444019097,0.21216605427429941,0.24338429231988348,0.31635984341689166
DP 160,178.26524791588827,0.0023173955358505752,-30.416897147496059,-29.812633465655082,-29.208369783813222,-28.604106101970448,-27.999842420126814,-27.395578738282271,-26.791315056436851,-26.187051374590535,-25.582787692743338,-24.978524010895267,-24.374260329046272,-23.769996647196383,-23.165732965345647,-22.561469283494009,-21.957205601641462,-21.352941919788037,-20.748678237933728,-20.144414556078523,-19.54015087422243,-18.93588719236546,-18.336154061088763,-17.777196313288943,-17.218238565488225,-16.659280817686618,-16.100323069884119,-15.541365322080702,-14.982407574276383,-14.423449826471179,-13.864492078665062,-13.305534330858055,-12.746576583050139,-12.187618835241329,-11.628661087431619,-11.069703339620999,-10.5107455918095,-9.9517878439970868,-9.3928300961837774,-8.8338723483695727,-8.2749146005544549,-7.7159568527384543,-7.1755577559255324,-6.7093941402353483,-6.2432305245442414,-5.7770669088522011,-5.31090329315924,-4.8447396774653519,-4.378576061770536,-3.9124124460747951,-3.4462488303781265,-2.9800852146805323,-2.5139215989820114,-2.0477579832825592,-1.5815943675821842,-1.1154307518808817,-0.6492671361786525,-0.18310352047549672,0.28306009522858505,0.749223710933591,1.2153873266395234,1.681550942346381,2.1072414474383923,2.4384934192228491,2.7697453910082515,3.1009973627945997,3.4322493345818845,3.7635013063701162,4.0947532781592875,4.4260052499494043,4.7572572217404643,5.0885091935324631,5.4197611653254043,5.7510131371192932,6.0822651089141226,6.4135170807098945,6.744769052506614,7.0760210243042785,7.4072729961028774,7.7385249679024222,8.069776939702912,8.4010289115043442,8.6633546547857279,8.8222894265160949,8.9812241982474248,9.140158969979721,9.2990937417129818,9.45802851344722,9.6169632851824129,9.7758980569185834,9.9348328286557219,10.093767600393825,10.252702372132905,10.411637143872932,10.570571915613952,10.729506687355936,10.888441459098869,11.047376230842795,11.206311002587681,11.36524577433353,11.524180546080343,11.683115317828136,11.64946583487184,11.604218701349902,11.558971567828944,11.513724434308969,11.468477300789994,11.423230167272004,11.377983033755001,11.332735900238985,11.287488766723966,11.24224163320992,11.196994499696874,11.151747366184813,11.106500232673749,11.061253099163659,11.016005965654569,10.970758832146458,10.925511698639342,10.880264565133226,10.697008761136063,10.421745002662824,10.146481244190634,9.8712174857194839,9.5959537272493716,9.320689968780286,9.0454262103122662,8.7701624518452768,8.49489869337933,8.2196349349144171,7.9443711764505558,7.6691074179877265,7.393843659525948,7.1185799010652087,6.8433161426055031,6.5680523841468537,6.29278862568922,6.01752486723265,5.7422611087771163,5.4669973503226261,5.0168313494958374,4.4917048830699917,3.9665784166451741,3.44145195022139,2.9163254837986186,2.3911990173768958,1.8660725509561953,1.3409460845365053,0.81581961811786374,0.29069315170023169,-0.23443331471636078,-0.7595597811319309,-1.2846862475464655,-1.8098127139599895,-2.3349391803724648,-2.8600656467839274,-3.3851921131943534,-3.9103185796037496,-4.4354450460121289,-4.9605715124194756,-5.6966112509666607,-6.4853817995370244,-7.2741523481062815,-8.06292289667442,-8.8516934452414517,-9.6404639938073782,-10.429234542372196,-11.218005090935877,-12.006775639498457,-12.795546188059948,-13.5843167366203,-14.373087285179563,-15.161857833737697,-15.95062838229474,-16.739398930850623,-17.528169479405445,-18.316940027959141,-19.105710576511729,-19.894481125063184,-20.683251673613555,-21.716729349127991,-22.777399275433059,-23.838069201737028,-24.898739128039807,-25.959409054341442,-27.020078980642026,-28.080748906941359,-29.141418833239605,-30.202088759536739,-31.262758685832708,-32.32342861212755,-33.384098538421263,-34.44476846471381,-35.505438391005292,-36.566108317295537,-37.62677824358471,-38.687448169872731,-39.748118096159565,-40.808788022445405,-41.869457948729945,0,0.023890046702518482,0.064506532081038556,0.13090592358430128,0.2289986120223729,0.35933908071205817,0.52208826044001611,0.71713084162528029,0.9440475743870067,1.2019949773020011,1.3935151019206991,1.8384467171291412
DP 161,175.01047385243072,0.0010849580445391426,-14.075553999176853,-13.797107315342025,-13.518660631506782,-13.240213947671146,-12.961767263835076,-12.683320579998616,-12.404873896161735,-12.126427212324453,-11.847980528486758,-11.569533844648669,-11.291087160810159,-11.012640476971235,-10.734193793131906,-10.455747109292163,-10.177300425452012,-9.8988537416114646,-9.6204070577704961,-9.341960373929119,-9.063513690087337,-8.7850670062451464,-8.5087033043372475,-8.2510866367337048,-7.9934699691297491,-7.7358533015253768,-7.4782366339205817,-7.2206199663153861,-6.9630032987097756,-6.70538663110374,-6.4477699634972909,-6.1901532958904362,-5.9325366282831711,-5.6749199606754814,-5.4173032930673841,-5.1596866254588685,-4.902069957849938,-4.6444532902405964,-4.3868366226308435,-4.1292199550206714,-3.8716032874100863,-3.6139866197990846,-3.3649053120191215,-3.1499658469575365,-2.9350263818955225,-2.7200869168330826,-2.5051474517702133,-2.2902079867069194,-2.0752685216431983,-1.8603290565790487,-1.6453895915144734,-1.4304501264494702,-1.21551066138404,-1.0005711963181829,-0.78563173125189756,-0.57069226618518631,-0.35575280111804719,-0.14081333605048135,0.0741261290175114,0.28906559408593019,0.50400505915477545,0.71894452422404864,0.91525657729159349,1.0681040821187213,1.2209515869462864,1.3737990917742837,1.5266465966027172,1.6794941014315852,1.8323416062608875,1.9851891110906261,2.138036615920798,2.290884120751405,2.4437316255824442,2.5965791304139203,2.7494266352458312,2.9022741400781764,3.0551216449109564,3.2079691497441702,3.3608166545778189,3.5136641594119036,3.6665116642464222,3.8193591690813742,3.9404567145059568,4.0139285705430776,4.0874004265806425,4.16087228261866,4.2343441386571232,4.30781599469603,4.3812878507353856,4.4547597067751834,4.528231562815435,4.601703418856129,4.6751752748972715,4.74864713093886,4.8221189869808958,4.8955908430233768,4.9690626990663063,5.0425345551096807,5.1160064111535073,5.1894782671977708,5.2629501232424882,5.3364219792876524,5.32147297970316,5.3007988306846947,5.2801246816666838,5.2594505326491339,5.2387763836320405,5.2181022346154,5.197428085599217,5.1767539365834914,5.1560797875682214,5.1354056385534088,5.1147314895390528,5.0940573405251515,5.0733831915117058,5.0527090424987184,5.0320348934861832,5.0113607444741124,4.9906865954624937,4.9700124464513307,4.8856395842218046,4.7587999096888991,4.6319602351564955,4.5051205606245546,4.3782808860931031,4.2514412115621285,4.1246015370316416,3.9977618625016262,3.8709221879720954,3.7440825134430438,3.6172428389144828,3.4904031643863922,3.3635634898587883,3.2367238153316649,3.109884140805022,2.9830444662788573,2.8562047917531723,2.7293651172279754,2.6025254427032531,2.4756857681790159,2.2680442361206912,2.02577224547093,1.7835002548216417,1.5412282641728321,1.2989562735244895,1.056684282876633,0.8144122922292466,0.57214030158232865,0.32986831093589453,0.08759632028992699,-0.15467567035555993,-0.39694766100057521,-0.63921965164511141,-0.88149164228918042,-1.1237636329327652,-1.3660356235758839,-1.6083076142185218,-1.8505796048606835,-2.0928515955023754,-2.3351235861435891,-2.6749073124975591,-3.0390701249030192,-3.4032329373079664,-3.7673957497124,-4.1315585621163207,-4.495721374519726,-4.859884186922625,-5.2240469993249992,-5.588209811726859,-5.9523726241282153,-6.3165354365290485,-6.6806982489293754,-7.0448610613291667,-7.4090238737284748,-7.7731866861272447,-8.13734949852552,-8.5015123109232729,-8.8656751233205053,-9.2298379357172315,-9.59400074811344,-10.07135444453192,-10.56128609461989,-11.051217744707337,-11.54114939479425,-12.03108104488064,-12.521012694966501,-13.010944345051843,-13.500875995136633,-13.990807645220933,-14.480739295304698,-14.970670945387926,-15.46060259547064,-15.950534245552815,-16.440465895634475,-16.930397545715604,-17.420329195796214,-17.910260845876291,-18.400192495955839,-18.890124146034882,-19.380055796113364,0,0.011091415501004967,0.02988437810114096,0.060573868600813929,0.10590771641592606,0.16614172438308891,0.24134965036830069,0.33147810457895671,0.43633368958892715,0.55552730577414433,0.64402311803413115,0.84962498804182807
DP 162,231.64129264856433,0.0056847913243555518,-87.913748076887373,-86.069083339219631,-84.224418601549232,-82.379753863876147,-80.535089126200376,-78.6904243885219,-76.845759650840776,-75.001094913156777,-73.156430175470291,-71.311765437781062,-69.467100700089162,-67.622435962394533,-65.77777122469719,-63.933106486997147,-62.088441749294525,-60.243777011589074,-58.399112273881023,-56.554447536170244,-54.709782798456828,-52.86511806074067,-51.034962505327613,-49.335390962134426,-47.63581941893861,-45.936247875740015,-44.23667633253875,-42.537104789334755,-40.837533246128039,-39.137961702918609,-37.438390159706493,-35.7388186164917,-34.039247073274126,-32.3396755300539,-30.640103986830926,-28.940532443605296,-27.240960900376905,-25.541389357145782,-23.841817813912034,-22.142246270675514,-20.442674727436309,-18.7431031841944,-17.102452930140579,-15.697490617549377,-14.292528304955413,-12.887565992358709,-11.482603679759265,-10.077641367157076,-8.6726790545521215,-7.2677167419444322,-5.8627544293339939,-4.457792116720805,-3.0528298041048676,-1.6478674914861688,-0.24290517886473253,1.162057133759455,2.5670194463863893,3.9719817590160726,5.3769440716485049,6.7819063842836762,8.1868686969215982,9.5918310095622648,10.870078207719855,11.85265281294158,12.835227418166099,13.817802023393417,14.800376628623505,15.78295123385641,16.765525839092092,17.748100444330564,18.730675049571857,19.71324965481595,20.695824260062775,21.678398865312417,22.66097347056488,23.643548075820149,24.626122681078169,25.608697286338984,26.591271891602602,27.573846496869027,28.556421102138223,29.538995707410223,30.309637289452454,30.762374328536886,31.215111367624111,31.667848406714203,32.12058544580713,32.573322484902853,33.026059524001489,33.478796563102904,33.931533602207161,34.384270641314259,34.83700768042425,35.289744719537026,35.742481758652659,36.195218797771147,36.647955836892443,37.100692876016581,37.55342991514356,38.006166954273382,38.458903993406061,38.91164103254156,38.732604573040746,38.570441418992566,38.408278264947249,38.246115110904896,38.083951956865391,37.921788802828715,37.759625648794994,37.597462494764159,37.435299340736172,37.273136186711049,37.110973032688833,36.948809878669508,36.786646724653068,36.624483570639512,36.462320416628828,36.300157262621035,36.13799410861612,35.975830954614082,35.40691114708553,34.56681382927912,33.7267165114757,32.886619193675308,32.046521875877914,31.206424558083533,30.366327240292147,29.526229922503809,28.686132604718424,27.8460352869361,27.005937969156747,26.16584065138041,25.325743333607079,24.485646015836782,23.645548698069454,22.80545138030519,21.965354062543874,21.125256744785592,20.285159427030319,19.445062109278076,18.099788064161235,16.538002885856962,14.976217707555641,13.41443252925729,11.85264735096187,10.290862172669479,8.7290769943800424,7.1672918160935035,5.6055066378100173,4.0437214595294257,2.4819362812518464,0.92015110297720915,-0.64163407529443239,-2.2034192535631614,-3.7652044318288636,-5.3269896100916387,-6.888774788351431,-8.4505599666082443,-10.012345144862113,-11.57413032311301,-13.735117793695496,-16.045912917072059,-18.356708040445444,-20.66750316381567,-22.978298287182717,-25.289093410546606,-27.599888533907311,-29.910683657264812,-32.221478780619179,-34.532273903970392,-36.843069027318343,-39.15386415066321,-41.464659274004831,-43.775454397343374,-46.08624952067867,-48.397044644010826,-50.707839767339749,-53.018634890665631,-55.3294300139882,-57.640225137307631,-60.638695145622876,-63.713580696743215,-66.788466247860271,-69.863351798974008,-72.938237350084577,-76.013122901191878,-79.088008452296108,-82.162894003396929,-85.2377795544946,-88.312665105589062,-91.387550656680233,-94.462436207768221,-97.537321758852926,-100.61220730993445,-103.68709286101266,-106.76197841208776,-109.8368639631596,-112.91174951422809,-115.98663506529361,-119.06152061635554,0,0.065368801044507832,0.1806566667372583,0.37141268393210108,0.65352048467513846,1.0286111885666469,1.4971917626380682,2.0589369196323459,2.7126164323541415,3.4557549877277807,4.0076829539007939,5.289010568852313
DP 163,107.22602838803297,0.0018912133847232768,-17.500953986444379,-17.203599916608553,-16.906245846772357,-16.608891776935796,-16.311537707098875,-16.01418363726156,-15.716829567423881,-15.419475497585836,-15.12212142774742,-14.824767357908627,-14.527413288069466,-14.230059218229947,-13.932705148390031,-13.635351078549755,-13.337997008709111,-13.040642938868093,-12.743288869026722,-12.445934799184949,-12.148580729342832,-11.851226659500334,-11.556031216715029,-11.280263621490167,-11.004496026264912,-10.728728431039279,-10.45296083581326,-10.177193240586858,-9.9014256453600744,-9.6256580501328912,-9.3498904549053385,-9.0741228596774022,-8.79835526444907,-8.5225876692203482,-8.24682007399125,-7.9710524787617691,-7.6952848835319045,-7.4195172883016474,-7.1437496930710047,-6.8679820978399793,-6.5922145026085683,-6.3164469073767719,-6.0495701691255759,-5.8182572789922036,-5.5869443888583987,-5.35563149872417,-5.1243186085895163,-4.8930057184544378,-4.6616928283189347,-4.4303799381830045,-4.19906704804665,-3.9677541579098743,-3.73644126777267,-3.5051283776350375,-3.2738154874969871,-3.0425025973585091,-2.8111897072196044,-2.5798768170802733,-2.3485639269405181,-2.1172510368003428,-1.8859381466597407,-1.6546252565187127,-1.4428875005011235,-1.2768256742015944,-1.110763847901628,-0.944702021601227,-0.778640195300393,-0.61257836899912244,-0.44651654269741742,-0.28045471639527736,-0.11439289009270313,0.051668936210306292,0.217730762513749,0.383792588817627,0.54985441512194144,0.71591624142668864,0.8819780677318716,1.0480398940374891,1.214101720343542,1.380163546650031,1.5462253729569537,1.7122871992643107,1.8446158660057441,1.9263439962621267,2.0080721265189743,2.0898002567762917,2.171528387034074,2.2532565172923231,2.3349846475510394,2.4167127778102198,2.4984409080698686,2.5801690383299851,2.6618971685905661,2.7436252988516143,2.8253534291131279,2.9070815593751114,2.9888096896375567,3.0705378199004727,3.1522659501638519,3.2339940804276996,3.3157222106920132,3.3974503409567918,3.3894170813056332,3.3698579599166107,3.3502988385280705,3.3307397171400175,3.3111805957524525,3.2916214743653738,3.2720623529787831,3.2525032315926756,3.23294411020706,3.2133849888219275,3.1938258674372824,3.1742667460531258,3.1547076246694541,3.1351485032862696,3.1155893819035749,3.0960302605213625,3.0764711391396418,3.0569120177584028,2.9679578661957313,2.8327392679495267,2.6975206697038541,2.5623020714587117,2.4270834732141005,2.2918648749700208,2.1566462767264785,2.0214276784834664,1.8862090802409825,1.750990481999033,1.6157718837576192,1.4805532855167336,1.3453346872763805,1.2101160890365623,1.0748974907972713,0.93967889255851744,0.80446029432029031,0.6692416960825982,0.53402309784544033,0.39880449960881392,0.1745333039716766,-0.08790449303891508,-0.35034229004898082,-0.61278008705851716,-0.8752178840675322,-1.1376556810760101,-1.4000934780839647,-1.6625312750914,-1.9249690720982982,-2.1874068691046773,-2.449844666110526,-2.712282463115848,-2.9747202601206415,-3.2371580571249106,-3.4995958541286476,-3.7620336511318619,-4.02447144813455,-4.2869092451367061,-4.5493470421383408,-4.8117848391394444,-5.1826778515336311,-5.5806859491990659,-5.9786940468639083,-6.3767021445281582,-6.7747102421918184,-7.1727183398548853,-7.5707264375173526,-7.9687345351792231,-8.3667426328405,-8.76475073050119,-9.162758828161282,-9.5607669258207775,-9.9587750234796744,-10.356783121137992,-10.754791218795699,-11.152799316452821,-11.550807414109352,-11.948815511765295,-12.346823609420623,-12.744831707075372,-13.2694905198989,-13.808222964546728,-14.346955409193949,-14.885687853840549,-15.424420298486536,-15.963152743131902,-16.501885187776651,-17.040617632420783,-17.579350077064319,-18.118082521707208,-18.656814966349508,-19.195547410991178,-19.734279855632241,-20.273012300272679,-20.811744744912506,-21.350477189551725,-21.889209634190308,-22.427942078828288,-22.966674523465667,-23.505406968102385,0,0.015320808338961982,0.037537446527481345,0.072036087475534555,0.12276295377429422,0.19000814671244937,0.273828424471562,0.37416192530834863,0.49081330520362071,0.62338594376107,0.72160245793811051,0.95031222309043772
DP 164,96.760745517325986,0.0051106458410898588,-43.661691054957942,-42.954126440936868,-42.246561826914956,-41.538997212892269,-40.831432598868759,-40.123867984844416,-39.416303370819271,-38.708738756793288,-38.001174142766509,-37.293609528738891,-36.586044914710492,-35.878480300681233,-35.1709156866512,-34.46335107262032,-33.755786458588595,-33.048221844556089,-32.340657230522773,-31.633092616488621,-30.92552800245366,-30.217963388417893,-29.515525695463687,-28.859230776868817,-28.202935858273104,-27.546640939676514,-26.890346021079083,-26.234051102480823,-25.57775618388165,-24.921461265281646,-24.265166346680779,-23.608871428079055,-22.952576509476486,-22.296281590873072,-21.639986672268758,-20.983691753663617,-20.327396835057609,-19.671101916450755,-19.014806997843028,-18.358512079234444,-17.702217160625008,-17.0459222420147,-16.410749900464392,-15.860068865438887,-15.309387830412398,-14.758706795384928,-14.208025760356492,-13.657344725327077,-13.10666369029669,-12.555982655265332,-12.005301620232997,-11.454620585199683,-10.903939550165408,-10.353258515130138,-9.8025774800938965,-9.2518964450566958,-8.70121541001851,-8.1505343749793369,-7.5998533399392114,-7.0491723048981036,-6.4984912698560189,-5.9478102348129616,-5.44365838530118,-5.0480761013802393,-4.6524938174582919,-4.2569115335353445,-3.8613292496114044,-3.4657469656864595,-3.07016468176052,-2.6745823978335745,-2.2790001139056333,-1.883417829976695,-1.4878355460467592,-1.092253262115823,-0.69667097818388213,-0.30108869425094753,0.094493589682988752,0.49007587361792382,0.88565815755385835,1.2812404414907954,1.6768227254287269,2.0724050093676545,2.3877577919921507,2.5827644267705221,2.7777710615499895,2.9727776963305428,3.1677843311121863,3.3627909658949244,3.5577976006787466,3.7528042354636661,3.9478108702496715,4.1428175050367733,4.33782413982496,4.5328307746142391,4.7278374094046081,4.9228440441960668,5.1178506789886224,5.3128573137822652,5.5078639485769987,5.7028705833728219,5.8978772181697368,6.09288385296774,6.0752328593675129,6.0291706792461159,5.9831084991258656,5.9370463190067548,5.8909841388887951,5.844921958771983,5.7988597786563245,5.7527975985418056,5.7067354184284431,5.6606732383162184,5.6146110582051447,5.5685488780952248,5.5224866979864391,5.4764245178788071,5.4303623377723245,5.3843001576669884,5.3382379775627955,5.292175797459759,5.0808364599375508,4.7593097470740231,4.4377830342117823,4.1162563213507921,3.7947296084910813,3.4732028956326291,3.15167618277546,2.8301494699195597,2.508622757064928,2.1870960442115619,1.8655693313594837,1.5440426185086615,1.2225159056591128,0.90098919281084267,0.57946247996382938,0.25793576711809896,-0.063590945726372625,-0.38511765856956448,-0.706644371411483,-1.0281710842521321,-1.5619368461555794,-2.1866650664029295,-2.811393286649023,-3.4361215068938491,-4.06084972713743,-4.68557794737973,-5.31030616762077,-5.93503438786058,-6.5597626080990974,-7.1844908283363811,-7.8092190485723867,-8.43394726880714,-9.0586754890406151,-9.6834037092728629,-10.308131929503816,-10.932860149733525,-11.557588369961982,-12.182316590189165,-12.807044810415089,-13.431773030639746,-14.315102676742702,-15.263085734749739,-16.211068792755334,-17.159051850759482,-18.107034908762206,-19.055017966763483,-20.003001024763329,-20.950984082761693,-21.898967140758646,-22.846950198754186,-23.794933256748241,-24.742916314740881,-25.690899372732069,-26.638882430721832,-27.586865488710124,-28.534848546697003,-29.482831604682392,-30.430814662666425,-31.378797720648958,-32.326780778630081,-33.576857761259795,-34.860503908234129,-36.144150055206978,-37.427796202178271,-38.7114423491481,-39.995088496116438,-41.278734643083254,-42.562380790048543,-43.846026937012368,-45.129673083974687,-46.413319230935528,-47.696965377894848,-48.980611524852641,-50.264257671808977,-51.547903818763793,-52.831549965717137,-54.115196112668933,-55.398842259619222,-56.682488406568105,-57.966134553515332,0,0.039607782352131506,0.094040080523117714,0.17690653294342695,0.298475464159515,0.45948305631767533,0.66005394263942618,0.90004310295338275,1.1790059296509001,1.4960289328219307,1.7306221973440432,2.2772902008897318
DP 165,200.6051470410606,0.0053184451670643508,-75.168405222696592,-73.636215567853014,-72.104025913007135,-70.57183625815901,-69.03964660330854,-67.507456948455911,-65.975267293601007,-64.443077638743787,-62.910887983884393,-61.378698329022683,-59.846508674158706,-58.314319019292469,-56.782129364423973,-55.24993970955321,-53.717750054680266,-52.185560399804949,-50.653370744927408,-49.121181090047635,-47.588991435165582,-46.056801780281241,-44.536308901500234,-43.121088113296693,-41.705867325090878,-40.290646536882832,-38.875425748672441,-37.46020496045977,-36.044984172244845,-34.629763384027591,-33.214542595808105,-31.799321807586317,-30.384101019362234,-28.968880231135877,-27.553659442907239,-26.138438654676307,-24.723217866443122,-23.307997078207617,-21.892776289969856,-20.477555501729796,-19.062334713487441,-17.647113925242824,-16.27964873394966,-15.103208187465121,-13.926767640978229,-12.750327094489002,-11.573886547997455,-10.397446001503576,-9.2210054550073632,-8.0445649085088053,-6.8681243620079222,-5.6916838155047147,-4.5152432689991668,-3.3388027224912755,-2.1623621759810581,-0.98592162946850737,0.19051891704637888,1.3669594635635958,2.5434000100831451,3.7198405566050239,4.8962811031292333,6.0727216496557794,7.1455595729300976,7.9766547776903671,8.8077499824530143,9.6388451872180347,10.469940391985427,11.301035596755197,12.13213080152733,12.963226006301838,13.794321211078712,14.625416415857986,15.45651162063959,16.287606825423619,17.118702030209981,17.949797234998744,18.780892439789863,19.611987644583355,20.443082849379206,21.274178054177462,22.10527325897807,22.936368463781054,23.592212721934953,23.985176418822835,24.378140115713162,24.771103812605944,25.164067509501127,25.55703120639874,25.949994903298794,26.342958600201253,26.735922297106139,27.128885994013437,27.52184969092319,27.914813387835338,28.307777084749926,28.700740781666934,29.093704478586389,29.486668175508196,29.879631872432498,30.272595569359229,30.665559266288334,31.058522963219897,30.949505721147169,30.827305111054049,30.705104500963373,30.582903890875148,30.4607032807894,30.338502670706145,30.21630206062537,30.094101450547026,29.971900840471168,29.849700230397762,29.727499620326849,29.605299010258395,29.483098400192386,29.360897790128888,29.238697180067835,29.116496570009264,28.994295959953149,28.872095349899503,28.404429268562591,27.70644743067356,27.008465592787164,26.31048375490332,25.612501917022051,24.9145200791434,24.216538241267333,23.518556403393834,22.820574565522925,22.12259272765462,21.424610889788894,20.726629051925759,20.028647214065206,19.330665376207243,18.632683538351856,17.934701700499087,17.236719862648854,16.538738024801251,15.84075618695622,15.14277434911379,14.010181054298858,12.691319837886949,11.37245862147758,10.05359740507078,8.73473618866649,7.415874972264823,6.09701375586568,4.7781525394690441,3.4592913230750155,2.1404301066834974,0.82156889029456048,-0.49729232609183821,-1.8161535424756636,-3.1350147588569781,-4.4538759752356931,-5.7727371916118893,-7.0915984079855123,-8.4104596243565783,-9.7293208407251139,-11.04818205709109,-12.888033248931636,-14.85813809025573,-16.828242931577069,-18.79834777289566,-20.768452614211522,-22.738557455524635,-24.70866229683503,-26.678767138142607,-28.648871979447478,-30.618976820749676,-32.589081662049004,-34.55918650334565,-36.529291344639525,-38.4993961859307,-40.469501027219074,-42.439605868504749,-44.409710709787674,-46.379815551067836,-48.349920392345226,-50.320025233619937,-52.89224299677813,-55.531368519343452,-58.170494041906132,-60.809619564465827,-63.448745087022758,-66.087870609576939,-68.7269961321283,-71.3661216546768,-74.005247177222586,-76.644372699765512,-79.28349822230561,-81.922623744843008,-84.561749267377579,-87.200874789909363,-89.840000312438278,-92.479125834964393,-95.1182513574877,-97.757376880008181,-100.3965024025261,-103.03562792504087,0,0.057739754253936779,0.15778648861282063,0.32234340545781193,0.56557398415234938,0.88886815441136169,1.2926441017720363,1.776618637526542,2.3397416677933753,2.9798995069038527,3.4552804496443228,4.559286435132913
DP 166,307.14558830847272,0.003042729626747568,-56.594003665935126,-55.341662193935825,-54.089320721934804,-52.836979249932078,-51.584637777927639,-50.332296305921574,-49.0799548339137,-47.827613361904206,-46.57527188989306,-45.322930417880194,-44.070588945865623,-42.818247473849368,-41.565906001831443,-40.313564529811821,-39.0612230577905,-37.808881585767509,-36.556540113742813,-35.304198641716418,-34.051857169688375,-32.79951569765862,-31.557902737085428,-30.412847393739913,-29.267792050392728,-28.122736707043849,-26.977681363693268,-25.832626020341024,-24.68757067698705,-23.542515333631407,-22.397459990274058,-21.252404646914997,-20.107349303554283,-18.96229396019184,-17.817238616827705,-16.672183273461872,-15.527127930094357,-14.38207258672514,-13.237017243354241,-12.091961899981643,-10.946906556607342,-9.8018512132313589,-8.6997036668360739,-7.7691893362508919,-6.8386750056640011,-5.9081606750754121,-4.9776463444851222,-4.047132013893127,-3.116617683299431,-2.186103352704031,-1.2555890221069343,-0.32507469150813345,0.60543963909237331,1.5359539696945896,2.4664683002985019,3.3969826309041165,4.3274969615114323,5.2580112921204512,6.1885256227311736,7.1190399533435968,8.0495542839577183,8.9800686145735433,9.820573907308356,10.451055275695497,11.08153664408438,11.712018012474967,12.342499380867304,12.972980749261369,13.603462117657164,14.23394348605467,14.864424854453915,15.494906222854896,16.125387591257581,16.755868959662013,17.386350328068154,18.016831696476071,18.647313064885672,19.277794433297004,19.90827580171009,20.538757170124889,21.169238538541411,21.799719906959663,22.284563065459036,22.550945467555891,22.817327869654513,23.083710271754878,23.350092673856985,23.616475075960807,23.882857478066423,24.149239880173738,24.415622282282825,24.682004684393647,24.948387086506212,25.214769488620522,25.481151890736566,25.747534292854393,26.013916694973943,26.280299097095241,26.546681499218256,26.813063901343039,27.079446303469563,27.345828705597839,27.129438493299538,26.989605160035278,26.849771826772773,26.709938493512034,26.570105160253068,26.430271826995835,26.290438493740382,26.150605160486709,26.010771827234766,25.870938493984664,25.731105160736249,25.591271827489642,25.451438494244783,25.311605161001683,25.171771827760374,25.031938494520794,24.892105161283016,24.752271828046972,24.354947838686925,23.78595935547742,23.216970872269737,22.647982389063891,22.078993905859857,21.510005422657649,20.941016939457295,20.372028456258757,19.803039973062049,19.23405148986717,18.665063006674146,18.096074523482912,17.527086040293515,16.958097557105969,16.389109073920231,15.820120590736339,15.251132107554263,14.68214362437403,14.113155141195627,13.544166658019046,12.668469014696354,11.661320446924623,10.654171879154694,9.6470233113865849,8.6398747436202559,7.632726175855769,6.6255776080930584,5.6184290403321269,4.611280472573033,3.6041319048157154,2.5969833370602191,1.5898347693065149,0.58268620155463091,-0.42446236619548422,-1.4316109339437582,-2.4387595016902575,-3.4459080694349362,-4.4530566371778066,-5.4602052049188963,-6.4673537726581731,-7.82554962819272,-9.2715114533794676,-10.717473278564313,-12.163435103747235,-13.609396928928248,-15.05535875410736,-16.501320579284556,-17.947282404459823,-19.393244229633172,-20.839206054804652,-22.285167879974153,-23.73112970514179,-25.177091530307486,-26.623053355471306,-28.069015180633169,-29.514977005793142,-30.960938830951196,-32.406900656107368,-33.85286248126156,-35.298824306413906,-37.138022169427295,-39.02091705546605,-40.903811941502859,-42.786706827537678,-44.669601713570572,-46.552496599601533,-48.435391485630554,-50.318286371657592,-52.201181257682734,-54.084076143705943,-55.966971029727191,-57.849865915746463,-59.732760801763888,-61.61565568777926,-63.498550573792762,-65.381445459804283,-67.264340345813864,-69.147235231821469,-71.030130117827269,-72.9130250038309,0,0.038331286448388922,0.10749603308812325,0.22289933808937876,0.39371231085892661,0.62094024984383822,0.90490767189608123,1.2454202492852993,1.6417232029704534,2.0922975633674068,2.426983309132372,3.2035710646181075
DP 167,79.71549464936767,0.0030371900778472225,-22.136033043662426,-21.815651511268161,-21.495269978873605,-21.174888446478775,-20.854506914083636,-20.534125381688209,-20.213743849292495,-19.893362316896482,-19.5729807845002,-19.252599252103607,-18.932217719706738,-18.61183618730956,-18.291454654912091,-17.971073122514344,-17.65069159011631,-17.330310057717984,-17.009928525319335,-16.68954699292042,-16.369165460521206,-16.048783928121697,-15.73071993554677,-15.433514020459139,-15.136308105371185,-14.839102190282926,-14.541896275194331,-14.244690360105427,-13.947484445016205,-13.650278529926664,-13.35307261483681,-13.055866699746623,-12.758660784656133,-12.461454869565321,-12.164248954474193,-11.867043039382741,-11.569837124290981,-11.27263120919889,-10.97542529410649,-10.67821937901377,-10.381013463920723,-10.083807548827373,-9.7961472738786686,-9.5466700106497573,-9.2971927474204357,-9.0477154841907215,-8.7982382209606111,-8.5487609577301,-8.2992836944991986,-8.0498064312679016,-7.800329168036197,-7.5508519048041025,-7.30137464157161,-7.051897378338718,-6.8024201151054209,-6.5529428518717383,-6.3034655886376525,-6.05398832540317,-5.8045110621682889,-5.5550337989330139,-5.3055565356973373,-5.05607927246127,-4.8276414088753228,-4.6482961407049519,-4.4689508725341618,-4.2896056043629711,-4.1102603361913665,-3.9309150680193525,-3.7515697998469313,-3.5722245316741006,-3.3928792635008564,-3.2135339953272042,-3.0341887271531451,-2.8548434589786744,-2.6754981908037911,-2.496152922628502,-2.3168076544528033,-2.1374623862766904,-1.9581171181001733,-1.7787718499232417,-1.5994265817459041,-1.4200813135681571,-1.2770295397312539,-1.1884188650440894,-1.0998081903564545,-1.0111975156683493,-0.92258684097977273,-0.83397616629072624,-0.74536549160121224,-0.65675481691122539,-0.56814414222077236,-0.47953346752984494,-0.39092279283844961,-0.30231211814658504,-0.2137014434542483,-0.12509076876144398,-0.036480094068167032,0.052130580625577592,0.14074125531979226,0.229351930014481,0.31796260470963539,0.40657327940526217,0.39956265315790945,0.37903606140437096,0.35850946965133856,0.33798287789880932,0.31745628614678795,0.29692969439527028,0.27640310264426254,0.25587651089375346,0.23534991914375411,0.21482332739425855,0.19429673564527006,0.17377014389678808,0.15324355214880778,0.13271696040133601,0.11219036865436979,0.091663776907907391,0.0711371851619509,0.050610593416501745,-0.044783785591335452,-0.19009120221955567,-0.33539861884719324,-0.48070603547425533,-0.62601345210073578,-0.77132086872664,-0.91662828535195651,-1.0619357019766982,-1.2072431186008616,-1.3525505352244436,-1.4978579518474391,-1.6431653684698628,-1.7884727850917044,-1.9337802017129613,-2.0790876183336446,-2.2243950349537438,-2.3697024515732674,-2.5150098681922084,-2.6603172848105654,-2.8056247014283437,-3.0471395899386344,-3.329887551217757,-3.612635512496305,-3.8953834737742747,-4.1781314350516707,-4.4608793963284814,-4.74362735760472,-5.0263753188803877,-5.3091232801554682,-5.5918712414299865,-5.8746192027039177,-6.1573671639772742,-6.440115125250049,-6.7228630865222572,-7.00561104779388,-7.2883590090649362,-7.5711069703354008,-7.8538549316052979,-8.1366028928746186,-8.4193508541433566,-8.8193712271198113,-9.2487110886233221,-9.6780509501261562,-10.107390811628296,-10.53673067312976,-10.966070534630539,-11.395410396130641,-11.824750257630042,-12.254090119128781,-12.683429980626833,-13.112769842124189,-13.54210970362087,-13.971449565116863,-14.400789426612191,-14.830129288106807,-15.259469149600756,-15.68880901109403,-16.118148872586609,-16.547488734078513,-16.976828595569721,-17.543213184220786,-18.12482640407962,-18.70643962393774,-19.288052843795128,-19.869666063651806,-20.451279283507748,-21.032892503362962,-21.614505723217476,-22.196118943071284,-22.777732162924359,-23.359345382776727,-23.940958602628356,-24.522571822479279,-25.104185042329505,-25.685798262178984,-26.267411482027732,-26.849024701875781,-27.430637921723115,-28.012251141569742,-28.593864361415587,0,0.021942350306857043,0.048604637262759237,0.087066242062097191,0.1430312825479152,0.21693117910529669,0.3088288353831744,0.41867098497122268,0.54628912746560676,0.69131108616104786,0.79819697633004194,1.0476562262160871
DP 168,63.064428106071105,0.0033918165461485207,-20.228241999882364,-19.986990772052568,-19.745739544222676,-19.504488316392681,-19.263237088562597,-19.021985860732403,-18.780734632902121,-18.539483405071724,-18.298232177241228,-18.056980949410637,-17.815729721579938,-17.574478493749154,-17.333227265918239,-17.09197603808726,-16.850724810256164,-16.609473582424975,-16.368222354593669,-16.126971126762271,-15.885719898930782,-15.644468671099178,-15.404960915126029,-15.181144570680159,-14.957328226234143,-14.73351188178802,-14.509695537341738,-14.285879192895333,-14.062062848448795,-13.83824650400212,-13.61443015955531,-13.39061381510837,-13.16679747066131,-12.942981126214093,-12.719164781766752,-12.495348437319278,-12.271532092871665,-12.04771574842392,-11.823899403976046,-11.600083059528043,-11.376266715079897,-11.152450370631623,-10.935809755531011,-10.747872396956327,-10.559935038381415,-10.37199767980627,-10.184060321230893,-9.9961229626552779,-9.8081856040794282,-9.6202482455033511,-9.4323108869270413,-9.2443735283504918,-9.05643616977371,-8.8684988111966927,-8.680561452619445,-8.4926240940419682,-8.3046867354642426,-8.1167493768862986,-7.9288120183081139,-7.7408746597296973,-7.55293730115105,-7.3649999425721671,-7.1928849540307249,-7.0576893274330308,-6.9224937008350826,-6.78729807423689,-6.652102447638458,-6.5169068210397816,-6.3817111944408627,-6.2465155678416933,-6.1113199412422876,-5.9761243146426288,-5.84092868804273,-5.705733061442591,-5.5705374348421994,-5.43534180824157,-5.3001461816406961,-5.1649505550395753,-5.0297549284382121,-4.8945593018366038,-4.7593636752347548,-4.624168048632658,-4.5162623959549162,-4.4492923490431773,-4.3823223021311239,-4.3153522552187455,-4.248382208306051,-4.1814121613930375,-4.1144421144797061,-4.0474720675660594,-3.9805020206520911,-3.913531973737804,-3.8465619268231963,-3.7795918799082737,-3.7126218329930327,-3.6456517860774742,-3.5786817391615968,-3.5117116922454,-3.4447416453288855,-3.3777715984120529,-3.3108015514948987,-3.2438315045774289,-3.2481564196659236,-3.2632805502774733,-3.2784046808886629,-3.2935288114994981,-3.308652942109966,-3.3237770727200773,-3.3389012033298235,-3.354025333939219,-3.3691494645482454,-3.3842735951569209,-3.3993977257652324,-3.4145218563731845,-3.4296459869807769,-3.4447701175880114,-3.4598942481948818,-3.4750183788013942,-3.4901425094075482,-3.5052666400133417,-3.5767147803842243,-3.6857131479106373,-3.7947115154366013,-3.9037098829621297,-4.0127082504872087,-4.1217066180118493,-4.2307049855360388,-4.3397033530597859,-4.4487017205830952,-4.5577000881059515,-4.6666984556283655,-4.77569682315034,-4.884695190671863,-4.993693558192942,-5.102691925713585,-5.2116902932337741,-5.3206886607535289,-5.4296870282728289,-5.5386853957916893,-5.6476837633101109,-5.8290898439484717,-6.0415287793679582,-6.2539677147870014,-6.4664066502056023,-6.6788455856237592,-6.8912845210414648,-7.1037234564587273,-7.3161623918755589,-7.5286013272919314,-7.7410402627078785,-7.9534791981233708,-8.165918133538419,-8.3783570689530276,-8.5907960043671956,-8.8032349397809071,-9.0156738751941816,-9.2281128106070138,-9.4405517460194,-9.6529906814313478,-9.8654296168428459,-10.16612985986343,-10.488896472613593,-10.811663085363197,-11.134429698112241,-11.457196310860729,-11.779962923608648,-12.102729536356009,-12.4254961491028,-12.748262761849031,-13.071029374594723,-13.393795987339823,-13.716562600084385,-14.03932921282836,-14.3620958255718,-14.684862438314665,-15.007629051056989,-15.33039566379872,-15.653162276539909,-15.975928889280532,-16.298695502020589,-16.724627665834735,-17.162023752144897,-17.599419838454455,-18.036815924763378,-18.474212011071721,-18.911608097379467,-19.34900418368661,-19.786400269993116,-20.223796356299086,-20.661192442604413,-21.098588528909129,-21.535984615213295,-21.9733807015168,-22.410776787819735,-22.848172874122053,-23.285568960423785,-23.722965046724919,-24.160361133025404,-24.597757219325345,-25.035153305624647,0,0.023194887658971309,0.04690178306757755,0.077718629893802543,0.12144089762223072,0.1786308725716263,0.24941105097050045,0.33379986519295229,0.431752953234228,0.54307064120313531,0.62413940826771719,0.81364313453230885
DP 169,208.51315649807268,0.0032199539093848975,-46.6202917622848,-45.662384514389544,-44.70447726649288,-43.746570018594845,-42.788662770695375,-41.830755522794476,-40.872848274892142,-39.914941026988451,-38.957033779083311,-37.999126531176763,-37.041219283268816,-36.083312035359455,-35.125404787448673,-34.167497539536505,-33.2095902916229,-32.251683043707907,-31.293775795791451,-30.335868547873609,-29.377961299954382,-28.420054052033723,-27.469511767697497,-26.585254851800517,-25.700997935902169,-24.816741020002347,-23.932484104101121,-23.04822718819846,-22.163970272294385,-21.279713356388886,-20.395456440481961,-19.511199524573602,-18.626942608663821,-17.742685692752627,-16.85842877684,-15.974171860925946,-15.089914945010486,-14.205658029093586,-13.321401113175254,-12.437144197255495,-11.552887281334337,-10.668630365411747,-9.8144050422395548,-9.0803075094080743,-8.34620997657515,-7.6121124437407737,-6.8780149109049455,-6.1439173780676644,-5.4098198452289337,-4.6757223123887481,-3.9416247795471091,-3.2075272467040219,-2.4734297138594772,-1.7393321810134763,-1.0052346481660295,-0.271137115317127,0.46296041753322759,1.1970579503850338,1.9311554832382931,2.6652530160929997,3.3993505489491569,4.1334480818067716,4.8025303880508838,5.3199084503967553,5.8372865127441083,6.3546645750929427,6.8720426374432471,7.3894206997950338,7.906798762148294,8.4241768245030233,8.9415548868592349,9.4589329492169334,9.9763110115760973,10.493689073936745,11.011067136298859,11.528445198662457,12.045823261027538,12.563201323394088,13.08057938576211,13.597957448131611,14.115335510502584,14.632713572875051,15.040409864087506,15.283580906709329,15.526751949332667,15.769922991957516,16.013094034583855,16.256265077211726,16.499436119841082,16.742607162471948,16.985778205104346,17.228949247738225,17.472120290373606,17.715291333010498,17.9584623756489,18.201633418288814,18.444804460930239,18.687975503573149,18.93114654621758,19.174317588863509,19.417488631510963,19.660659674159909,19.586607330264712,19.508351576544673,19.430095822826161,19.351840069109173,19.27358431539372,19.195328561679812,19.117072807967428,19.038817054256583,18.960561300547269,18.88230554683949,18.804049793133228,18.725794039428511,18.647538285725329,18.569282532023671,18.491026778323551,18.41277102462497,18.334515270927916,18.256259517232404,17.963146817767491,17.526792769662045,17.090438721558225,16.654084673456019,16.2177306253554,15.781376577256371,15.345022529158971,14.908668481063158,14.472314432968961,14.035960384876368,13.599606336785385,13.163252288695997,12.726898240608215,12.290544192522038,11.854190144437457,11.417836096354494,10.98148204827312,10.545128000193369,10.108773952115211,9.6724199040386623,8.9665736317851685,8.1452270530425874,7.3238804743015953,6.50253389556218,5.6811873168243343,4.8598407380880975,4.0384941593534354,3.2171475806203307,2.395801001888842,1.5744544231589048,0.753107844430574,-0.0682387342961871,-0.8895853130213508,-1.710931891744961,-2.5322784704669523,-3.3536250491873871,-4.1749716279062268,-4.9963182066234824,-5.8176647853391668,-6.6390113640532631,-7.7826228736538141,-9.0068044236093385,-10.230985973563175,-11.455167523515302,-12.679349073465739,-13.90353062341447,-15.127712173361513,-16.351893723306834,-17.57607527325046,-18.800256823192417,-20.024438373132643,-21.248619923071182,-22.472801473007973,-23.696983022943165,-24.921164572876584,-26.145346122808331,-27.369527672738339,-28.593709222666728,-29.817890772593326,-31.042072322518283,-32.63809852076367,-34.275444696313038,-35.912790871860743,-37.550137047406629,-39.187483222950846,-40.824829398493286,-42.462175574034013,-44.099521749573007,-45.736867925110282,-47.37421410064578,-49.011560276179537,-50.64890645171166,-52.286252627241993,-53.923598802770577,-55.560944978297407,-57.198291153822574,-58.83563732934595,-60.472983504867564,-62.110329680387579,-63.747675855905641,0,0.035524793819316357,0.097405021502971312,0.19936295275845142,0.35008969409525054,0.55044943104811328,0.80070475318949041,1.1006806834694438,1.4497245399077507,1.8465228586776665,2.141197383169593,2.8254688618442061
DP 170,61.1825432732125,0.0045895835203453219,-26.668624747346133,-26.360211147884968,-26.051797548423732,-25.743383948962364,-25.434970349500933,-25.126556750039388,-24.81814315057774,-24.509729551115985,-24.201315951654117,-23.89290235219217,-23.58448875273011,-23.276075153267936,-22.967661553805684,-22.659247954343321,-22.35083435488087,-22.042420755418288,-21.734007155955616,-21.425593556492842,-21.117179957029983,-20.808766357567002,-20.502581468313988,-20.216455181618667,-19.930328894923175,-19.644202608227566,-19.358076321531808,-19.071950034835886,-18.785823748139833,-18.499697461443613,-18.213571174747266,-17.927444888050776,-17.641318601354119,-17.355192314657319,-17.069066027960378,-16.782939741263295,-16.496813454566063,-16.210687167868667,-15.924560881171148,-15.638434594473487,-15.352308307775655,-15.066182021077683,-14.78922709138933,-14.548958023190906,-14.308688954992206,-14.06841988679321,-13.828150818593937,-13.587881750394365,-13.347612682194534,-13.107343613994404,-12.867074545793999,-12.626805477593297,-12.38653640939232,-12.146267341191065,-11.905998272989518,-11.665729204787677,-11.425460136585569,-11.185191068383165,-10.94492200018049,-10.704652931977519,-10.464383863774275,-10.224114795570738,-10.004068811315781,-9.83121066011927,-9.65835250892245,-9.4854943577253277,-9.3126362065279178,-9.139778055330213,-8.96691990413221,-8.7940617529338958,-8.621203601735294,-8.4483454505363991,-8.2754872993372,-8.10262914813771,-7.92977099693791,-7.756912845737828,-7.5840546945374392,-7.4111965433367528,-7.2383383921357689,-7.0654802409344875,-6.89262208973291,-6.7197639385310337,-6.5817853887836542,-6.496127065445199,-6.4104687421063495,-6.324810418767095,-6.23915209542744,-6.1534937720873915,-6.0678354487469344,-5.9821771254060874,-5.8965188020648416,-5.81086047872319,-5.72520215538114,-5.6395438320387017,-5.5538855086958572,-5.4682271853526121,-5.38256886200897,-5.2969105386649318,-5.2112522153204877,-5.125593891975643,-5.0399355686304,-4.9542772452847643,-4.9596095296695708,-4.9788743064415861,-4.9981390832131476,-5.0174038599842552,-5.036668636754901,-5.0559334135251017,-5.075198190294838,-5.0944629670641257,-5.11372774383295,-5.13299252060133,-5.1522572973692471,-5.1715220741367087,-5.1907868509037165,-5.2100516276702749,-5.2293164044363705,-5.2485811812020104,-5.2678459579671957,-5.2871107347319288,-5.3783646738942963,-5.5176125220848462,-5.6568603702748206,-5.7961082184642247,-5.9353560666530631,-6.0746039148413287,-6.2138517630290284,-6.3530996112161562,-6.492347459402712,-6.631595307588702,-6.7708431557741191,-6.9100910039589616,-7.04933885214324,-7.1885867003269412,-7.3278345485100891,-7.4670823966926516,-7.6063302448746528,-7.7455780930560856,-7.8848259412369375,-8.0240737894172227,-8.25586939853183,-8.5273295834442582,-8.7987897683561087,-9.0702499532673926,-9.3417101381781116,-9.613170323088255,-9.8846305079978176,-10.156090692906837,-10.427550877815264,-10.699011062723143,-10.97047124763044,-11.241931432537164,-11.513391617443325,-11.784851802348925,-12.05631198725394,-12.32777217215839,-12.59923235706227,-12.870692541965573,-13.142152726868327,-13.41361291177051,-13.79788291494706,-14.210356705565717,-14.622830496183651,-15.035304286800862,-15.447778077417338,-15.860251868033085,-16.27272565864812,-16.6851994492624,-17.097673239875959,-17.510147030488813,-17.92262082110091,-18.335094611712289,-18.747568402322933,-19.160042192932881,-19.572515983542061,-19.98498977415051,-20.397463564758247,-20.809937355365275,-21.222411145971552,-21.634884936577109,-22.179219149102558,-22.738205904472387,-23.297192659841443,-23.8561794152097,-24.4151661705772,-24.974152925943894,-25.533139681309827,-26.092126436674963,-26.651113192039311,-27.210099947402885,-27.769086702765659,-28.328073458127673,-28.8870602134889,-29.446046968849327,-30.005033724208978,-30.564020479567876,-31.123007234925947,-31.681993990283246,-32.240980745639796,-32.799967500995507,0,0.031241607834522792,0.062459684303846137,0.10236509104016343,0.15867919388544863,0.23217906688966636,0.32304768341387369,0.43132915828826446,0.55699188526843812,0.69980224128586266,0.80353244750052222,1.0460194651289114
DP 171,102.70687805695711,0.0055032845492835507,-49.268565559209847,-48.447154135145567,-47.625742711080235,-46.804331287013945,-45.982919862946709,-45.1615084388784,-44.340097014809125,-43.518685590738855,-42.697274166667619,-41.875862742595359,-41.054451318522091,-40.233039894447863,-39.411628470372612,-38.590217046296381,-37.768805622219134,-36.947394198140934,-36.125982774061725,-35.304571349981494,-34.483159925900274,-33.661748501818082,-32.84629524922142,-32.08446610319443,-31.322636957166388,-30.560807811137373,-29.798978665107274,-29.037149519076156,-28.275320373043982,-27.513491227010778,-26.751662080976558,-25.98983293494129,-25.228003788904964,-24.466174642867617,-23.704345496829223,-22.942516350789791,-22.180687204749354,-21.418858058707841,-20.657028912665336,-19.895199766621751,-19.133370620577139,-18.37154147453148,-17.634252977236358,-16.995128234771546,-16.356003492305589,-15.716878749838477,-15.077754007370197,-14.438629264900756,-13.799504522430176,-13.160379779958424,-12.521255037485529,-11.882130295011466,-11.243005552536239,-10.603880810059858,-9.9647560675823215,-9.32563132510362,-8.6865065826237764,-8.04738184014276,-7.40825709766059,-6.769132355177276,-6.1300076126927978,-5.4908828702071579,-4.90580669431819,-4.4468455434228105,-3.9878843925262486,-3.5289232416285015,-3.0699620907295726,-2.6110009398294585,-2.1520397889281573,-1.6930786380256706,-1.2341174871219991,-0.77515633621714308,-0.31619518531110447,0.14276596559611912,0.60172711650453081,1.0606882674141263,1.5196494183249061,1.9786105692368721,2.4375717201500255,2.8965328710643612,3.3554940219798821,3.8144551728965905,4.1802520903667615,4.4063004561366466,4.6323488219078071,4.8583971876802527,5.0844455534539792,5.3104939192289811,5.5365422850052637,5.7625906507828342,5.9886390165616756,6.2146873823418005,6.4407357481232017,6.6667841139058917,6.8928324796898544,7.1188808454751005,7.3449292112616167,7.5709775770494234,7.797025942838502,8.0230743086288729,8.24912267442052,8.4751710402134375,8.4537482519700156,8.3999689345217661,8.3461896170748489,8.2924102996292728,8.2386309821850343,8.1848516647421441,8.1310723473005915,8.0772930298603764,8.0235137124215,7.9697343949839681,7.9159550775477747,7.8621757601129181,7.8083964426794,7.7546171252472273,7.70083780781639,7.6470584903869074,7.5932791729587494,7.5394998555319352,7.2939358923348774,6.9205124773044657,6.5470890622755409,6.1736656472480771,5.800242232222085,5.4268188171975575,5.0533954021745142,4.67997198715294,4.3065485721328294,3.9331251571141941,3.5597017420970496,3.1862783270813586,2.8128549120671416,2.4394314970544038,2.0660080820431279,1.6925846670333353,1.3191612520249993,0.94573783701814707,0.57231442201277172,0.19889100700886317,-0.42072094587813141,-1.1458455964558873,-1.87097024703219,-2.5960948976070237,-3.321219548180415,-4.0463441987523234,-4.7714688493227806,-5.4965934998918007,-6.2217181504593251,-6.9468428010254364,-7.6719674515900529,-8.3970921021532288,-9.1222167527149356,-9.8473414032752,-10.572466053833974,-11.297590704391309,-12.022715354947186,-12.747840005501597,-13.47296465605455,-14.198089306606054,-15.223107884728522,-16.32310348805855,-17.423099091386913,-18.523094694713624,-19.623090298038665,-20.723085901362094,-21.823081504683859,-22.923077108003937,-24.023072711322389,-25.1230683146392,-26.223063917954306,-27.323059521267819,-28.423055124579605,-29.523050727889821,-30.623046331198339,-31.723041934505183,-32.8230375378104,-33.923033141114,-35.023028744415875,-36.123024347716147,-37.573286967205846,-39.062471822700864,-40.551656678194256,-42.04084153368585,-43.530026389175731,-45.01921124466395,-46.508396100150392,-47.997580955635044,-49.486765811118104,-50.975950666599417,-52.465135522079024,-53.954320377556968,-55.443505233033044,-56.932690088507513,-58.421874943980256,-59.91105979945123,-61.40024465492052,-62.889429510388084,-64.378614365853991,-65.867799221318037,0,0.043741337454689451,0.10582169832616392,0.20148169262294935,0.3420212134600108,0.52825961389863041,0.76034792308929555,1.0381157131988838,1.3610319271992768,1.7280143877177914,1.9997757452265132,2.632788221925519
DP 172,168.39102940459895,0.0016960384350634312,-21.469949618674079,-21.049062269092204,-20.628174919509718,-20.207287569926628,-19.786400220342898,-19.36551287075859,-18.944625521173634,-18.523738171588064,-18.102850822001898,-17.681963472415109,-17.261076122827689,-16.840188773239689,-16.419301423651032,-15.998414074061788,-15.577526724471909,-15.156639374881433,-14.735752025290337,-14.31486467569861,-13.893977326106286,-13.473089976513341,-13.055336842219232,-12.665791941879061,-12.276247041538275,-11.886702141196858,-11.497157240854818,-11.10761234051215,-10.718067440168866,-10.328522539824954,-9.9389776394804183,-9.5494327391352609,-9.1598878387894818,-8.7703429384430738,-8.38079803809604,-7.9912531377483855,-7.6017082374001088,-7.2121633370512068,-6.8226184367016769,-6.4330735363515306,-6.0435286360007536,-5.6539837356493523,-5.27729335908629,-4.9520216852011121,-4.6267500113152895,-4.3014783374288221,-3.97620666354171,-3.6509349896539494,-3.3256633157655466,-3.0003916418764982,-2.6751199679868041,-2.3498482940964651,-2.0245766202054796,-1.6993049463138465,-1.3740332724215696,-1.0487615985286483,-0.72348992463508066,-0.39821825074086703,-0.072946576846008929,0.25232509704949296,0.577596770945639,0.90286844484243189,1.2000505302261077,1.4316893573800007,1.6633281845345533,1.894967011689759,2.1266058388456233,2.3582446660021441,2.5898834931593231,2.8215223203171576,3.0531611474756515,3.2847999746348009,3.516438801794608,3.7480776289550706,3.9797164561161913,4.2113552832779684,4.4429941104404032,4.6746329376034979,4.9062717647672445,5.1379105919316519,5.3695494190967183,5.6011882462624358,5.7848686117303805,5.896610151362446,6.0083516909951982,6.12009323062862,6.2318347702627213,6.3435763098974949,6.4553178495329471,6.5670593891690787,6.6788009288058845,6.7905424684433706,6.9022840080815335,7.01402554772037,7.1257670873598835,7.2375086270000706,7.3492501666409389,7.4609917062824831,7.5727332459247068,7.6844747855676045,7.79621632521118,7.9079578648554305,7.8869845485733157,7.8562466447854211,7.82550874099821,7.7947708372116917,7.764032933425864,7.7332950296407317,7.7025571258562922,7.6718192220725436,7.6410813182894826,7.61034341450712,7.5796055107254485,7.5488676069444693,7.5181297031641749,7.4873917993845867,7.4566538956056752,7.4259159918274653,7.3951780880499456,7.364440184273116,7.2371161311770118,7.04539979027778,6.8536834493792727,6.6619671084814884,6.47025076758445,6.2785344266881244,6.0868180857925447,5.895101744897687,5.7033854040035585,5.5116690631101619,5.3199527222175025,5.12823638132556,4.9365200404343561,4.744803699543886,4.5530873586541389,4.3613710177651255,4.1696546768768377,3.977938335989287,3.7862219951024612,3.5945056542163738,3.2800516306072258,2.9129940856327829,2.5459365406590613,2.1788789956860648,1.811821450713778,1.4447639057422321,1.0777063607713993,0.7106488158012757,0.34359127083189012,-0.023466274136787316,-0.39052381910473472,-0.75758136407196508,-1.1246389090384681,-1.4916964540042621,-1.8587539989693191,-2.2258115439336672,-2.592869088897285,-2.9599266338601811,-3.32698417882236,-3.69404172378382,-4.209431574054542,-4.7619062532324516,-5.3143809324095859,-5.866855611585934,-6.4193302907614989,-6.9718049699362838,-7.524279649110289,-8.0767543282835028,-8.62922900745593,-9.1817036866276052,-9.7341783657984582,-10.286653044968554,-10.839127724137846,-11.39160240330639,-11.944077082474125,-12.49655176164109,-13.049026440807246,-13.601501119972637,-14.15397579913725,-14.706450478301091,-15.43126845823689,-16.17523750383566,-16.919206549433635,-17.663175595030779,-18.407144640627152,-19.151113686222708,-19.895082731817457,-20.639051777411385,-21.383020823004557,-22.126989868596919,-22.870958914188471,-23.614927959779227,-24.358897005369176,-25.102866050958333,-25.84683509654667,-26.590804142134221,-27.334773187720966,-28.078742233306897,-28.822711278892069,-29.566680324476383,0,0.017032819972533884,0.045675711457119544,0.09233948799171425,0.16125638190817571,0.25281385891295433,0.36712197519511053,0.5040992625072207,0.66345291424691077,0.84459384308557617,0.9790730401654163,1.2915478947428147
DP 173,172.51236970378105,0.0032835873623702342,-42.212192542170882,-41.379929628385341,-40.547666714598556,-39.71540380081057,-38.883140887021376,-38.050877973230925,-37.218615059439266,-36.38635214564637,-35.554089231852267,-34.721826318056941,-33.889563404260464,-33.057300490462659,-32.225037576663667,-31.392774662863452,-30.560511749062023,-29.728248835259397,-28.895985921455519,-28.063723007650427,-27.231460093844117,-26.39919718003658,-25.57314914720531,-24.803035630627488,-24.032922114048425,-23.262808597468108,-22.492695080886573,-21.722581564303805,-20.952468047719766,-20.182354531134525,-19.412241014548037,-18.642127497960313,-17.872013981371353,-17.101900464781153,-16.331786948189709,-15.561673431597045,-14.791559915003139,-14.02144639840799,-13.251332881811608,-12.481219365213995,-11.711105848615146,-10.940992332015057,-10.1963548251796,-9.5536225614381571,-8.9108902976954276,-8.2681580339514156,-7.6254257702061334,-6.9826935064595768,-6.3399612427117367,-5.6972289789626274,-5.0544967152122409,-4.4117644514605772,-3.7690321877076314,-3.1262999239534088,-2.4835676601979131,-1.8408353964411406,-1.19810313268309,-0.55537086892376308,0.087361394836838968,0.73009365859871489,1.372825922361864,2.0155581861262943,2.6026653293162219,3.0599787718908948,3.5172922144668712,3.9746056570441417,4.4319190996227169,4.8892325422025866,5.3465459847837558,5.8038594273662261,6.2611728699499931,6.718486312535064,7.1757997551214263,7.6331131977091058,8.0904266402980589,8.5477400828883319,9.005053525479898,9.46236696807276,9.9196804106669276,10.376993853262395,10.834307295859153,11.291620738457219,11.654060418853845,11.874187214020498,12.094314009188482,12.31444080435781,12.534567599528462,12.754694394700467,12.974821189873795,13.194947985048461,13.415074780224467,13.635201575401817,13.855328370580487,14.075455165760491,14.295581960941862,14.515708756124537,14.735835551308575,14.955962346493919,15.176089141680619,15.396215936868643,15.616342732058024,15.836469527248722,15.793027478535919,15.731624767803213,15.670222057071891,15.608819346341914,15.54741663561331,15.48601392488607,15.424611214160205,15.36320850343569,15.301805792712546,15.240403081990781,15.179000371270368,15.117597660551324,15.056194949833651,14.994792239117359,14.9333895284024,14.871986817688816,14.810584106976615,14.749181396265762,14.497154955251316,14.118043024336629,13.738931093423401,13.359819162511597,12.980707231601246,12.601595300692331,12.222483369784856,11.843371438878819,11.464259507974226,11.085147577071067,10.706035646169358,10.326923715269082,9.947811784370252,9.56869985347287,9.1895879225769086,8.8104759916823969,8.4313640607893259,8.0522521298976955,7.67314019900751,7.29402826811877,6.6729439074313914,5.948153809448594,5.22336371146722,4.4985736134872765,3.7737835155087365,3.0489934175316442,2.3242033195559686,1.59941322158169,0.87462312360886407,0.14983302563743492,-0.57495707233255589,-1.299747170301133,-2.0245372682682765,-2.7493273662340223,-3.4741174641983164,-4.1989075621612084,-4.9236976601226692,-5.6484877580827044,-6.3732778560413275,-7.0980679539985161,-8.11503258947278,-9.2050443114348219,-10.29505603339533,-11.385067755354292,-12.475079477311718,-13.565091199267608,-14.655102921221946,-15.745114643174743,-16.835126365125998,-17.925138087075737,-19.01514980902391,-20.105161530970559,-21.195173252915637,-22.285184974859224,-23.375196696801208,-24.465208418741692,-25.555220140680632,-26.645231862618036,-27.735243584553888,-28.825255306488202,-30.25454413932443,-31.721533992158065,-33.188523844990094,-34.655513697820545,-36.122503550649427,-37.589493403476737,-39.056483256302457,-40.523473109126577,-41.990462961949135,-43.457452814770171,-44.924442667589545,-46.391432520407392,-47.858422373223682,-49.325412226038424,-50.79240207885146,-52.259391931663046,-53.726381784473055,-55.193371637281395,-56.660361490088228,-58.127351342893412,0,0.033347112594046671,0.089694596954354028,0.18163216969359089,0.31743042296737795,0.4978545726547986,0.72312402922874086,0.99307871126012515,1.3071400599783574,1.6641443739946971,1.9291969717846762,2.5450211295598169
DP 174,235.93962240586541,0.0036381427713286403,-56.919938898774745,-55.721326300492088,-54.522713702207788,-53.324101103921741,-52.125488505633875,-50.926875907344268,-49.72826330905297,-48.529650710759917,-47.331038112465123,-46.132425514168574,-44.933812915870263,-43.735200317570232,-42.536587719268454,-41.337975120964977,-40.139362522659653,-38.940749924352666,-37.742137326043895,-36.543524727733391,-35.344912129421147,-34.146299531107168,-32.957157279958672,-31.853249048491442,-30.749340817022453,-29.64543258555176,-28.541524354079275,-27.437616122605025,-26.333707891129027,-25.229799659651285,-24.125891428171791,-23.021983196690531,-21.918074965207516,-20.814166733722761,-19.710258502236229,-18.60635027074796,-17.502442039257918,-16.398533807766139,-15.294625576272605,-14.190717344777312,-13.086809113280255,-11.982900881781458,-10.917419406853137,-10.005646774313982,-9.0938741417730515,-8.1821015092303337,-7.2703288766858449,-6.35855624413958,-5.4467836115915365,-4.5350109790417106,-3.6232383464901097,-2.7114657139367306,-1.7996930813815673,-0.88792044882461962,0.023852183734099648,0.93562481629460037,1.8473974488568807,2.7591700814209359,3.6709427139867716,4.5827153465543846,5.4944879791237682,6.4062606116949405,7.2355016215916059,7.872166244883406,8.5088308681770233,9.14549549147244,9.7821601147696668,10.4188247380687,11.055489361369533,11.692153984672194,12.328818607976649,12.965483231282908,13.602147854590978,14.23881247790086,14.875477101212546,15.512141724526037,16.148806347841344,16.785470971158464,17.422135594477371,18.058800217798098,18.695464841120636,19.332129464444957,19.830994839247012,20.123158084981092,20.415321330716989,20.707484576454707,20.999647822194255,21.291811067935665,21.583974313678898,21.876137559423963,22.168300805170873,22.460464050919622,22.752627296670209,23.044790542422611,23.336953788176881,23.629117033932953,23.921280279690873,24.213443525450646,24.505606771212264,24.797770016975679,25.089933262740963,25.382096508508063,25.261063513370217,25.154216911864744,25.047370310361138,24.940523708859363,24.833677107359502,24.726830505861479,24.619983904365331,24.513137302871034,24.406290701378577,24.299444099888049,24.192597498399362,24.085750896912508,23.97890429542754,23.872057693944438,23.7652110924632,23.658364490983832,23.551517889506311,23.44467128803068,23.074434422112272,22.528599897191246,21.982765372272176,21.436930847355033,20.891096322439854,20.345261797526575,19.799427272615286,19.253592747705934,18.707758222798486,18.161923697893023,17.616089172989504,17.070254648087918,16.524420123188257,15.97858559829057,15.432751073394819,14.886916548501004,14.341082023609131,13.795247498719213,13.249412973831236,12.703578448945219,11.831279920325324,10.819063838966876,9.806847757610333,8.7946316762557242,7.7824155949030054,6.7701995135522379,5.7579834322033792,4.7457673508564051,3.733551269511389,2.7213351881682559,1.7091191068270595,0.69690302548777039,-0.31531305584958486,-1.3275291371850579,-2.3397452185185736,-3.3519612998502013,-4.3641773811798972,-5.376393462507667,-6.3886095438335415,-7.4008256251574887,-8.7996219779215981,-10.295067966079435,-11.79051395423525,-13.285959942389004,-14.781405930540704,-16.276851918690362,-17.772297906837977,-19.267743894983507,-20.76318988312703,-22.258635871268506,-23.754081859407904,-25.249527847545288,-26.74497383568054,-28.240419823813845,-29.735865811945018,-31.23131180007422,-32.7267577882013,-34.222203776326396,-35.717649764449384,-37.213095752570375,-39.151709431888406,-41.139568620116776,-43.127427808343086,-45.115286996567271,-47.103146184789345,-49.091005373009388,-51.078864561227327,-53.066723749443135,-55.054582937656889,-57.04244212586859,-59.03030131407818,-61.018160502285696,-63.006019690491115,-64.993878878694431,-66.981738066895687,-68.969597255094826,-70.957456443291932,-72.945315631486849,-74.933174819679834,-76.921034007870588,0,0.042122142664653868,0.11655306346987095,0.23978869209326034,0.42205244121572594,0.66439967002659206,0.96715937492181614,1.33012156451867,1.7524909374937905,2.2326660301146539,2.5892960000419287,3.4171968864469844
DP 175,179.42744332184452,0.0031246179595990822,-41.180632023475205,-40.361326355613151,-39.542020687749869,-38.722715019885342,-37.903409352019672,-37.084103684152822,-36.264798016284686,-35.445492348415364,-34.626186680544883,-33.806881012673188,-32.987575344800248,-32.168269676926123,-31.348964009050761,-30.52965834117423,-29.710352673296512,-28.891047005417555,-28.071741337537389,-27.252435669656027,-26.433130001773463,-25.613824333889681,-24.800667022539074,-24.042845501165758,-23.285023979791223,-22.527202458415477,-21.769380937038495,-21.011559415660308,-20.2537378942809,-19.495916372900254,-18.738094851518415,-17.980273330135322,-17.222451808751039,-16.464630287365523,-15.706808765978783,-14.948987244590828,-14.191165723201639,-13.433344201811252,-12.675522680419629,-11.917701159026793,-11.159879637632725,-10.402058116237454,-9.66941669486478,-9.0374968636327324,-8.4055770323994174,-7.7736572011648635,-7.1417373699290536,-6.5098175386919843,-5.8778977074536529,-5.24597787621407,-4.614058044973234,-3.9821382137311407,-3.3502183824877902,-2.7182985512431785,-2.0863787199973154,-1.4544588887501937,-0.82253905750181622,-0.19061922625218239,0.44130060499870533,1.0732204362508475,1.7051402675042429,2.3370600987588985,2.9140782182309808,3.362990613728452,3.8119030092272035,4.2608154047272313,4.7097278002285394,5.1586401957311239,5.6075525912349917,6.0564649867401341,6.50537738224655,6.95428977775425,7.4032021732632227,7.8521145687734739,8.301026964285013,8.7499393597978159,9.19885175531191,9.6477641508272818,10.096676546343925,10.545588941861848,10.994501337381042,11.443413732901531,11.798859250477431,12.014102242454204,12.229345234432285,12.444588226411669,12.65983121839238,12.875074210374393,13.090317202357731,13.305560194342368,13.520803186328315,13.736046178315593,13.951289170304165,14.166532162294073,14.381775154285258,14.597018146277778,14.812261138271605,15.027504130266738,15.242747122263191,15.457990114260959,15.673233106260035,15.888476098260439,15.842251653368351,15.780712753776998,15.719173854186982,15.65763495459831,15.596096055010984,15.534557155424983,15.473018255840335,15.411479356257008,15.349940456675027,15.2884015570944,15.22686265751509,15.165323757937141,15.103784858360514,15.042245958785244,14.980707059211301,14.919168159638696,14.857629260067434,14.796090360497518,14.547542158005429,14.174318140808037,13.801094123612062,13.427870106417503,13.054646089224345,12.681422072032598,12.30819805484226,11.934974037653332,11.56175002046581,11.188526003279705,10.815301986095021,10.442077968911732,10.06885395172986,9.6956299345493964,9.3224059173703413,8.949181900192702,8.5759578830164571,8.2027338658416422,7.8295098486682351,7.4562858314962472,6.8461391171129007,6.1344509047301123,5.4227626923487051,4.71107447996871,3.9993862675900806,3.2876980552128749,2.576009842837049,1.8643216304625931,1.1526334180895592,0.44094520571789392,-0.27074300665236406,-0.98243121902123809,-1.694119431388708,-2.4058076437548084,-3.1174958561194934,-3.8291840684828036,-4.5408722808447095,-5.25256049320522,-5.9642487055643523,-6.6759369179220789,-7.6732495275941943,-8.7419716113120352,-9.8106936950283714,-10.879415778743189,-11.94813786245652,-13.016859946168337,-14.085582029878664,-15.15430411358745,-16.223026197294757,-17.291748281000583,-18.360470364704845,-19.429192448407647,-20.497914532108908,-21.5666366158087,-22.635358699506973,-23.704080783203739,-24.772802866898981,-25.841524950592753,-26.910247034284996,-27.978969117975769,-29.379021645634364,-30.815892146838411,-32.252762648040942,-33.6896331492419,-35.126503650441357,-36.563374151639273,-38.0002446528356,-39.437115154030408,-40.8739856552237,-42.310856156415454,-43.747726657605661,-45.184597158794325,-46.621467659981484,-48.058338161167079,-49.495208662351111,-50.932079163533615,-52.368949664714592,-53.805820165893984,-55.242690667071912,-56.67956116824822,0,0.0323065413994235,0.087296517784544142,0.17722686672803395,0.31008636255360483,0.48662643553289853,0.70706574256626586,0.97124808163749277,1.2786053485691078,1.6279943838050888,1.8874106724498907,2.4900634802794563
DP 176,54.103197403024318,0.001708435958688186,-8.9439639205251567,-8.85417122093547,-8.7643785213457921,-8.674585821756132,-8.5847931221664737,-8.4950004225768261,-8.4052077229871962,-8.315415023397561,-8.2256223238079489,-8.1358296242183439,-8.04603692462874,-7.9562442250391419,-7.866451525449575,-7.7766588258599985,-7.6868661262704405,-7.597073426680887,-7.507280727091338,-7.4174880275018129,-7.3276953279122878,-7.2379026283227761,-7.148758726619425,-7.0654540672186554,-6.9821494078178716,-6.898844748417079,-6.8155400890162783,-6.7322354296154678,-6.6489307702146538,-6.5656261108138256,-6.4823214514129948,-6.3990167920121612,-6.3157121326113144,-6.2324074732104595,-6.1491028138095922,-6.0657981544087241,-5.9824934950078426,-5.8991888356069584,-5.8158841762060627,-5.73257951680516,-5.6492748574042508,-5.565970198003332,-5.4853327239646115,-5.4153641174295668,-5.3453955108944609,-5.2754269043592874,-5.2054582978240616,-5.1354896912887664,-5.065521084753418,-4.9955524782180065,-4.925583871682532,-4.8556152651469979,-4.7856466586113964,-4.7156780520757389,-4.645709445540021,-4.5757408390042373,-4.5057722324683969,-4.4358036259324871,-4.3658350193965259,-4.2958664128605,-4.2258978063244141,-4.1559291997882637,-4.0918428377533091,-4.0414818982224858,-3.9911209586915994,-3.9407600191606456,-3.8903990796296251,-3.8400381400985428,-3.7896772005673931,-3.7393162610361776,-3.6889553215048956,-3.6385943819735505,-3.5882334424421365,-3.5378725029106577,-3.4875115633791172,-3.4371506238475065,-3.3867896843158323,-3.3364287447840906,-3.2860678052522845,-3.2357068657204149,-3.1853459261884751,-3.1349849866564745,-3.0947673201666004,-3.069764802931906,-3.0447622856971095,-3.0197597684622055,-2.9947572512271958,-2.9697547339920827,-2.9447522167568665,-2.9197496995215428,-2.8947471822861166,-2.8697446650505825,-2.8447421478149457,-2.8197396305792051,-2.7947371133433556,-2.769734596107408,-2.7447320788713476,-2.7197295616351873,-2.6947270443989209,-2.6697245271625492,-2.6447220099260722,-2.6197194926894909,-2.6209979366103933,-2.6265098753112874,-2.6320218140120542,-2.6375337527126961,-2.6430456914132106,-2.6485576301136,-2.6540695688138602,-2.659581507514,-2.66509344621401,-2.6706053849138969,-2.6761173236136564,-2.681629262313288,-2.6871412010127953,-2.6926531397121765,-2.6981650784114311,-2.7036770171105609,-2.7091889558095636,-2.714700894508439,-2.7411476151712266,-2.7815511869437732,-2.8219547587161498,-2.8623583304883593,-2.9027619022603979,-2.9431654740322681,-2.9835690458039683,-3.0239726175755015,-3.0643761893468651,-3.1047797611180585,-3.145183332889085,-3.1855869046599428,-3.22599047643063,-3.2663940482011484,-3.3067976199715026,-3.3472011917416808,-3.3876047635116944,-3.4280083352815391,-3.4684119070512116,-3.5088154788207175,-3.5761368330533694,-3.6549947432441541,-3.7338526534347682,-3.8127105636252128,-3.89156847381549,-3.9704263840055938,-4.0492842941955294,-4.1281422043853,-4.2070001145748961,-4.2858580247643276,-4.3647159349535851,-4.4435738451426774,-4.5224317553315965,-4.6012896655203512,-4.6801475757089337,-4.7590054858973474,-4.83786339608559,-4.9167213062736641,-4.9955792164615715,-5.0744371266493067,-5.1861012208466741,-5.3059672486589138,-5.4258332764709305,-5.545699304282719,-5.6655653320942765,-5.7854313599056084,-5.9052973877167076,-6.0251634155275777,-6.1450294433382213,-6.2648954711486464,-6.3847614989588273,-6.5046275267687941,-6.62449355457852,-6.74435958238803,-6.8642256101972965,-6.9840916380063547,-7.1039576658151722,-7.2238236936237659,-7.3436897214321259,-7.4635557492402622,-7.6217722980291747,-7.784250418589143,-7.9467285391488618,-8.1092066597083345,-8.2716847802675613,-8.4341629008265286,-8.5966410213852491,-8.75911914194372,-8.9215972625019475,-9.0840753830599237,-9.2465535036176636,-9.4090316241751371,-9.571509744732376,-9.73398786528936,-9.896465985846099,-10.05894410640258,-10.22142222695882,-10.383900347514805,-10.546378468070548,-10.708856588626038,0,0.011474896970218619,0.021974692349907857,0.034439315768812692,0.051536289550180359,0.073568988911120611,0.10063505321897935,0.13278503761243129,0.17005417886522731,0.21241072373090208,0.24271230962304052,0.31347975760368724
DP 177,131.61052891888562,0.0020114567484623733,-21.612225234126818,-21.216274277885951,-20.82032332164453,-20.424372365402569,-20.028421409160043,-19.632470452916994,-19.236519496673406,-18.84056854042926,-18.444617584184559,-18.048666627939326,-17.652715671693525,-17.256764715447197,-16.860813759200312,-16.464862802952897,-16.0689118467049,-15.6729608904564,-15.277009934207333,-14.881058977957716,-14.485108021707564,-14.089157065456853,-13.696100131482423,-13.329089671554167,-12.962079211625344,-12.595068751695971,-12.228058291766036,-11.861047831835542,-11.494037371904481,-11.12702691197287,-10.760016452040698,-10.393005992107971,-10.025995532174678,-9.6589850722408226,-9.291974612306424,-8.9249641523714569,-8.55795369243593,-8.1909432324998459,-7.8239327725632064,-7.4569223126260011,-7.0899118526882408,-6.7229013927499155,-6.3677983396305518,-6.06032547654929,-5.7528526134674314,-5.4453797503849772,-5.1379068873019342,-4.8304340242182882,-4.5229611611340568,-4.21548829804923,-3.9080154349638105,-3.6005425718777953,-3.2930697087911849,-2.9855968457039808,-2.6781239826161838,-2.3706511195277935,-2.0631782564388108,-1.7557053933492306,-1.4482325302590606,-1.1407596671682971,-0.83328680407693989,-0.52581394098498868,-0.24450540572604001,-0.024247793116460307,0.19600981949372853,0.41626743210452016,0.63652504471591853,0.8567826573279218,1.0770402699405328,1.297297882553748,1.5175554951675687,1.737813107781996,1.9580707203970276,2.1783283330126646,2.3985859456289114,2.618843558245759,2.8391011708632141,3.0593587834812763,3.2796163960999434,3.4998740087192153,3.7201316213390943,3.9403892339595759,4.1156669410379383,4.2234737268991234,4.3312805127609426,4.4390872986233925,4.5468940844864818,4.6547008703502071,4.762507656214563,4.8703144420795557,4.9781212279451816,5.0859280138114435,5.1937347996783405,5.3015415855458743,5.4093483714140422,5.51715515728284,5.6249619431522735,5.7327687290223448,5.8405755148930449,5.948382300764389,6.056189086636361,6.1639958725089752,6.1507217652744677,6.1238505106078778,6.0969792559419487,6.0701080012766662,6.0432367466120471,6.0163654919480782,5.9894942372847693,5.9626229826221078,5.9357517279601062,5.9088804732987557,5.8820092186380633,5.85513796397803,5.8282667093186378,5.8013954546599109,5.7745242000018395,5.7476529453444165,5.7207816906876552,5.6939104360315476,5.5750200738569582,5.3947821903609565,5.2145443068656627,5.0343064233710635,4.8540685398771712,4.6738306563839718,4.4935927728914855,4.3133548893996965,4.1331170059086082,3.9528791224182234,3.7726412389285451,3.5924033554395627,3.4121654719512806,3.2319275884637078,3.0516897049768303,2.8714518214906604,2.6912139380051845,2.5109760545204152,2.33073817103635,2.1505002875529873,1.8524794498533075,1.5039786127669301,1.155477775681244,0.80697693859625574,0.458476101511952,0.10997526442835716,-0.23852557265454785,-0.58702640973677178,-0.93552724681828536,-1.284028083899118,-1.6325289209792482,-1.9810297580586882,-2.3295305951374279,-2.6780314322154859,-3.0265322692928356,-3.3750331063694992,-3.7235339434454637,-4.0720347805207391,-4.420535617595319,-4.7690364546692017,-5.2607012046331487,-5.7881586243337493,-6.31561604403359,-6.8430734637326536,-7.3705308834309582,-7.897988303128499,-8.4254457228252679,-8.9529031425212775,-9.4803605622165126,-10.007817981910998,-10.535275401604695,-11.062732821297644,-11.590190240989806,-12.11764766068123,-12.645105080371867,-13.172562500061735,-13.700019919750858,-14.227477339439197,-14.754934759126776,-15.282392178813589,-15.976812176312704,-16.689785324857496,-17.402758473401509,-18.115731621944715,-18.82870477048716,-19.541677919028803,-20.254651067569647,-20.967624216109687,-21.680597364648964,-22.393570513187445,-23.106543661725151,-23.81951681026208,-24.532489958798191,-25.245463107333531,-25.958436255868062,-26.67140940440181,-27.384382552934788,-28.097355701466938,-28.810328849998331,-29.523301998528904,0,0.017947856550503086,0.04622822942821142,0.091373198062690592,0.15793168404578609,0.24627231332989916,0.35648541333445449,0.48849026409366819,0.642014590170089,0.81651004419192186,0.9459587041026275,1.2470481538211389
DP 178,58.174665877093346,0.0019511172785971467,-10.859323326347598,-10.740421300125906,-10.621519273904207,-10.502617247682483,-10.383715221460744,-10.26481319523899,-10.145911169017198,-10.027009142795395,-9.90810711657357,-9.78920509035173,-9.67030306412986,-9.55140103790799,-9.4324990116860885,-9.3135969854641587,-9.1946949592422165,-9.0757929330202511,-8.9568909067982734,-8.837988880576269,-8.7190868543542486,-8.6001848281322122,-8.4821421224845857,-8.3718333832336214,-8.26152464398262,-8.1512159047315738,-8.0409071654804869,-7.9305984262293681,-7.8202896869782075,-7.7099809477270043,-7.5996722084757575,-7.4893634692244806,-7.379054729973161,-7.2687459907218006,-7.1584372514703984,-7.0481285122189625,-6.9378197729674813,-6.8275110337159717,-6.7172022944644132,-6.60689355521281,-6.4965848159611808,-6.3862760767094988,-6.2795013756402627,-6.1868629943244153,-6.0942246130084721,-6.0015862316924258,-5.9089478503762809,-5.8163094690600428,-5.7236710877437007,-5.6310327064272618,-5.53839432511072,-5.445755943794083,-5.3531175624773448,-5.26047918116051,-5.1678407998435736,-5.0752024185265432,-4.9825640372094062,-4.8899256558921751,-4.7972872745748454,-4.7046488932574153,-4.612010511939884,-4.51937213062226,-4.4345276527082591,-4.3678691949689625,-4.30121073722956,-4.2345522794900567,-4.1678938217504466,-4.1012353640107344,-4.0345769062709183,-3.9679184485309893,-3.9012599907909657,-3.8346015330508365,-3.7679430753105994,-3.7012846175702618,-3.6346261598298146,-3.5679677020892675,-3.5013092443486151,-3.4346507866078575,-3.3679923288669955,-3.3013338711260278,-3.234675413384958,-3.1680169556437843,-3.1147993212514193,-3.081743239497488,-3.0486871577434052,-3.0156310759891736,-2.982574994234795,-2.9495189124802694,-2.9164628307255911,-2.8834067489707662,-2.8503506672157948,-2.8172945854606737,-2.7842385037054047,-2.7511824219499879,-2.7181263401944218,-2.6850702584387087,-2.6520141766828469,-2.6189580949268376,-2.5859020131706778,-2.5528459314143719,-2.5197898496579163,-2.4867337679013128,-2.4886540782431692,-2.4960334951714058,-2.5034129120994688,-2.5107923290273613,-2.5181717459550792,-2.5255511628826266,-2.5329305798099986,-2.5403099967372036,-2.547689413664231,-2.5550688305910909,-2.5624482475177754,-2.5698276644442868,-2.577207081370628,-2.5845864982967979,-2.5919659152227932,-2.5993453321486162,-2.6067247490742682,-2.6141041659997466,-2.6492250350576314,-2.7028406425679177,-2.7564562500779819,-2.8100718575878258,-2.8636874650974518,-2.9173030726068521,-2.9709186801160334,-3.0245342876249928,-3.0781498951337309,-3.131765502642252,-3.1853811101505456,-3.2389967176586252,-3.2926123251664769,-3.3462279326741102,-3.3998435401815241,-3.453459147688716,-3.5070747551956876,-3.5606903627024362,-3.61430597020896,-3.6679215777152669,-3.7572046900568536,-3.8617743575217087,-3.9663440249863418,-4.0709136924507545,-4.1754833599149457,-4.2800530273789139,-4.3846226948426628,-4.48919236230619,-4.5937620297694961,-4.6983316972325841,-4.8029013646954466,-4.9074710321580906,-5.0120406996205107,-5.116610367082715,-5.221180034544691,-5.3257497020064486,-5.4303193694679841,-5.5348890369292976,-5.6394587043903961,-5.744028371851269,-5.8920708950022664,-6.0509821457174,-6.2098933964322525,-6.3688046471468152,-6.5277158978610927,-6.6866271485750719,-6.8455383992887695,-7.0044496500021776,-7.1633609007152979,-7.3222721514281339,-7.4811834021406627,-7.64009465285292,-7.7990059035648809,-7.9579171542765588,-8.1168284049879524,-8.2757396556990415,-8.434650906409848,-8.5935621571203669,-8.7524734078306068,-8.91138465854055,-9.12111251892445,-9.3364872029693977,-9.5518618870140362,-9.7672365710583584,-9.9826112551023662,-10.19798593914607,-10.41336062318946,-10.628735307232521,-10.844109991275296,-11.059484675317744,-11.274859359359883,-11.490234043401726,-11.705608727443234,-11.92098341148445,-12.136358095525329,-12.351732779565918,-12.567107463606172,-12.78248214764613,-12.997856831685793,-13.213231515725109,0,0.013195607721734866,0.025902782879182629,0.041676490757220908,0.063707805244811663,0.092336655569659587,0.12765421121841458,0.16969413351485582,0.21846403280391369,0.27389039449735708,0.31393860436325893,0.40754683388011165
DP 179,95.139599994153912,0.0011958356655823879,-10.079841870903909,-9.91787860700114,-9.755915343098188,-9.5939520791950237,-9.4319888152917013,-9.2700255513881817,-9.1080622874844881,-8.9460990235805991,-8.7841357596765359,-8.62217249577228,-8.4602092318678359,-8.2982459679632274,-8.1362827040584129,-7.9743194401534305,-7.8123561762482563,-7.6503929123428973,-7.4884296484373492,-7.3264663845316216,-7.1645031206257173,-7.002539856719622,-6.8417500151068413,-6.6915210850522531,-6.5412921549974765,-6.3910632249425063,-6.24083429488734,-6.0906053648319833,-5.940376434776435,-5.7901475047206823,-5.639918574664744,-5.4896896446086121,-5.3394607145522821,-5.1892317844957621,-5.0390028544390422,-4.8887739243821349,-4.7385449943250366,-4.5883160642677394,-4.4380871342102468,-4.2878582041525668,-4.1376292740946852,-3.9874003440366139,-3.8420053596133941,-3.7159463861891542,-3.5898874127646909,-3.463828439340003,-3.3377694659151,-3.2117104924899715,-3.0856515190646214,-2.9595925456390537,-2.8335335722132609,-2.7074745987872468,-2.5814156253610108,-2.4553566519345531,-2.3292976785078747,-2.2032387050809739,-2.0771797316538523,-1.9511207582265069,-1.8250617847989434,-1.6990028113711564,-1.57294383794315,-1.4468848645149206,-1.3314748292699194,-1.2409126519737625,-1.1503504746773734,-1.059788297380762,-0.969226120083922,-0.87866394278685489,-0.78810176548956012,-0.697539588192038,-0.60697741089428925,-0.51641523359631358,-0.42585305629811043,-0.33529087899968091,-0.24472870170102276,-0.15416652440213802,-0.063604347103026385,0.026957830196312923,0.11752000749587957,0.20808218479567356,0.29864436209569384,0.38920653939594191,0.46140578700562329,0.50606020615167335,0.55071462529797122,0.59536904444451932,0.64002346359131612,0.68467788273836194,0.72933230188565579,0.7739867210331981,0.81864114018099077,0.863295559329032,0.90794997847732073,0.9526043976258588,0.997258816774646,1.0419132359236829,1.0865676550729668,1.1312220742224997,1.1758764933722821,1.2205309125223129,1.2651853316725929,1.30983975082312,1.3058472913946257,1.2953193194751336,1.2847913475559034,1.2742633756369355,1.26373540371823,1.2532074317997859,1.2426794598816069,1.2321514879636861,1.2216235160460289,1.2110955441286344,1.2005675722115021,1.1900396002946318,1.1795116283780227,1.168983656461676,1.1584556845455929,1.1479277126297704,1.1373997407142107,1.1268717687989138,1.0785082427443429,1.0049204178798805,0.93133259301571047,0.85774476815182887,0.78415694328823982,0.71056911842493919,0.63698129356193367,0.56339346869921714,0.489805643836791,0.41621781897465604,0.34262999411281486,0.26904216925126223,0.19545434439000045,0.1218665195290325,0.048278694668352613,-0.02530913019203454,-0.098896955052132487,-0.17248477991193786,-0.24607260477145104,-0.31966042963067381,-0.44183871330334362,-0.584842135447217,-0.72784555759080249,-0.87084897973409781,-1.0138524018771076,-1.1568558240198232,-1.2998592461622522,-1.4428626683043979,-1.5858660904462478,-1.7288695125878137,-1.8718729347290883,-2.0148763568700758,-2.1578797790107718,-2.3008832011511853,-2.4438866232913035,-2.5868900454311357,-2.7298934675706787,-2.8728968897099318,-3.0159003118488994,-3.1589037339875747,-3.3611157885419343,-3.578130700763638,-3.7951456129850087,-4.0121605252060508,-4.2291754374267629,-4.446190349647142,-4.6632052618671933,-4.880220174086908,-5.0972350863062976,-5.314249998525356,-5.5312649107440759,-5.7482798229624725,-5.9652947351805317,-6.1823096473982675,-6.39932455961567,-6.6163394718327417,-6.833354384049481,-7.0503692962658944,-7.2673842084819693,-7.4843991206977183,-7.7705826406498542,-8.0644522878993,-8.35832193514839,-8.6521915823971316,-8.9460612296455491,-9.2399308768936059,-9.53380052414132,-9.8276701713886734,-10.1215398186357,-10.415409465882377,-10.709279113128716,-11.003148760374708,-11.297018407620357,-11.590888054865646,-11.884757702110605,-12.178627349355219,-12.472496996599482,-12.766366643843392,-13.060236291086975,-13.354105938330198,0,0.0092042194825689653,0.021732118690375106,0.040732724858981224,0.068594269675556166,0.10548775348477285,0.15144146662573191,0.20642240410811724,0.27032978480600184,0.342955802639497,0.39668534458172766,0.52190586366811786
DP 180,114.68251516934859,0.00570978422192771,-55.57299633962365,-54.602724815069237,-53.63245329051356,-52.662181765956618,-51.691910241398446,-50.721638716838946,-49.751367192278259,-48.781095667716279,-47.81082414315307,-46.840552618588596,-45.870281094022808,-44.900009569455825,-43.929738044887564,-42.959466520318,-41.989194995747233,-41.018923471175171,-40.048651946601858,-39.078380422027294,-38.108108897451473,-37.137837372874387,-36.174620955044439,-35.274901164828194,-34.375181374610662,-33.475461584391837,-32.57574179417167,-31.676022003950219,-30.776302213727487,-29.876582423503436,-28.976862633278088,-28.077142843051444,-27.177423052823507,-26.27770326259424,-25.377983472363695,-24.478263682131839,-23.578543891898722,-22.678824101664262,-21.779104311428512,-20.879384521191461,-19.979664730953118,-19.079944940713482,-18.209278220101734,-17.45482515109391,-16.700372082084691,-15.945919013074059,-15.191465944062012,-14.437012875048543,-13.682559806033677,-12.928106737017398,-12.173653667999702,-11.419200598980588,-10.664747529960056,-9.9102944609381147,-9.1558413919147554,-8.4013883228899857,-7.6469352538638127,-6.8924821848362106,-6.1380291158071971,-5.38357604677678,-4.6291229777449541,-3.8746699087117071,-3.1841511589805731,-2.6428145020310652,-2.1014778450801006,-1.5601411881277003,-1.0188045311738552,-0.47746787421856351,0.06386878273817,0.60520543969635243,1.1465420966559756,1.6878787536170472,2.229215410579557,2.7705520675435089,3.3118887245089166,3.8532253814757578,4.39456203844405,4.9358986954137851,5.4772353523849695,6.0185720093575945,6.5599086663316628,7.1012453233071753,7.5324674334490647,7.7985151212632386,8.0645628090789447,8.3306104968961954,8.5966581847149737,8.8627058725352885,9.12875356035715,9.39480124818053,9.6608489360054524,9.9268966238319116,10.192944311659906,10.458991999489442,10.725039687320514,10.991087375153102,11.257135062987247,11.523182750822921,11.78923043866013,12.055278126498887,12.32132581433917,12.58737350218099,12.559516702000792,12.495163819763997,12.430810937528797,12.366458055295178,12.302105173063183,12.237752290832759,12.173399408603947,12.109046526376719,12.04469364415111,11.980340761927064,11.915987879704629,11.8516349974838,11.787282115264547,11.722929233046905,11.658576350830852,11.594223468616399,11.529870586403533,11.46551770419228,11.174943738879012,10.733552154342853,10.29216056980842,9.8507689852757174,9.40937740074476,8.96798581621551,8.52659423168802,8.0852026471622427,7.6438110626382025,7.20241947811588,6.76102789359532,6.319636309076472,5.8782447245593543,5.436853140043981,4.9954615555303175,4.5540699710184116,4.11267838650821,3.671286801999758,3.22989521749304,2.7885036329880504,2.056988170063399,1.2011299845254677,0.345271798989248,-0.51058638654525068,-1.3664445720780587,-2.222302757609115,-3.0781609431384669,-3.9340191286661379,-4.789877314192057,-5.645735499716289,-6.501593685238789,-7.3574518707595846,-8.2133100562786581,-9.0691682417960351,-9.92502642731167,-10.780884612825615,-11.636742798337822,-12.492600983848318,-13.348459169357124,-14.204317354864198,-15.413343716856614,-16.710666295732537,-18.007988874606557,-19.305311453478659,-20.602634032348849,-21.899956611217096,-23.197279190083457,-24.49460176894787,-25.791924347810372,-27.089246926671006,-28.386569505529646,-29.683892084386436,-30.981214663241225,-32.2785372420942,-33.57585982094519,-34.87318239979426,-36.170504978641446,-37.467827557486714,-38.765150136330064,-40.062472715171467,-41.772085033570036,-43.527511653070157,-45.282938272568337,-47.038364892064457,-48.793791511558652,-50.549218131050843,-52.304644750541051,-54.060071370029263,-55.815497989515563,-57.570924608999839,-59.32635122848211,-61.081777847962456,-62.837204467440749,-64.592631086917166,-66.34805770639143,-68.103484325863789,-69.858910945334273,-71.614337564802611,-73.3697641842691,-75.1251908037335,0,0.047703459640455054,0.11903147292339081,0.2309664638046765,0.39573384821606378,0.614257857739956,0.88673556560939626,1.2129653237545912,1.592297190526591,2.0234161730258386,2.3429876730218773,3.0868410832269988
DP 181,259.96749795903526,0.0033033814472595707,-54.988873358659752,-53.809253626525162,-52.629633894388846,-51.450014162250937,-50.270394430111295,-49.090774697969977,-47.911154965826952,-46.7315352336823,-45.551915501535881,-44.372295769387875,-43.192676037238144,-42.013056305086771,-40.833436572933664,-39.653816840778894,-38.474197108622491,-37.294577376464311,-36.1149576443045,-34.935337912142991,-33.755718179979816,-32.576098447814978,-31.406046760114428,-30.322108377018889,-29.238169993921666,-28.154231610822752,-27.070293227722111,-25.986354844619832,-24.902416461515845,-23.818478078410138,-22.734539695302772,-21.650601312193725,-20.56666292908297,-19.482724545970523,-18.398786162856382,-17.314847779740568,-16.230909396623055,-15.146971013503858,-14.063032630382969,-12.979094247260385,-11.895155864136107,-10.811217481010154,-9.7659206872789479,-8.87519207738712,-7.9844634674935753,-7.093734857598319,-6.2030062477013717,-5.312277637802711,-4.4215490279023415,-3.5308204180002671,-2.6400918080964932,-1.7493631981910072,-0.858634588283811,0.032094021625095774,0.92282263153570521,1.8135512414480213,2.7042798513620454,3.5950084612777746,4.4857370711952118,5.3764656811143547,6.2671942910351968,7.1579229009577432,7.9662911782829244,8.5824827512468822,9.1986743242125879,9.8148658971800131,10.43105747014917,11.04724904312007,11.6634406160927,12.279632189067057,12.895823762043161,13.512015335020994,14.128206908000541,14.744398480981838,15.36059005396487,15.976781626949631,16.592973199936143,17.209164772924375,17.825356345914336,18.441547918906039,19.057739491899468,19.673931064894635,20.153987243899092,20.429837114950853,20.705686986004356,20.981536857059631,21.257386728116675,21.533236599175456,21.809086470236007,22.084936341298317,22.360786212362374,22.636636083428193,22.912485954495761,23.188335825565098,23.464185696636179,23.740035567709011,24.015885438783616,24.291735309859966,24.567585180938085,24.843435052017949,25.119284923099571,25.39513479418294,25.248811944335007,25.135112093765787,25.021412243198359,24.90771239263271,24.794012542068852,24.680312691506742,24.566612840946441,24.452912990387905,24.339213139831166,24.225513289276204,24.111813438723011,23.998113588171613,23.884413737621994,23.770713887074148,23.657014036528082,23.543314185983789,23.429614335441283,23.315914484900595,22.948292035248674,22.411383852632653,21.874475670018516,21.337567487406211,20.800659304795765,20.263751122187152,19.726842939580411,19.189934756975521,18.653026574372468,18.11611839177128,17.579210209171951,17.042302026574458,16.50539384397884,15.96848566138506,15.431577478793118,14.894669296203064,14.357761113614819,13.820852931028446,13.283944748443933,12.747036565861272,11.899198297968894,10.918100080704594,9.9370018634421182,8.95590364618147,7.9748054289226253,6.9937072116656509,6.0126089944104768,5.0315107771571066,4.0504125599056033,3.0693143426558889,2.0882161254080249,1.1071179081619726,0.12601969091776388,-0.85507852632465164,-1.8361767435652019,-2.8172749608039531,-3.7983731780408667,-4.779471395275948,-5.7605696125092187,-6.7416678297406518,-8.0872185228935045,-9.52388664111547,-10.960554759335489,-12.397222877553569,-13.833890995769703,-15.270559113983877,-16.707227232196129,-18.143895350406421,-19.58056346861478,-21.017231586821186,-22.453899705025623,-23.890567823228135,-25.327235941428661,-26.763904059627325,-28.200572177823965,-29.637240296018721,-31.073908414211473,-32.510576532402325,-33.94724465059118,-35.383912768778174,-37.235536031259763,-39.13326977891802,-41.031003526574352,-42.928737274228624,-44.82647102188097,-46.724204769531354,-48.621938517179728,-50.519672264826085,-52.417406012470522,-54.315139760113006,-56.212873507753429,-58.11060725539199,-60.00834100302842,-61.906074750662981,-63.80380849829551,-65.7015422459261,-67.599275993554684,-69.497009741181259,-71.394743488806043,-73.292477236428553,0,0.039573538766091876,0.11013237826341835,0.22733147222774372,0.40072115346074538,0.63131222615985927,0.91942458508941749,1.2648595354972314,1.6668564862136408,2.1238841972324978,2.4633423857536978,3.2512249692989044
DP 182,171.33070904221307,0.0018064214295277132,-23.121149214125815,-22.666024389510522,-22.210899564894593,-21.755774740277957,-21.300649915660681,-20.845525091042735,-20.39040026642412,-19.935275441804837,-19.480150617184893,-19.025025792564286,-18.569900967942992,-18.114776143321041,-17.659651318698437,-17.20452649407515,-16.749401669451181,-16.294276844826577,-15.839152020201272,-15.384027195575335,-14.928902370948721,-14.473777546321434,-14.022048622297614,-13.600883124705435,-13.179717627112591,-12.758552129519058,-12.337386631924849,-11.916221134329982,-11.495055636734424,-11.073890139138188,-10.652724641541285,-10.231559143943706,-9.810393646345446,-9.3892281487465166,-8.9680626511469068,-8.5468971535466185,-8.1257316559456623,-7.7045661583440168,-7.2834006607417079,-6.8622351631387257,-6.4410696655350606,-6.019904167930715,-5.6126609290569105,-5.2611073830925719,-4.90955383712753,-4.5580002911617958,-4.20644674519536,-3.8548931992282296,-3.5033396532603986,-3.1517861072918736,-2.8002325613226509,-2.4486790153527265,-2.0971254693821053,-1.7455719234107832,-1.3940183774387649,-1.0424648314660494,-0.69091128549263425,-0.33935773951852133,0.012195806456288738,0.36374935243179563,0.71530289840799943,1.0668564443849022,1.3880038339695144,1.6382025672836902,1.8884013005985814,2.1386000339141815,2.3887987672304893,2.6389975005475095,2.8891962338652428,3.1393949671836827,3.3895937005028349,3.6397924338227008,3.8899911671432736,4.1401899004645575,4.39038863378655,4.6405873671092559,4.8907861004326705,5.1409848337567992,5.3911835670816322,5.6413823004071819,5.8915810337334387,6.1417797670604122,6.34010343609374,6.4606132828455687,6.5811231295981241,6.7016329763514184,6.8221428231054473,6.942652669860208,7.0631625166156882,7.1836723633719126,7.30418221012886,7.4246920568865384,7.5452019036449505,7.6657117504040935,7.7862215971639639,7.90673144392457,8.0272412906859056,8.1477511374479725,8.268260984210773,8.388770830974309,8.5092806777385626,8.6297905245035533,8.606346996784076,8.5728673252381782,8.5393876536930353,8.5059079821486385,8.4724283106049914,8.4389486390620849,8.40546896751993,8.37198929597852,8.3385096244378651,8.3050299528979483,8.2715502813587936,8.2380706098203742,8.2045909382827062,8.1711112667457737,8.1376315952096068,8.104151923674177,8.07067225213949,8.0371925806055575,7.8994119318344973,7.6920956551112427,7.4847793783887795,7.277463101667089,7.070146824946197,6.8628305482260874,6.6555142715067692,6.4481979947882433,6.2408817180704927,6.033565441353538,5.8262491646373791,5.6189328879220009,5.41161661120741,5.2043003344936158,4.9969840577805984,4.7896677810683794,4.5823515043569412,4.3750352276462943,4.1677189509364361,3.9604026742273706,3.6206467941679472,3.2241292957539565,2.8276117973407353,2.4310942989283015,2.0345768005166334,1.6380593021057597,1.2415418036956596,0.84502430528632466,0.44850680687778466,0.051989308470009252,-0.344528189936979,-0.74104568834319329,-1.1375631867486224,-1.5340806851532864,-1.9305981835571571,-2.32711568196026,-2.7236331803625773,-3.1201506787641149,-3.5166681771648842,-3.9131856755648662,-4.469661190247062,-5.0661280989400881,-5.6625950076322873,-6.2590619163236338,-6.8555288250141393,-7.4519957337038072,-8.0484626423926269,-8.6449295510805939,-9.24139645976773,-9.837863368454034,-10.434330277139461,-11.030797185824078,-11.627264094507812,-12.223731003190739,-12.820197911872809,-13.416664820554036,-14.013131729234413,-14.609598637913956,-15.206065546592653,-15.802532455270505,-16.58477527099906,-17.387661805274142,-18.190548339548386,-18.993434873821759,-19.796321408094268,-20.599207942365908,-21.402094476636698,-22.204981010906589,-23.007867545175646,-23.810754079443843,-24.613640613711166,-25.416527147977639,-26.219413682243228,-27.022300216507986,-27.825186750771845,-28.628073285034869,-29.43095981929703,-30.233846353558278,-31.03673288781874,-31.839619422078254,0,0.018287432883450493,0.049146770938283825,0.0994761861343164,0.17381360305338669,0.27257764240863996,0.39588803655230331,0.54365703987477587,0.71556826413907559,0.91098511270908855,1.0560676144605399,1.3931604757405815
DP 183,135.10561127936677,0.0011233670095496993,-12.291388405792738,-12.064351231028978,-11.837314056264903,-11.610276881500518,-11.383239706735814,-11.156202531970786,-10.92916535720545,-10.70212818243979,-10.475091007673822,-10.248053832907528,-10.021016658140931,-9.7939794833740184,-9.5669423086067766,-9.3399051338392223,-9.112867959071357,-8.8858307843031774,-8.6587936095346816,-8.4317564347658642,-8.204719259996736,-7.9776820852272827,-7.7523064339002694,-7.5418846506120012,-7.3314628673234115,-7.1210410840345,-6.9106193007452585,-6.7001975174557,-6.4897757341658195,-6.2793539508756178,-6.0689321675850891,-5.858510384294239,-5.6480886010030646,-5.4376668177115652,-5.227245034419747,-5.0168232511276036,-4.8064014678351406,-4.595979684542348,-4.38555790124924,-4.1751361179558018,-3.964714334662045,-3.7542925513679632,-3.5507060752941744,-3.3744611511486475,-3.1982162270027854,-3.0219713028565751,-2.8457263787100278,-2.6694814545631362,-2.4932365304159023,-2.316991606268326,-2.1407466821204113,-1.9645017579721529,-1.7882568338235527,-1.6120119096746084,-1.4357669855253248,-1.2595220613756974,-1.0832771372257293,-0.90703221307541859,-0.73078728892476619,-0.554542364773774,-0.37829744062243986,-0.20205251647076328,-0.040820955499209458,0.0853789516852943,0.21157885887014857,0.33777876605534984,0.46397867324090009,0.59017858042679916,0.716378487613048,0.842578394799644,0.96877830198658965,1.0949782091738829,1.2211781163615243,1.3473780235495154,1.4735779307378556,1.5997778379265437,1.7259777451155818,1.8521776523049669,1.9783775594947026,2.1045774666847854,2.2307773738752155,2.3569772810659955,2.4573800964292736,2.5190866644494769,2.5807932324700431,2.6424998004909761,2.7042063685122728,2.7659129365339346,2.8276195045559613,2.8893260725783554,2.9510326406011087,3.0127392086242266,3.0744457766477131,3.1361523446715629,3.1978589126957737,3.25956548072035,3.321272048745294,3.3829786167706009,3.4446851847962687,3.5063917528223079,3.56809832084871,3.6298048888754741,3.6219239575662594,3.6064301254959208,3.5909362934259579,3.5754424613563729,3.5599486292871672,3.5444547972183331,3.528960965149877,3.5134671330817944,3.4979733010140879,3.4824794689467575,3.4669856368798038,3.4514918048132222,3.4359979727470202,3.4205041406811914,3.4050103086157395,3.3895164765506625,3.3740226444859607,3.3585288124216377,3.2903168142277486,3.1869585414407382,3.0836002686541351,2.9802419958679258,2.876883723082118,2.7735254502967135,2.6701671775117135,2.5668089047271172,2.4634506319429184,2.36009235915912,2.2567340863757317,2.1533758135927359,2.0500175408101478,1.9466592680279602,1.8433009952461734,1.73994272246479,1.6365844496838049,1.5332261769032247,1.4298679041230471,1.3265096313432707,1.1557066721632923,0.95599793666982524,0.75628920117675547,0.55658046568408459,0.35687173019180535,0.157162994699932,-0.042545740791546063,-0.24225447628263441,-0.4419632117733161,-0.64167194726360877,-0.841380682753499,-1.0410894182429937,-1.2407981537320878,-1.4405068892207915,-1.6402156247090898,-1.8399243601969955,-2.0396330956845019,-2.2393418311716102,-2.4390505666583251,-2.6387593021446412,-2.9204137475843126,-3.2225555887194943,-3.5246974298542422,-3.8268392709885508,-4.1289811121224185,-4.4311229532558576,-4.7332647943888517,-5.0354066355214062,-5.3375484766535308,-5.63969031778522,-5.9418321589164531,-6.2439740000472694,-6.5461158411776328,-6.8482576823075743,-7.1503995234370672,-7.4525413645661258,-7.7546832056947466,-8.056825046822933,-8.3589668879506718,-8.6611087290779842,-9.0587944455842759,-9.467097151685623,-9.8753998577865385,-10.283702563886983,-10.692005269986993,-11.10030797608654,-11.508610682185639,-11.916913388284277,-12.325216094382482,-12.733518800480235,-13.141821506577548,-13.550124212674413,-13.9584269187708,-14.366729624866759,-14.775032330962242,-15.1833350370573,-15.591637743151917,-15.999940449246045,-16.408243155339768,-16.816545861433,0,0.010151909469570888,0.026285247411534061,0.052108987211759369,0.090190611843560961,0.14074107896511268,0.20381317838963481,0.27936084557500052,0.36722745833524112,0.46709772752295781,0.54119429875879921,0.71351674849613467
DP 184,259.25409441102755,0.001339455081224167,-22.257277663825953,-21.780062697674598,-21.302847731522576,-20.825632765369868,-20.348417799216467,-19.871202833062398,-19.393987866907654,-18.916772900752232,-18.439557934596127,-17.96234296843933,-17.485128002281868,-17.007913036123711,-16.530698069964885,-16.053483103805366,-15.576268137645174,-15.099053171484288,-14.621838205322748,-14.144623239160497,-13.6674082729976,-13.190193306833985,-12.716846047597805,-12.278308516306092,-11.839770985013695,-11.401233453720614,-10.962695922426841,-10.524158391132392,-10.085620859837251,-9.64708332854143,-9.20854579724493,-8.7700082659477427,-8.3314707346498782,-7.8929332033513155,-7.45439567205208,-7.0158581407521456,-6.5773206094515455,-6.1387830781502464,-5.7002455468482713,-5.261708015545608,-4.8231704842422616,-4.3846329529382331,-3.9617174828680386,-3.6012909960555937,-3.2408645092424555,-2.8804380224286272,-2.5200115356141084,-2.1595850487988986,-1.7991585619829964,-1.4387320751664043,-1.0783055883491235,-0.71787910153115064,-0.35745261471248496,0.0029738721068741842,0.363400358926922,0.72382684574766065,1.0842533325690906,1.4446798193912131,1.8051063062140238,2.1655327930375261,2.5259592798617185,2.8863857666866011,3.21350750393262,3.462917109478906,3.7123267150258972,3.9617363205735865,4.2111459261219757,4.4605555316710674,4.7099651372208626,4.95937474277136,5.2087843483225607,5.4581939538744608,5.7076035594270671,5.9570131649803679,6.2064227705343713,6.4558323760890843,6.7052419816444928,6.9546515872006065,7.2040611927574139,7.4534707983149371,7.7028804038731566,7.9522900094320743,8.14663241166958,8.25837270765165,8.370113003634442,8.4818532996179421,8.5935935956021527,8.7053338915870722,8.8170741875727039,8.9288144835590479,9.0405547795461043,9.15229507553387,9.2640353715223469,9.375775667511542,9.487515963501437,9.5992562594920461,9.7109965554833639,9.8227368514754012,9.9344771474681437,10.046217443461599,10.157957739455773,10.269698035450647,10.210841500918171,10.164950529916597,10.119059558915742,10.073168587915612,10.027277616916194,9.9813866459175067,9.9354956749195367,9.8896047039222736,9.8437137329257514,9.7978227619299343,9.7519317909348615,9.7060408199404922,9.6601498489468565,9.6142588779539331,9.56836790696173,9.5224769359702428,9.47658596497949,9.4306949939894533,9.2820135280459031,9.0648034461349276,8.8475933642247035,8.6303832823152256,8.4131732004065,8.19596311849852,7.9787530365912911,7.7615429546848089,7.5443328727790808,7.3271227908741068,7.109912708969877,6.8927026270663969,6.6754925451636726,6.4582824632616935,6.2410723813604605,6.0238622994599913,5.8066522175602557,5.5894421356612805,5.3722320537630539,5.1550219718655805,4.8118963226756861,4.4148051586794343,4.01771399468392,3.6206228306891428,3.2235316666950991,2.826440502701812,2.4293493387092564,2.0322581747174304,1.6351670107263574,1.2380758467360111,0.84098468274641391,0.443893518757551,0.046802354769434423,-0.35028880921795597,-0.74737997320459193,-1.1444711371904983,-1.5415623011756607,-1.9386534651600809,-2.3357446291437696,-2.7328357931267129,-3.2775648013925505,-3.8592050151037744,-4.44084522881421,-5.0224854425238554,-5.6041256562327133,-6.1857658699407851,-6.7674060836480772,-7.3490462973545574,-7.9306865110602605,-8.5123267247651953,-9.0939669384693165,-9.675607152172665,-10.257247365875207,-10.838887579576983,-11.420527793277953,-12.002168006978144,-12.583808220677541,-13.165448434376167,-13.747088648073982,-14.328728861771021,-15.078502134780493,-15.846958624628577,-16.615415114475852,-17.3838716043223,-18.152328094167974,-18.920784584012821,-19.689241073856881,-20.457697563700115,-21.226154053542572,-21.99461054338424,-22.763067033225092,-23.531523523065143,-24.29998001290441,-25.068436502742852,-25.836892992580488,-26.605349482417349,-27.373805972253372,-28.142262462088603,-28.910718951923084,-29.679175441756676,0,0.016031542442181666,0.044608850065637071,0.092072115023565673,0.16229083811129347,0.25567429979663775,0.37235198248910395,0.51224341535214313,0.67504063640040424,0.860123565995547,0.99759399166585871,1.3166647604406363
DP 185,158.01125637935311,0.0045479052922864169,-55.2575550161731,-54.191208936134871,-53.124862856095142,-52.058516776053914,-50.992170696011044,-49.925824615966675,-48.859478535920772,-47.793132455873319,-46.7267863758243,-45.660440295773761,-44.59409421572164,-43.527748135668006,-42.461402055612837,-41.395055975556083,-40.32870989549783,-39.262363815437993,-38.196017735376643,-37.129671655313707,-36.06332557524928,-34.996979495183254,-33.938524307026967,-32.951087891951538,-31.963651476874595,-30.976215061796044,-29.988778646715886,-29.001342231634258,-28.013905816550974,-27.026469401466144,-26.039032986379752,-25.051596571291796,-24.064160156202263,-23.076723741111177,-22.089287326018493,-21.101850910924263,-20.114414495828484,-19.126978080731103,-18.139541665632155,-17.152105250531658,-16.164668835429563,-15.177232420325923,-14.222193041577066,-13.396743339381056,-12.571293637183416,-11.745843934984142,-10.920394232783238,-10.09494453058071,-9.2694948283765459,-8.444045126170753,-7.6185954239633222,-6.793145721754267,-5.9676960195435758,-5.1422463173312538,-4.3167966151172985,-3.4913469129017103,-2.6658972106844945,-1.8404475084656444,-1.0149978062451657,-0.18954810402306027,0.63590159820067771,1.4613513004260483,2.21587229868876,2.8048907529196345,3.3939092071521717,3.9829276613863689,4.5719461156222252,5.1609645698597513,5.7499830240989391,6.3390014783397772,6.9280199325822895,7.5170383868264565,8.1060568410722826,8.6950752953197767,9.28409374956892,9.87311220381974,10.462130658072217,11.051149112326346,11.640167566582159,12.22918602083962,12.818204475098751,13.407222929359532,13.874857363343885,14.160412898531343,14.445968433720523,14.73152396891142,15.017079504104029,15.302635039298366,15.588190574494424,15.873746109692197,16.159301644891688,16.444857180092889,16.730412715295817,17.015968250500457,17.301523785706816,17.587079320914892,17.872634856124677,18.1581903913362,18.443745926549415,18.729301461764368,19.014856996981035,19.300412532199413,19.253115339285483,19.177084671525872,19.101054003768059,19.025023336011969,18.94899266825767,18.87296200050513,18.79693133275434,18.72090066500531,18.644869997258056,18.568839329512535,18.492808661768787,18.416777994026805,18.340747326286582,18.264716658548107,18.188685990811393,18.112655323076449,18.036624655343253,17.96059398761183,17.638783182035915,17.153115079281122,16.667446976528161,16.18177887377707,15.696110771027854,15.21044266828048,14.724774565534998,14.239106462791364,13.753438360049593,13.267770257309682,12.78210215457166,12.296434051835492,11.810765949101182,11.325097846368745,10.839429743638162,10.353761640909447,9.8680935381825829,9.3824254354576055,8.89675733273448,8.4110892300132356,7.6123136468040338,6.6793449154591764,5.7463761841161629,4.8134074527750021,3.8804387214356577,2.9474699900981869,2.0145012587625484,1.0815325274287182,0.14856379609677112,-0.78440493523336841,-1.717373666561643,-2.6503423978880911,-3.58331112921268,-4.5162798605354588,-5.44924859185636,-6.3822173231754471,-7.3151860544926715,-8.24815478580806,-9.1811235171216143,-10.11409224843333,-11.426216631296803,-12.833134406858338,-14.240052182417879,-15.646969957975424,-17.053887733530956,-18.460805509084476,-19.867723284636025,-21.27464106018552,-22.681558835733011,-24.088476611278576,-25.495394386822049,-26.90231216236355,-28.309229937903027,-29.716147713440524,-31.123065488975985,-32.529983264509482,-33.936901040040951,-35.343818815570415,-36.750736591097876,-38.157654366623319,-40.005671796319646,-41.902704931315149,-43.799738066308613,-45.696771201299889,-47.59380433628926,-49.4908374712765,-51.3878706062617,-53.284903741244818,-55.1819368762259,-57.078970011204909,-58.976003146181924,-60.873036281156892,-62.770069416129736,-64.667102551100626,-66.564135686069335,-68.461168821036,-70.3582019560007,-72.255235090963282,-74.152268225923876,-76.049301360882282,0,0.044326250516204826,0.11784229088737631,0.23709483552121291,0.41315280406532812,0.64700053470960883,0.93890954399511106,1.2886703495088292,1.6955407373875873,2.1580274024499881,2.5013297171060245,3.2992061462028963
DP 186,188.64374240116956,0.0039182203034321605,-53.29122488647603,-52.219117066176388,-51.147009245875161,-50.074901425572335,-49.002793605267939,-47.930685784961952,-46.8585779646544,-45.786470144345252,-44.714362324034511,-43.642254503722235,-42.570146683408332,-41.498038863092894,-40.425931042775815,-39.353823222457173,-38.281715402136982,-37.209607581815163,-36.137499761491782,-35.065391941166816,-33.993284120840258,-32.92117630051213,-31.857171170531274,-30.866091019589749,-29.875010868646566,-28.883930717701812,-27.892850566755435,-26.901770415807494,-25.91069026485793,-24.919610113906785,-23.928529962954041,-22.937449811999691,-21.946369661043732,-20.955289510086171,-19.964209359127029,-18.973129208166263,-17.982049057203941,-16.990968906239981,-15.999888755274444,-15.008808604307289,-14.017728453338542,-13.026648302368198,-12.068709840312376,-11.243339700241819,-10.417969560169606,-9.5925994200957518,-8.767229280020258,-7.94185913994313,-7.1164889998643668,-6.2911188597839534,-5.465748719701903,-4.6403785796182184,-3.8150084395328827,-2.9896382994459043,-2.16426815935729,-1.338898019267035,-0.5135278791751392,0.31184226091839767,1.1372124010135725,1.9625825411103841,2.7879526812088309,3.61332282130893,4.3665826771350185,4.9515829309741823,5.536583184815024,6.1215834386575363,6.7065836925017051,7.2915839463475516,7.8765842001950714,8.4615844540442477,9.0465847078950965,9.6315849617476186,10.216585215601803,10.801585469457654,11.386585723315187,11.971585977174373,12.556586231035247,13.141586484897779,13.726586738761988,14.31158699262785,14.896587246495386,15.481587500364597,15.944148110977073,16.223046363377165,16.501944615778957,16.780842868182479,17.059741120587695,17.338639372994628,17.617537625403262,17.896435877813612,18.175334130225668,18.454232382639429,18.733130635054916,19.012028887472095,19.290927139890986,19.569825392311575,19.848723644733894,20.127621897157905,20.406520149583642,20.68541840201107,20.964316654440228,21.243214906871092,21.176206993627208,21.093623494490593,21.011039995355731,20.928456496222577,20.845872997091185,20.763289497961537,20.680705998833652,20.598122499707465,20.515539000583058,20.43295550146037,20.350372002339434,20.267788503220249,20.185205004102784,20.102621504987088,20.020038005873118,19.937454506760904,19.854871007650424,19.772287508541684,19.446217262751993,18.957818683355143,18.469420103960104,17.981021524566913,17.492622945175547,17.004224365786005,16.51582578639831,16.027427207012433,15.539028627628383,15.05063004824615,14.562231468865795,14.073832889487239,13.585434310110509,13.097035730735637,12.608637151362572,12.120238571991356,11.631839992621934,11.143441413254372,10.655042833888638,10.166644254524741,9.370656540668536,8.4428407586182441,7.5150249765697588,6.5872091945230924,5.6593934124782059,4.7315776304351616,3.8037618483939157,2.8759460663544409,1.9481302843168167,1.0203145022809641,0.0924987202469416,-0.83531706178528586,-1.7631328438156906,-2.6909486258443192,-3.618764407871105,-4.5465801898961091,-5.4743959719192894,-6.4022117539406667,-7.3300275359602471,-8.2578433179780113,-9.5556218889820865,-10.945895528427123,-12.33616916787021,-13.72644280731136,-15.116716446750544,-16.506990086187788,-17.897263725623105,-19.287537365056416,-20.677811004487808,-22.068084643917292,-23.458358283344765,-24.848631922770341,-26.238905562193906,-27.629179201615564,-29.019452841035275,-30.409726480453038,-31.800000119868844,-33.190273759282704,-34.580547398694613,-35.970821038104553,-37.789608584765723,-39.656013288220933,-41.522417991674089,-43.388822695125256,-45.255227398574462,-47.121632102021636,-48.988036805466841,-50.854441508909993,-52.72084621235124,-54.587250915790513,-56.453655619227732,-58.320060322663068,-60.1864650260963,-62.052869729527607,-63.919274432956861,-65.785679136384175,-67.652083839809464,-69.5184885432327,-71.384893246654158,-73.251297950073365,0,0.041426198523157917,0.11254120461199593,0.22915863705034725,0.40148471925045942,0.63049864832632574,0.91649009650685664,1.2592573719558728,1.6580601141968023,2.111408754138389,2.4480388850810573,3.2299497518151474
DP 187,158.50223564298329,0.0013221156785674104,-16.096299135742502,-15.785431801109702,-15.474564466476451,-15.163697131842746,-14.852829797208591,-14.541962462573984,-14.231095127938927,-13.92022779330342,-13.609360458667473,-13.29849312403106,-12.987625789394201,-12.676758454756898,-12.365891120119135,-12.055023785480925,-11.744156450842279,-11.433289116203159,-11.122421781563586,-10.811554446923584,-10.500687112283126,-10.189819777642215,-9.8812533523209485,-9.5933953283719724,-9.305537304422538,-9.0176792804726418,-8.7298212565222943,-8.4419632325714815,-8.1541052086202086,-7.8662471846684907,-7.5783891607163127,-7.2905311367636711,-7.0026731128105792,-6.7148150888570184,-6.4269570649030072,-6.1390990409485351,-5.8512410169936171,-5.5633829930382319,-5.27552496908239,-4.9876669451260893,-4.6998089211693328,-4.4119508972121206,-4.13353978714183,-3.8929167790949077,-3.6522937710475079,-3.4116707629996315,-3.17104775495128,-2.9304247469024518,-2.6898017388531494,-2.4491787308033723,-2.208555722753117,-1.9679327147023868,-1.7273097066511818,-1.4866866985994984,-1.2460636905473419,-1.0054406824947095,-0.76481767444159965,-0.52419466638801526,-0.28357165833395509,-0.042948650279420866,0.19767435777558881,0.43829736583107537,0.65823952023437471,0.82992569784739068,1.0016118754608936,1.1732980530748782,1.3449842306893491,1.5166704083043046,1.6883565859197445,1.8600427635356678,2.031728941152076,2.20341511876897,2.3751012963863429,2.5467874740042076,2.7184736516225532,2.8901598292413819,3.0618460068606987,3.233532184480497,3.4052183621007814,3.5769045397215522,3.7485907173428026,3.9202768949645406,4.0565750799242624,4.1397904396500014,4.2230057993762422,4.30622115910298,4.3894365188302231,4.4726518785579614,4.5558672382862069,4.6390825980149479,4.7222979577441953,4.80551331747394,4.8887286772041811,4.9719440369349286,5.0551593966661779,5.13837475639792,5.22159011613017,5.3048054758629188,5.3880208355961692,5.4712361953299213,5.5544515550641673,5.6376669147989178,5.6238036745348952,5.60161510722449,5.5794265399145955,5.5572379726052112,5.5350494052963395,5.5128608379879873,5.490672270680145,5.4684837033728106,5.4462951360659915,5.4241065687596892,5.401918001453895,5.3797294341486168,5.357540866843852,5.3353522995395988,5.3131637322358607,5.2909751649326315,5.2687865976299193,5.246598030327716,5.1527715380747026,5.011185300624649,4.8695990631751407,4.7280128257261769,4.5864265882777513,4.4448403508298657,4.3032541133825255,4.1616678759357333,4.0200816384894793,3.8784954010437676,3.7369091635986078,3.5953229261539867,3.4537366887099119,3.3121504512663797,3.1705642138233827,3.0289779763809355,2.8873917389390278,2.7458055014976677,2.604219264056852,2.4626330266165786,2.2297953915253115,1.9578487824054458,1.6859021732861126,1.413955564167322,1.1420089550490597,0.87006234593134424,0.59811573681416275,0.32616912769750872,0.054222518581402278,-0.21772409053417716,-0.48967069964921328,-0.76161730876371658,-1.0335639178776779,-1.3055105269911123,-1.5774571361039984,-1.849403745216357,-2.1213503543281731,-2.393296963439453,-2.6652435725501991,-2.9371901816604074,-3.3196273007901556,-3.7296883528952547,-4.1397494049997743,-4.5498104571037068,-4.9598715092070584,-5.3699325613098221,-5.7799936134120058,-6.1900546655136,-6.600115717614611,-7.0101767697150441,-7.4202378218148812,-7.830298873914149,-8.2403599260128111,-8.6504209781109189,-9.060482030208421,-9.4705430823053423,-9.88060413440168,-10.290665186497444,-10.700726238592607,-11.1107872906872,-11.649383398838134,-12.202262529813275,-12.755141660787821,-13.308020791761759,-13.860899922735113,-14.413779053707854,-14.966658184679988,-15.519537315651522,-16.072416446622483,-16.62529557759283,-17.17817470856259,-17.731053839531743,-18.283932970500302,-18.836812101468251,-19.389691232435609,-19.942570363402378,-20.495449494368554,-21.048328625334083,-21.601207756299075,-22.154086887263425,0,0.012905041475104368,0.034323687617214882,0.069075275035718642,0.120381588817583,0.18852955780314842,0.27359845132501809,0.37552724452577257,0.49409954540170742,0.62887998898424935,0.72892788197044189,0.96144853390599028
DP 188,274.02878272830282,0.0033025798088895312,-56.898267798432926,-55.665547444089405,-54.432827089744116,-53.200106735397135,-51.967386381048449,-50.734666026697965,-49.501945672345734,-48.269225317991818,-47.036504963636183,-45.8037846092788,-44.57106425491969,-43.338343900558854,-42.105623546196263,-40.872903191831938,-39.640182837465929,-38.407462483098143,-37.174742128728653,-35.942021774357428,-34.709301419984421,-33.476581065609714,-32.25402093282915,-31.122903754797658,-29.991786576764447,-28.860669398729453,-27.729552220692717,-26.598435042654291,-25.467317864614049,-24.336200686572113,-23.205083508528428,-22.073966330483028,-20.942849152435855,-19.811731974386966,-18.680614796336336,-17.549497618283947,-16.418380440229836,-15.287263262173992,-14.15614608411639,-13.025028906057063,-11.893911727995981,-10.762794549933178,-9.672592891895734,-8.7460552476894566,-7.8195176034814331,-6.8929799592716474,-5.9664423150601156,-5.0399046708468269,-4.1133670266317877,-3.186829382414992,-2.260291738196444,-1.3337540939761463,-0.40721644975408949,0.51932119446972591,1.4458588386952906,2.372396482922607,3.2989341271516781,4.2254717713825052,5.1520094156150762,6.078547059849404,7.0050847040854816,7.9316223483233141,8.7713581544990777,9.4085536036220319,10.045749052746773,10.68294450187329,11.320139951001588,11.957335400131667,12.59453084926353,13.231726298397172,13.868921747532591,14.5061171966698,15.143312645808777,15.780508094949543,16.417703544092088,17.054898993236403,17.692094442382515,18.329289891530397,18.966485340680066,19.603680789831518,20.240876238984747,20.878071688139748,21.372677413699677,21.653395184380408,21.934112955062922,22.214830725747273,22.495548496433418,22.776266267121347,23.05698403781108,23.337701808502604,23.618419579195955,23.8991373498911,24.179855120588051,24.4605728912868,24.74129066198736,25.022008432689702,25.302726203393867,25.583443974099819,25.864161744807568,26.144879515517125,26.425597286228502,26.706315056941662,26.53590827572,26.411601243420908,26.287294211123609,26.162987178828111,26.038680146534446,25.914373114242661,25.790066081952659,25.66575904966448,25.54145201737812,25.417144985093611,25.29283795281092,25.168530920530067,25.044223888251,24.91991685597382,24.795609823698413,24.671302791424832,24.54699575915312,24.422688726883166,24.036463253932197,23.4756213610064,22.914779468082486,22.353937575160469,21.793095682240359,21.232253789322122,20.6714118964058,20.110570003491368,19.549728110578819,18.988886217668167,18.428044324759451,17.867202431852604,17.306360538947651,16.745518646044598,16.184676753143446,15.623834860244196,15.062992967346803,14.502151074451339,13.941309181557781,13.380467288666114,12.501384154260519,11.485907619100665,10.470431083942692,9.4549545487865867,8.4394780136323249,7.4240014784799762,6.4085249433294891,5.3930484081808254,4.3775718730340794,3.3620953378891696,2.3466188027461503,1.3311422676049869,0.31566573246571206,-0.69981080267172868,-1.71528733780726,-2.7307638729409529,-3.7462404080727603,-4.7617169432026927,-5.77719347833077,-6.7926700134569673,-8.1787151298365615,-9.65740676988145,-11.136098409924331,-12.614790049965235,-14.093481690004147,-15.57217333004108,-17.050864970076024,-18.529556610108944,-20.008248250139893,-21.486939890168895,-22.965631530195843,-24.444323170220841,-25.923014810243806,-27.401706450264857,-28.880398090283848,-30.359089730300898,-31.837781370315923,-33.316473010328984,-34.795164650340041,-36.27385629034913,-38.172584626435125,-40.117988117931041,-42.063391609424968,-44.008795100916828,-45.954198592406726,-47.899602083894557,-49.845005575380405,-51.790409066864157,-53.735812558346034,-55.681216049825672,-57.626619541303462,-59.572023032779164,-61.517426524252869,-63.462830015724528,-65.4082335071941,-67.353636998661784,-69.299040490127339,-71.244443981590891,-73.1898474730525,-75.135250964511982,0,0.040244577139203291,0.11230193679900549,0.232175578153532,0.4095498740320706,0.6454621597784832,0.940243174995315,1.2936900915961631,1.7050229797826582,2.1726716197110405,2.5200265244882223,3.3261611528230746
DP 189,305.26335665955838,0.001784629112957557,-33.054266757492016,-32.323652025969615,-31.593037294446255,-30.862422562921882,-30.131807831396539,-29.401193099870191,-28.670578368342824,-27.939963636814507,-27.209348905285228,-26.478734173754905,-25.748119442223643,-25.017504710691377,-24.286889979158097,-23.556275247623837,-22.825660516088604,-22.095045784552376,-21.364431053015174,-20.633816321476978,-19.90320158993779,-19.172586858397604,-18.448217339365659,-17.780055323240131,-17.1118933071136,-16.443731290986086,-15.775569274857583,-15.107407258728072,-14.439245242597586,-13.771083226466091,-13.10292121033363,-12.434759194200165,-11.766597178065705,-11.098435161930261,-10.430273145793819,-9.7621111296563843,-9.0939491135179775,-8.4257870973785582,-7.7576250812381611,-7.0894630650967629,-6.4213010489543825,-5.7531390328110028,-5.1099638609755145,-4.5667372472875556,-4.0235106335985975,-3.4802840199086451,-2.9370574062176988,-2.3938307925257605,-1.8506041788328216,-1.3073775651388857,-0.76415095144395784,-0.22092433774803344,0.32230227594888894,0.86552888964681141,1.4087555033457246,1.9519821170456344,2.4952087307465445,3.0384353444484455,3.5816619581513467,4.1248885718552355,4.6681151855601213,5.2113417992660063,5.7021185917727619,6.07051081558613,6.438903039400512,6.8072952632159129,7.175687487032306,7.5440797108497311,7.9124719346681536,8.2808641584876,8.6492563823080424,9.0176486061295069,9.38604082995197,9.7544330537754576,10.122825277599947,10.491217501425439,10.859609725251966,11.228001949079497,11.596394172908038,11.964786396737578,12.333178620568127,12.701570844399706,12.985023483133874,13.141064737045138,13.297105990957423,13.453147244870726,13.609188498785059,13.765229752700415,13.921271006616776,14.077312260534166,14.23335351445257,14.389394768372007,14.545436022292447,14.701477276213925,14.857518530136417,15.013559784059936,15.169601037984458,15.325642291910018,15.481683545836598,15.637724799764207,15.79376605369281,15.949807307622441,15.825016688797668,15.743891742137546,15.662766795478456,15.581641848820398,15.50051690216338,15.419391955507376,15.338267008852423,15.2571420621985,15.1760171155456,15.094892168893743,15.013767222242903,14.932642275593128,14.85151732894435,14.770392382296633,14.689267435649935,14.608142489004267,14.527017542359637,14.445892595716035,14.214257296804316,13.882279391950547,13.550301487097865,13.218323582246226,12.886345677395667,12.554367772546193,12.222389867697785,11.890411962850449,11.558434058004167,11.226456153158964,10.89447824831484,10.562500343471775,10.230522438629785,9.89854453378887,9.5665666289490172,9.2345887241102478,8.9026108192725317,8.5706329144358939,8.2386550096003361,7.9066771047658424,7.3952070608429885,6.8068093907505842,6.2184117206592244,5.6300140505689322,5.0416163804796739,4.4532187103915,3.864821040304371,3.2764233702182786,2.6880257001332635,2.0996280300492858,1.5112303599663763,0.92283268988451184,0.33443501980371465,-0.25396265027604781,-0.84236032035473274,-1.4307579904323784,-2.0191556605089613,-2.6075533305844854,-3.195951000658964,-3.7843486707323835,-4.5783987056809146,-5.4238642616775978,-6.2693298176731638,-7.1147953736676115,-7.9602609296609437,-8.8057264856531567,-9.6511920416442454,-10.496657597634202,-11.342123153623044,-12.187588709610806,-13.033054265597396,-13.8785198215829,-14.723985377567246,-15.569450933550526,-16.414916489532651,-17.260382045513659,-18.105847601493554,-18.951313157472317,-19.796778713449978,-20.642244269426516,-21.718242942595253,-22.819858827718541,-23.92147471284072,-25.023090597961719,-26.124706483081585,-27.226322368200336,-28.32793825331796,-29.429554138434355,-30.531170023549731,-31.632785908663905,-32.734401793776939,-33.836017678888858,-34.937633563999654,-36.039249449109313,-37.140865334217771,-38.242481219325164,-39.344097104431391,-40.445712989536446,-41.547328874640456,-42.648944759743181,0,0.0224448809466858,0.06292912433524353,0.13046824451242042,0.23043397155253492,0.36341440067368247,0.52959934428123168,0.72887505531957275,0.96079985976572513,1.2244849989832181,1.4203494650629147,1.87482767811974
DP 190,65.251218102719363,0.0019888867749827724,-12.214531189050284,-12.063978833152611,-11.913426477254861,-11.76287412135704,-11.612321765459138,-11.461769409561166,-11.311217053663119,-11.160664697764995,-11.010112341866776,-10.859559985968502,-10.70900763007014,-10.558455274171711,-10.407902918273203,-10.257350562374617,-10.106798206475942,-9.9562458505772184,-9.8056934946783976,-9.6551411387795074,-9.5045887828805427,-9.3540364269814926,-9.2045723798293473,-9.064903214271526,-8.9252340487136017,-8.7855648831555921,-8.6458957175974831,-8.5062265520392728,-8.36655738648097,-8.2268882209225769,-8.08721905536408,-7.9475498898054928,-7.8078807242468029,-7.6682115586880215,-7.5285423931291495,-7.38887322757018,-7.2492040620111142,-7.1095348964519554,-6.9698657308926961,-6.8301965653333436,-6.6905273997739023,-6.550858234214358,-6.4156678743848135,-6.29839294915013,-6.1811180239152979,-6.063843098680306,-5.9465681734451641,-5.82929324820987,-5.71201832297442,-5.594743397738819,-5.477468472503066,-5.3601935472671558,-5.2429186220310964,-5.1256436967948789,-5.008368771558513,-4.8910938463219962,-4.7738189210853195,-4.6565439958484873,-4.5392690706115069,-4.4219941453743727,-4.3047192201370876,-4.1874442948996471,-4.0800453979480178,-3.995690878165409,-3.9113363583826404,-3.8269818385997105,-3.742627318816627,-3.6582727990333774,-3.5739182792499729,-3.4895637594664035,-3.4052092396826783,-3.3208547198987937,-3.236500200114746,-3.1521456803305421,-3.067791160546177,-2.9834366407616533,-2.8990821209769684,-2.8147276011921232,-2.7303730814071208,-2.6460185616219571,-2.5616640418366332,-2.4773095220511503,-2.4099896741423907,-2.3682222365888674,-2.3264547990351465,-2.28468736148122,-2.2429199239270892,-2.2011524863727572,-2.1593850488182253,-2.1176176112634857,-2.0758501737085475,-2.0340827361534046,-1.9923152985980597,-1.9505478610425129,-1.9087804234867614,-1.8670129859308093,-1.8252455483746517,-1.7834781108182947,-1.7417106732617329,-1.699943235704966,-1.6581757981480003,-1.616408360590831,-1.6192065533662767,-1.6286794148536838,-1.6381522763408651,-1.6476251378278204,-1.6570979993145478,-1.6665708608010499,-1.6760437222873223,-1.6855165837733728,-1.6949894452591934,-1.7044623067447859,-1.7139351682301527,-1.7234080297152918,-1.7328808912002065,-1.7423537526848927,-1.7518266141693506,-1.7612994756535836,-1.7707723371375885,-1.7802451986213672,-1.8248744884819028,-1.8929419511044692,-1.961009413726758,-2.02907687634877,-2.0971443389705078,-2.1652118015919708,-2.233279264213154,-2.3013467268340624,-2.3694141894546958,-2.4374816520750495,-2.5055491146951265,-2.5736165773149295,-2.6416840399344568,-2.7097515025537056,-2.7778189651726777,-2.8458864277913762,-2.9139538904097995,-2.982021353027942,-3.0500888156458092,-3.1181562782633994,-3.2314174508160969,-3.3640479664540091,-3.4966784820916463,-3.6293089977290061,-3.761939513366094,-3.8945700290029022,-4.0272005446394337,-4.1598310602756916,-4.2924615759116724,-4.4250920915473824,-4.5577226071828134,-4.6903531228179709,-4.8229836384528495,-4.9556141540874572,-5.08824466972178,-5.2208751853558359,-5.353505700989607,-5.4861362166231116,-5.6187667322563364,-5.7513972478892876,-5.9391176078563266,-6.1406110798058737,-6.3421045517550745,-6.5435980237039235,-6.7450914956524315,-6.9465849676005931,-7.148078439548418,-7.3495719114958877,-7.5510653834430128,-7.7525588553898119,-7.9540523273362416,-8.1555457992823381,-8.35703927122808,-8.5585327431734939,-8.7600262151185486,-8.9615196870632712,-9.163013159007642,-9.3645066309516629,-9.56600010289534,-9.7674935748386833,-10.033376550540709,-10.306414591794754,-10.579452633048447,-10.852490674301755,-11.125528715554697,-11.398566756807281,-11.671604798059482,-11.944642839311316,-12.217680880562792,-12.490718921813885,-12.763756963064619,-13.036795004314991,-13.309833045564977,-13.582871086814617,-13.855909128063875,-14.128947169312777,-14.401985210561294,-14.675023251809447,-14.948061293057238,-15.22109933430464,0,0.01368069087648136,0.028026024645955456,0.047012960144459222,0.074095549331125152,0.10959510754555751,0.15357592450789892,0.20604016213931942,0.26694850776714363,0.33616587232830841,0.38670435209666676,0.50482674002906913
DP 191,90.302434564413176,0.0038922343155017181,-31.456554642816261,-30.964980488466239,-30.473406334115662,-29.981832179764577,-29.490258025412945,-28.998683871060766,-28.507109716708108,-28.015535562354859,-27.523961408001121,-27.032387253646846,-26.540813099292016,-26.0492389449367,-25.557664790580791,-25.066090636224413,-24.57451648186747,-24.082942327510011,-23.59136817315202,-23.099794018793492,-22.608219864434435,-22.116645710074863,-21.62863096039576,-21.1726511892957,-20.716671418195055,-20.260691647093861,-19.804711875992087,-19.34873210488977,-18.892752333786884,-18.436772562683426,-17.9807927915794,-17.524813020474827,-17.068833249369682,-16.612853478263983,-16.156873707157725,-15.700893936050893,-15.244914164943498,-14.788934393835547,-14.332954622727035,-13.876974851617961,-13.420995080508314,-12.96501530939811,-12.523697909070883,-12.141030684841242,-11.758363460610944,-11.375696236379987,-10.993029012148371,-10.610361787916098,-10.22769456368318,-9.8450273394495973,-9.4623601152153611,-9.0796928909804713,-8.6970256667449259,-8.31435844250871,-7.9316912182718466,-7.5490239940343296,-7.1663567697961472,-6.7836895455573147,-6.4010223213178241,-6.0183550970776833,-5.63568787283688,-5.25302064859542,-4.9026611723773765,-4.62768745948331,-4.3527137465885648,-4.0777400336931509,-3.8027663207970632,-3.5277926079002988,-3.2528188950028643,-2.9778451821047485,-2.7028714692059648,-2.4278977563065052,-2.1529240434063723,-1.8779503305055671,-1.6029766176040847,-1.3280029047019306,-1.0530291917991017,-0.778055478895597,-0.50308176599141985,-0.2281080530865659,0.046865659818958516,0.32183937272515606,0.54109262743994158,0.67676387815753036,0.81243512887586211,0.94810637959494271,1.0837776303147708,1.2194488810353434,1.3551201317566646,1.4907913824787311,1.6264626332015428,1.7621338839251037,1.8978051346494103,2.0334763853744628,2.169147636100262,2.3048188868268071,2.4404901375540997,2.5761613882821379,2.7118326390109222,2.8475038897404561,2.9831751404707347,3.11884639120176,3.107158095585715,3.0753482105831145,3.0435383255813071,3.0117284405802884,2.9799185555800625,2.9481086705806256,2.916298785581982,2.8844889005841221,2.8526790155870567,2.8208691305907854,2.7890592455953014,2.7572493606006097,2.7254394756067026,2.6936295906135941,2.6618197056212738,2.6300098206297413,2.598199935639002,2.5663900506490531,2.4197195391600541,2.1964734671905952,1.9732273952220292,1.74998132325434,1.5267352512875403,1.3034891793216172,1.0802431073565915,0.856997035392444,0.63375096342918125,0.41050489146680191,0.18725881950531803,-0.03598725245528954,-0.25923332441501135,-0.48247939637384185,-0.70572546833179506,-0.92897154028885776,-1.1522176122450418,-1.3754636842003356,-1.5987097561547421,-1.8219558281082631,-2.1927439638333919,-2.6267664048810362,-3.0607888459278065,-3.4948112869736905,-3.9288337280187102,-4.3628561690628338,-4.7968786101060843,-5.2309010511484688,-5.6649234921899554,-6.0989459332305866,-6.5329683742703191,-6.9669908153091882,-7.4010132563471647,-7.8350356973842779,-8.2690581384204975,-8.7030805794558486,-9.13710302049031,-9.5711254615239,-10.005147902556615,-10.439170343588442,-11.053001125444398,-11.711786116982708,-12.370571108520007,-13.029356100056276,-13.688141091591552,-14.346926083125796,-15.005711074659036,-15.664496066191253,-16.323281057722454,-16.982066049252655,-17.640851040781811,-18.299636032309987,-18.958421023837104,-19.617206015363251,-20.275991006888368,-20.934775998412455,-21.59356098993554,-22.2523459814576,-22.911130972978633,-23.56991596449868,-24.43878445156518,-25.330997755632843,-26.223211059699477,-27.115424363765005,-28.007637667829478,-28.89985097189291,-29.792064275955248,-30.684277580016513,-31.576490884076787,-32.468704188135945,-33.360917492194055,-34.253130796251106,-35.145344100307113,-36.03755740436204,-36.929770708415887,-37.8219840124687,-38.714197316520469,-39.606410620571111,-40.498623924620773,-41.390837228669312,0,0.029352742624214338,0.068079319197298552,0.12607677172978884,0.21097708904871607,0.32332811991510046,0.46321479674075361,0.6305397198598921,0.82500741599921934,1.0460015003382743,1.2093567163721783,1.5902202245203867
DP 192,282.56402705994765,0.0034034778847797844,-59.838311040379708,-58.534456366663733,-57.230601692945832,-55.926747019226184,-54.622892345504688,-53.319037671781444,-52.015182998056311,-50.711328324329422,-49.407473650600707,-48.10361897687018,-46.7997643031378,-45.495909629403648,-44.192054955667658,-42.88820028192989,-41.584345608190276,-40.280490934448864,-38.976636260705618,-37.672781586960596,-36.368926913213713,-35.065072239465039,-33.772070638099663,-32.576747714077406,-31.381424790053348,-30.186101866027457,-28.990778941999768,-27.795456017970213,-26.600133093938862,-25.404810169905705,-24.209487245870697,-23.0141643218339,-21.818841397795271,-20.623518473754807,-19.428195549712527,-18.232872625668424,-17.037549701622524,-15.842226777574773,-14.646903853525208,-13.451580929473826,-12.256258005420628,-11.060935081365603,-9.9092411200023456,-8.93206507137712,-7.95488902275006,-6.9777129741211654,-6.0005369254904357,-5.0233608768578764,-4.04618482822348,-3.0690087795872487,-2.0918327309491898,-1.114656682309294,-0.13748063366756028,0.839695414976013,1.8168714636214152,2.7940475122686514,3.7712235609177247,4.7483996095686321,5.7255756582213735,6.7027517068759384,7.6799277555323382,8.6571038041905837,9.5419865913932878,10.211515527270867,10.881044463150324,11.550573399031638,12.220102334914802,12.88963127079985,13.55916020668675,14.228689142575504,14.89821807846613,15.567747014358632,16.237275950252958,16.906804886149182,17.576333822047257,18.245862757947179,18.915391693848996,19.584920629752652,20.25444956565817,20.923978501565561,21.593507437474827,22.26303637338593,22.781537035321666,23.073491717399445,23.365446399479122,23.657401081560685,23.949355763644114,24.241310445729439,24.533265127816641,24.825219809905725,25.117174491996689,25.40912917408955,25.7010838561843,25.993038538280917,26.284993220379405,26.576947902479805,26.868902584582081,27.160857266686232,27.452811948792277,27.744766630900184,28.036721313009991,28.328675995121674,28.136975311977444,28.0019032950367,27.866831278097838,27.731759261160885,27.596687244225837,27.461615227292722,27.326543210361478,27.191471193432172,27.056399176504776,26.921327159579263,26.786255142655666,26.651183125733965,26.5161111088142,26.381039091896334,26.245967074980349,26.110895058066294,25.975823041154168,25.840751024243904,25.430908630853736,24.837881657823814,24.244854684795889,23.651827711769933,23.058800738745951,22.465773765723949,21.872746792703921,21.27971981968588,20.6866928466698,20.093665873655738,19.500638900643644,18.907611927633518,18.314584954625371,17.721557981619227,17.128531008615038,16.535504035612853,15.942477062612619,15.34945008961439,14.756423116618123,14.163396143623864,13.23815048219894,12.17052089688778,11.102891311578581,10.035261726271337,8.9676321409660211,7.9000025556626943,6.8323729703613134,5.7647433850618457,4.697113799764371,3.6294842144688126,2.5618546291752291,1.4942250438835885,0.42659545859391518,-0.64103412669384163,-1.7086637119796053,-2.7762932972634475,-3.8439228825453227,-4.9115524678252376,-5.9791820531032176,-7.0468116383792481,-8.49965500794403,-10.048806374969331,-11.597957741992564,-13.147109109013716,-14.696260476032794,-16.245411843049791,-17.794563210064748,-19.343714577077559,-20.892865944088339,-22.442017311097072,-23.99116867810368,-25.540320045108235,-27.089471412110665,-28.638622779111117,-30.187774146109415,-31.736925513105657,-33.286076880099827,-34.835228247091941,-36.384379614081965,-37.933530981069893,-39.9180666507702,-41.9509829266936,-43.9838992026149,-46.016815478534085,-48.049731754451166,-50.082648030366151,-52.115564306279005,-54.14848058218967,-56.181396858098374,-58.2143131340049,-60.24722940990933,-62.280145685811604,-64.313061961711853,-66.345978237609913,-68.378894513505813,-70.411810789399752,-72.4447270652915,-74.47764334118115,-76.510559617068722,-78.543475892954092,0,0.041867452373441867,0.11699958258670702,0.2420942802939719,0.4272101910315716,0.67343191918778456,0.98110656668197527,1.3500226694916402,1.7793651202408753,2.2674930159445483,2.6300639485688215,3.4714667277920466
DP 193,255.37683858885197,0.0013946346686837634,-22.949843775514928,-22.459180929526877,-21.968518083538093,-21.477855237548646,-20.987192391558459,-20.496529545567597,-20.005866699576021,-19.515203853583746,-19.024541007590777,-18.53387816159708,-18.043215315602698,-17.552552469607622,-17.06188962361183,-16.571226777615333,-16.080563931618141,-15.589901085620243,-15.099238239621663,-14.608575393622342,-14.117912547622364,-13.627249701621656,-13.140546455658974,-12.68947998432245,-12.238413512985238,-11.787347041647319,-11.336280570308693,-10.885214098969362,-10.434147627629315,-9.98308115628857,-9.5320146849471179,-9.08094821360496,-8.6298817422620981,-8.1788152709185216,-7.7277487995742558,-7.2766823282292687,-6.8256158568835863,-6.374549385537188,-5.9234829141900844,-5.4724164428422757,-5.0213499714937653,-4.5702835001445514,-4.1352219495701661,-3.7641808385120932,-3.3931397274533039,-3.0220986163938,-2.6510575053335903,-2.2800163942726619,-1.9089752832110192,-1.5379341721486641,-1.1668930610855965,-0.795851950021815,-0.42481083895731836,-0.053769727892105677,0.31727138317381759,0.688312494240456,1.0593536053078079,1.4303947163758735,1.8014358274446527,2.1724769385141429,2.5435180495843466,2.9145591606552652,3.2514356050819955,3.5085934175627296,3.7657512300441889,4.0229090425263694,4.2800668550092809,4.5372246674929091,4.7943824799772674,5.0515402924623558,5.3086981049481592,5.5658559174346953,5.8230137299219491,6.0801715424099241,6.3373293548986407,6.5944871673880723,6.85164497987823,7.1088027923691124,7.3659606048607165,7.6231184173530542,7.8802762298461095,8.13743404233989,8.3380083662601212,8.4537061202159141,8.5694038741724512,8.68510162812971,8.8007993820877086,8.9164971360464449,9.0321948900059112,9.14789264396612,9.2635903979270573,9.37928815188873,9.494985905851145,9.6106836598142849,9.72638141377817,9.8420791677427779,9.9577769217081311,10.073474675674209,10.189172429641033,10.304870183608587,10.420567937576875,10.5362656915459,10.477628552940057,10.431033839902677,10.384439126866036,10.337844413830142,10.291249700794992,10.244654987760592,10.19806027472694,10.151465561694025,10.104870848661857,10.058276135630438,10.011681422599763,9.9650867095698317,9.9184919965406468,9.8718972835122027,9.8253025704845083,9.77870785745756,9.73211314443136,9.6855184314058977,9.5328699499117828,9.3095172853647767,9.0861646208185611,8.8628119562731165,8.6394592917284552,8.4161066271845613,8.1927539626414436,7.9694012980990969,7.74604863355753,7.5226959690167341,7.2993433044767206,7.0759906399374852,6.8526379753990181,6.6292853108613281,6.4059326463244037,6.1825799817882734,5.9592273172529051,5.7358746527183175,5.5125219881845089,5.2891693236514756,4.93563585023487,4.5263088437359391,4.1169818372377645,3.7076548307403607,3.29832782424371,2.8890008177478421,2.4796738112527303,2.0703468047583717,1.6610197982647941,1.2516927917719671,0.84236578527991379,0.43303877878861918,0.023711772298096245,-0.38561523419167532,-0.79494224068066688,-1.2042692471689056,-1.6135962536563722,-2.0229232601430733,-2.432250266629016,-2.8415772731141917,-3.4038070766305522,-4.0042643859859774,-4.6047216953405909,-5.2051790046943838,-5.8056363140473692,-6.4060936233995323,-7.006550932750887,-7.6070082421014229,-8.2074655514511416,-8.8079228608000566,-9.4083801701481367,-10.008837479495414,-10.609294788841867,-11.209752098187536,-11.81020940753235,-12.410666716876356,-13.01112402621955,-13.611581335561944,-14.212038644903513,-14.812495954244271,-15.587286140357628,-16.381448477029334,-17.175610813700235,-17.969773150370269,-18.7639354870395,-19.558097823707879,-20.352260160375451,-21.146422497042156,-21.94058483370809,-22.734747170373161,-23.52890950703739,-24.323071843700816,-25.11723418036339,-25.911396517025157,-26.705558853686089,-27.499721190346182,-28.293883527005455,-29.088045863663886,-29.882208200321532,-30.676370536978261,0,0.01660724951180435,0.046172581155871223,0.095253834894958672,0.16786290562855866,0.26442258440578925,0.38506631986874951,0.5297108526882075,0.69803792066983128,0.88940690951304868,1.0315452018253983,1.361459679801013
DP 194,188.85804504541488,0.0012779807712773787,-17.394013138373694,-17.043995928713414,-16.693978719052613,-16.343961509391288,-15.99394429972946,-15.643927090067098,-15.293909880404236,-14.943892670740842,-14.593875461076944,-14.243858251412522,-13.893841041747597,-13.54382383208214,-13.193806622416179,-12.843789412749688,-12.493772203082688,-12.143754993415168,-11.793737783747128,-11.443720574078581,-11.093703364409512,-10.743686154739923,-10.396314664905034,-10.072754903671385,-9.7491951424372179,-9.4256353812025324,-9.102075619967323,-8.77851585873159,-8.4549560974953337,-8.1313963362585575,-7.8078365750212564,-7.4842768137834375,-7.1607170525450927,-6.8371572913062266,-6.5135975300668383,-6.1900377688269268,-5.8664780075864975,-5.542918246345538,-5.2193584851040633,-4.8957987238620637,-4.5722389626195428,-4.2486792013765031,-3.9359409882829621,-3.6664894792304255,-3.3970379701773523,-3.1275864611237449,-2.858134952069602,-2.5886834430149235,-2.3192319339597089,-2.04978042490396,-1.7803289158476756,-1.5108774067908544,-1.2414258977334987,-0.97197438867560515,-0.70252287961717785,-0.43307137055821421,-0.16361986149871544,0.10583164756131921,0.37528315662188916,0.644734665682993,0.91418617474463182,1.1836376838068075,1.4295448338115475,1.6205144041918969,1.8114839745727891,2.0024535449542271,2.1934231153362096,2.3843926857187379,2.5753622561018084,2.7663318264854246,2.9573013968695889,3.1482709672542968,3.3392405376395451,3.5302101080253427,3.7211796784116831,3.9121492487985656,4.1031188191859957,4.2940883895739734,4.4850579599624911,4.6760275303515586,4.8669971007411705,5.0579666711313216,5.2089615979649446,5.2999936148373,5.3910256317102192,5.4820576485836936,5.5730896654577258,5.6641216823323157,5.7551536992074652,5.8461857160831681,5.9372177329594376,6.0282497498362595,6.119281766713633,6.2103137835915776,6.3013458004700738,6.3923778173491268,6.4834098342287314,6.574441851108908,6.6654738679896361,6.7565058848709247,6.8475379017527667,6.938569918635169,6.9166417228219981,6.8896638180317451,6.8626859132420659,6.83570800845295,6.8087301036644083,6.7817521988764291,6.75477429408902,6.727796389302183,6.7008184845159153,6.673840579730216,6.6468626749450888,6.6198847701605246,6.5929068653765279,6.5659289605931068,6.5389510558102524,6.5119731510279637,6.4849952462462488,6.4580173414651023,6.351556504177104,6.1921057930667214,6.0326550819569373,5.8732043708477555,5.7137536597391625,5.5543029486311708,5.3948522375237822,5.235401526416986,5.0759508153107848,4.9165001042051886,4.7570493931001856,4.5975986819957795,4.4381479708919729,4.2786972597887667,4.1192465486861529,3.9597958375841391,3.8003451264827182,3.6408944153818994,3.4814437042816788,3.3219929931820591,3.062141163706622,2.7592589277707775,2.4563766918355245,2.1534944559008644,1.8506122199667845,1.5477299840333056,1.2448477481004154,0.94196551216810231,0.63908327623639372,0.336201040305263,0.033318804374729248,-0.26956343155521784,-0.57244566748457038,-0.87532790341334321,-1.1782101393415148,-1.4810923752691039,-1.7839746111960995,-2.0868568471225046,-2.3897390830483216,-2.6926213189735497,-3.1162575971111579,-3.5700838125382957,-4.0239100279648019,-4.4777362433906669,-4.9315624588158995,-5.3853886742404935,-5.8392148896644569,-6.2930411050877773,-6.7468673205104635,-7.2006935359325226,-7.65451975135393,-8.1083459667747189,-8.56217218219485,-9.0159983976143661,-9.4698246130332286,-9.92365082845147,-10.377477043869064,-10.831303259286031,-11.285129474702359,-11.738955690118054,-12.332641539708961,-12.941868817517213,-13.551096095324816,-14.160323373131749,-14.769550650938054,-15.3787779287437,-15.98800520654869,-16.597232484353022,-17.206459762156737,-17.815687039959776,-18.424914317762177,-19.034141595563938,-19.643368873365034,-20.252596151165488,-20.86182342896527,-21.471050706764423,-22.08027798456293,-22.689505262360775,-23.298732540157992,-23.907959817954517,0,0.013518454649513978,0.036729388640243242,0.0747939099899841,0.13104229946058107,0.20579421305566559,0.29914424550954793,0.41102654250820136,0.54119947513078126,0.68917673406629509,0.79905619060785971,1.0542788457045971
DP 195,150.909484164193,0.0018317017324012855,-21.594440080095893,-21.182701477349454,-20.770962874602397,-20.359224271854739,-19.9474856691065,-19.535747066357665,-19.12400846360827,-18.71226986085826,-18.300531258107654,-17.888792655356465,-17.477054052604689,-17.065315449852314,-16.653576847099352,-16.241838244345807,-15.830099641591657,-15.418361038836915,-15.006622436081598,-14.594883833325669,-14.183145230569169,-13.771406627812055,-13.362703066246844,-12.981315162298511,-12.599927258349576,-12.218539354400034,-11.837151450449896,-11.455763546499156,-11.07437564254781,-10.692987738595868,-10.311599834643323,-9.930211930690179,-9.5488240267364333,-9.1674361227820871,-8.7860482188271352,-8.4046603148715828,-8.0232724109154443,-7.641884506958684,-7.2604966030013314,-6.8791086990433756,-6.4977207950848213,-6.1163328911256665,-5.7474145814468631,-5.4283752382216379,-5.1093358949957866,-4.7902965517693037,-4.4712572085421964,-4.1522178653144612,-3.8331785220860954,-3.5141391788571057,-3.1950998356274827,-2.876060492397237,-2.5570211491663604,-2.2379818059348557,-1.9189424627027227,-1.5999031194699631,-1.2808637762365747,-0.96182443300255793,-0.64278508976791482,-0.32374574653264471,-0.0047064032967473858,0.31433293993977895,0.60604104027620875,0.8339753793734711,1.0619097184713762,1.2898440575699186,1.5177783966691021,1.7457127357689242,1.9736470748693877,2.2015814139704908,2.4295157530722316,2.6574500921746118,2.8853844312776364,3.1133187703812961,3.3412531094855953,3.5691874485905384,3.7971217876961179,4.0250561268023395,4.2529904659092033,4.4809248050167021,4.7088591441248422,4.9367934832336227,5.1178880758321075,5.22872194181191,5.3395558077923795,5.4503896737735049,5.5612235397552956,5.6720574057377533,5.7828912717208727,5.893725137704652,6.0045590036891028,6.1153928696742135,6.2262267356599805,6.3370606016464226,6.4478944676335237,6.5587283336212776,6.6695621996097074,6.7803960655987972,6.8912299315885477,7.0020637975789661,7.1128976635700392,7.223731529561781,7.2068473995404512,7.1779267101385607,7.1490060207373425,7.1200853313368038,7.0911646419369507,7.0622439525377763,7.0333232631392839,7.0044025737414746,6.9754818843443385,6.9465611949478925,6.91764050555212,6.8887198161570318,6.8597991267626242,6.8308784373688924,6.8019577479758428,6.7730370585834807,6.7441163691917927,6.7151956798007868,6.5911246867458235,6.4036186589444926,6.2161126311439,6.0286066033440138,5.8411005755448544,5.6535945477464171,5.4660885199487117,5.2785824921517248,5.0910764643554538,4.9035704365599084,4.7160644087650878,4.5285583809709955,4.3410523531776191,4.1535463253849718,3.9660402975930413,3.7785342698018374,3.5910282420113484,3.4035222142215895,3.2160161864325576,3.0285101586442416,2.7196068715305479,2.3586745483218836,1.9977422251139314,1.6368099019066986,1.2758775787001697,0.91494525549437056,0.554012932289281,0.19308060908489272,-0.16785171411876626,-0.52878403732172352,-0.88971636052395786,-1.2506486837254831,-1.6115810069262875,-1.9725133301263882,-2.3334456533257621,-2.6943779765244309,-3.0553102997223851,-3.4162426229196163,-3.7771749461161419,-4.1381072693119494,-4.6462183904868191,-5.1911259501073737,-5.7360335097271529,-6.2809410693461505,-6.8258486289643683,-7.3707561885818063,-7.9156637481984706,-8.4605713078143427,-9.0054788674294333,-9.5503864270437653,-10.095293986657289,-10.640201546270061,-11.185109105882017,-11.730016665493233,-12.274924225103637,-12.819831784713278,-13.364739344322128,-13.909646903930206,-14.454554463537505,-14.999462023144023,-15.715727616367564,-16.451034790777992,-17.186341965187673,-17.921649139596504,-18.65695631400455,-19.3922634884118,-20.12757066281824,-20.86287783722387,-21.598185011628718,-22.333492186032768,-23.06879936043601,-23.804106534838464,-24.539413709240105,-25.274720883640956,-26.010028058040994,-26.74533523244024,-27.480642406838687,-28.21594958123633,-28.951256755633214,-29.686563930029198,0,0.017464270445687567,0.046107128997665968,0.092408157040478472,0.16074452000848702,0.251496855557459,0.36476768636258816,0.50047529667083712,0.65833334521032949,0.83776587747656128,0.97094200784933815,1.2805146696868672
DP 196,216.62303170726565,0.0016417230320867338,-24.342969329652167,-23.838914855504846,-23.334860381356791,-22.830805907207985,-22.32675143305849,-21.822696958908192,-21.318642484757181,-20.814588010605419,-20.310533536452933,-19.806479062299704,-19.302424588145723,-18.798370113990991,-18.294315639835546,-17.790261165679343,-17.286206691522416,-16.782152217364711,-16.278097743206292,-15.774043269047139,-15.269988794887231,-14.765934320726572,-14.26578512106016,-13.800783760991015,-13.335782400921113,-12.870781040850481,-12.405779680779098,-11.940778320706977,-11.475776960634088,-11.010775600560461,-10.545774240486089,-10.080772880410974,-9.6157715203351088,-9.1507701602584888,-8.68576880018113,-8.2207674401030335,-7.755766080024177,-7.2907647199445735,-6.8257633598642267,-6.3607619997831373,-5.8957606397012929,-5.43075927961871,-4.9816605520745423,-4.5961731062668667,-4.2106856604584211,-3.8251982146492223,-3.439710768839265,-3.054223323028542,-2.668735877217062,-2.2832484314048207,-1.8977609855918218,-1.5122735397780618,-1.1267860939635403,-0.74129864814825575,-0.3558112023322148,0.029676243484588187,0.4151636893021512,0.80065113512047359,1.186138580939557,1.5716260267593962,1.9571134725799979,2.3426009184013585,2.693738369123611,2.9647247489990929,3.2357111288753417,3.5066975087523691,3.777683888630162,4.048670268508733,4.3196566483880758,4.5906430282681949,4.8616294081490823,5.13261578803074,5.4036021679131707,5.6745885477963789,5.9455749276803589,6.2165613075651134,6.4875476874506379,6.75853406733694,7.0295204472240043,7.3005068271118478,7.5714932070004641,7.8424795868898558,8.0556842142387843,8.1822148473571641,8.3087454804763325,8.4352761135962968,8.56180674671704,8.6883373798385684,8.8148680129608916,8.9413986460839983,9.0679292792078883,9.1944599123325688,9.3209905454580291,9.44752117858429,9.5740518117113371,9.7005824448391618,9.82711307796778,9.9536437110971843,10.080174344227373,10.206704977358349,10.333235610490116,10.459766243622667,10.417451279701233,10.375218848472791,10.332986417245142,10.290753986018293,10.248521554792255,10.206289123567013,10.164056692342571,10.121824261118913,10.079591829896085,10.037359398674035,9.9951269674527943,9.9528945362323569,9.9106621050127117,9.8684296737938748,9.82619724257583,9.783964811358592,9.7417323801421531,9.6994999489265119,9.5448495390119774,9.31525203896449,9.0856545389178454,8.8560570388720219,8.6264595388270546,8.3968620387828938,8.167264538739591,7.9376670386971275,7.7080695386554874,7.4784720386146866,7.24887453857474,7.0192770385356136,6.7896795384973281,6.5600820384598828,6.3304845384232671,6.1008870383874942,5.871289538352551,5.64169203831845,5.4120945382851815,5.1824970382527606,4.81235675944976,4.3819819634082595,3.9516071673675772,3.5212323713277254,3.0908575752886907,2.6604827792504975,2.2301079832131232,1.7997331871765618,1.3693583911408416,0.93898359510593443,0.50860879907185941,0.07823400303860685,-0.35214079299381468,-0.78251558902542473,-1.2128903850561934,-1.6432651810861476,-2.0736399771152723,-2.504014773143568,-2.9343895691710444,-3.3647643651976935,-3.9627515325609175,-4.60264377313652,-5.2425360137112449,-5.8824282542850721,-6.5223204948580271,-7.1622127354300913,-7.8021049760012753,-8.4419972165715631,-9.0818894571409778,-9.72178169770951,-10.361673938277145,-11.001566178843916,-11.641458419409773,-12.281350659974771,-12.921242900538861,-13.561135141102085,-14.201027381664408,-14.840919622225861,-15.480811862786426,-16.120704103346107,-16.953653192478036,-17.808055070126375,-18.662456947773848,-19.516858825420368,-20.371260703066017,-21.225662580710768,-22.080064458354602,-22.934466335997534,-23.788868213639581,-24.643270091280705,-25.497671968920951,-26.352073846560298,-27.206475724198697,-28.060877601836264,-28.915279479472868,-29.769681357108592,-30.624083234743438,-31.478485112377331,-32.332886990010373,-33.187288867642444,0,0.018394347080697235,0.050589895873018383,0.10372284865140323,0.18228194429775213,0.28671905915376072,0.41717264158385825,0.57355180475416112,0.75551542778813108,0.96237705915896588,1.1160044891296177,1.4727131344315005
DP 197,193.11413639298328,0.0011488490648412155,-15.856010237698317,-15.53540317533885,-15.214796112978911,-14.894189050618516,-14.573581988257637,-14.252974925896302,-13.932367863534472,-13.611760801172169,-13.291153738809403,-12.970546676446158,-12.649939614082443,-12.329332551718256,-12.008725489353585,-11.688118426988449,-11.367511364622846,-11.046904302256761,-10.726297239890204,-10.405690177523178,-10.085083115155673,-9.7644760527876855,-9.4463008007428542,-9.1500120714752242,-8.85372334220713,-8.557434612938545,-8.2611458836694887,-7.9648571543999518,-7.6685684251299389,-7.3722796958594445,-7.0759909665884715,-6.7797022373170153,-6.4834135080450954,-6.1871247787726835,-5.8908360494997982,-5.5945473202264395,-5.2982585909525985,-5.0019698616782744,-4.7056811324034786,-4.4093924031282032,-4.1131036738524474,-3.8168149445762132,-3.5304667460025092,-3.2838811400436403,-3.0372955340842851,-2.7907099281244343,-2.5441243221641017,-2.2975387162032739,-2.0509531102419589,-1.8043675042801532,-1.5577818983178582,-1.3111962923550735,-1.0646106863917979,-0.81802508042803124,-0.57143947446377641,-0.32485386849903153,-0.078268262533796429,0.16831734343192881,0.41490294939814282,0.66148855536484563,0.90807416133203778,1.1546597672997203,1.3796396590724964,1.5542055369819447,1.7287714148918936,1.9033372928023402,2.0779031707132831,2.2524690486247279,2.4270349265366677,2.6016008044491086,2.7761666823620437,2.9507325602754815,3.1252984381894127,3.2998643161038452,3.4744301940187721,3.6489960719342007,3.8235619498501303,3.9981278277665528,4.1726937056834768,4.3472595836008994,4.5218254615188185,4.6963913394372341,4.8343220414045289,4.9172991137324313,5.0002761860608462,5.0832532583897674,5.166230330719201,5.2492074030491436,5.3321844753795968,5.415161547710559,5.4981386200420337,5.5811156923740111,5.6640927647065071,5.7470698370395068,5.8300469093730189,5.9130239817070391,5.9960010540415709,6.0789781263766072,6.161955198712163,6.2449322710482225,6.3279093433847908,6.4108864157218708,6.3898426468402159,6.3648295206731262,6.3398163945065651,6.3148032683405253,6.2897901421749953,6.2647770160099938,6.2397638898455128,6.2147507636815451,6.189737637518097,6.1647245113551641,6.1397113851927649,6.1146982590308774,6.0896851328695085,6.0646720067086539,6.0396588805483313,6.0146457543885221,5.9896326282292307,5.9646195020704669,5.86698306505433,5.7209299433799679,5.5748768217061508,5.4288237000328774,5.2827705783601537,5.136717456687963,4.9906643350163309,4.844611213345237,4.69855809167469,4.5525049700046853,4.4064518483352373,4.2603987266663239,4.1143456049979594,3.968292483330143,3.822239361662866,3.6761862399961376,3.5301331183299505,3.3840799966643109,3.2380268749992189,3.0919737533346732,2.8543146048820609,2.5773944936963571,2.30047438251119,2.0235542713265646,1.7466341601424704,1.4697140489589264,1.1927939377759147,0.91587382659343342,0.63895371541150126,0.36203360423009756,0.085113493049237959,-0.19180661813108621,-0.46872672931086851,-0.745646840490121,-1.0225669516688245,-1.2994870628469997,-1.5764071740246306,-1.8533272852017229,-2.13024739637828,-2.4071675075542998,-2.7941366564507288,-3.2086193650316379,-3.6231020736119683,-4.0375847821917175,-4.4520674907708884,-4.866550199349482,-5.2810329079274956,-5.6955156165049194,-6.1099983250817731,-6.52448103365806,-6.9389637422337458,-7.3534464508088577,-7.7679291593833817,-8.1824118679573452,-8.596894576530719,-9.0113772851035083,-9.4258599936757275,-9.8403427022473622,-10.254825410818416,-10.669308119388887,-11.211155259238225,-11.767155340197643,-12.323155421156466,-12.879155502114694,-13.435155583072335,-13.991155664029394,-14.547155744985828,-15.103155825941693,-15.659155906896986,-16.215155987851649,-16.771156068805752,-17.327156149759251,-17.883156230712153,-18.439156311664476,-18.995156392616181,-19.551156473567314,-20.107156554517868,-20.6631566354678,-21.21915671641716,-21.775156797365913,0,0.012271153815534064,0.033414417727682333,0.068127275527627484,0.11942790976920861,0.18760845045176763,0.27275592207661359,0.37481037547548934,0.49355103861779759,0.62853349498571309,0.72876671131754012,0.961568701192866
DP 198,86.3984927141628,0.0052377407657193042,-40.825587794461349,-40.203627276388353,-39.581666758314739,-38.959706240240429,-38.337745722165543,-37.71578520408999,-37.093824686013804,-36.471864167936964,-35.849903649859527,-35.227943131781437,-34.605982613702707,-33.984022095623338,-33.3620615775433,-32.740101059462667,-32.118140541381415,-31.496180023299463,-30.874219505216924,-30.252258987133718,-29.63029846904989,-29.008337950965426,-28.390879816983947,-27.813943565519232,-27.237007314053852,-26.660071062587797,-26.083134811121052,-25.5061985596536,-24.929262308185507,-24.352326056716716,-23.775389805247205,-23.198453553777089,-22.621517302306255,-22.044581050834712,-21.4676447993625,-20.890708547889627,-20.313772296416065,-19.736836044941825,-19.1598997934669,-18.582963541991287,-18.006027290515014,-17.429091039038035,-16.870696621238594,-16.386470414464043,-15.902244207688657,-15.418018000912493,-14.933791794135507,-14.449565587357721,-13.965339380579096,-13.481113173799685,-12.996886967019453,-12.512660760238418,-12.02843455345656,-11.544208346673894,-11.059982139890424,-10.575755933106128,-10.091529726321028,-9.6073035195351082,-9.1230773127483911,-8.63885110596086,-8.15462489917251,-7.67039869238335,-7.22703879617782,-6.8790349122622363,-6.5310310283458151,-6.1830271444285625,-5.83502326051047,-5.48701937659155,-5.139015492671791,-4.7910116087511989,-4.4430077248297746,-4.0950038409075136,-3.746999956984419,-3.3989960730604967,-3.0509921891357306,-2.7029883052101327,-2.354984421283703,-2.0069805373564362,-1.6589766534283348,-1.3109727694993976,-0.96296888556963089,-0.6149650016390289,-0.33744392306874943,-0.16564871809272644,0.0061464868842286734,0.17794169186212053,0.34973689684094739,0.521532101820709,0.693327306801404,0.86512251178303246,1.0369177167655936,1.2087129217490928,1.3805081267335237,1.5523033317188866,1.7240985367051891,1.8958937416924202,2.0676889466805877,2.2394841516696942,2.4112793566597261,2.5830745616507014,2.7548697666426087,2.9266649716354447,2.9123033674264636,2.8721992841652759,2.8320952009050839,2.7919911176458876,2.7518870343876856,2.7117829511304756,2.6716788678742649,2.6315747846190405,2.5914707013648179,2.5513666181115826,2.5112625348593451,2.4711584516081033,2.4310543683578514,2.3909502851085978,2.3508462018603362,2.3107421186130765,2.2706380353667988,2.2305339521215215,2.0450912762219864,1.76275391559747,1.4804165549740746,1.1980791943517937,0.91574183373064078,0.63340447311060277,0.35106711249169742,0.06872975187390748,-0.21360760874276413,-0.495944969358312,-0.77828232997272651,-1.0606196905860308,-1.3429570511982116,-1.6252944118092647,-1.9076317724192047,-2.1899691330280135,-2.4723064936357133,-2.7546438542422806,-3.0369812148477231,-3.3193185754520456,-3.7883804302941431,-4.3374695897434341,-4.8865587491916118,-5.43564790863867,-5.9847370680846321,-6.5338262275294543,-7.08291538697317,-7.6320045464157857,-8.1810937058572737,-8.730182865297655,-9.2792720247369118,-9.8283611841750691,-10.377450343612098,-10.926539503048032,-11.47562866248283,-12.02471782191653,-12.573806981349088,-13.122896140780552,-13.671985300210922,-14.221074459640153,-14.997743970737757,-15.831311258665911,-16.664878546592774,-17.498445834518343,-18.332013122442614,-19.165580410365568,-19.999147698287246,-20.832714986207606,-21.666282274126672,-22.499849562044474,-23.333416849960926,-24.16698413787611,-25.000551425789986,-25.83411871370258,-26.667686001613848,-27.501253289523838,-28.334820577432538,-29.16838786533993,-30.001955153246016,-30.835522441150797,-31.935006746320735,-33.064040179514258,-34.193073612706407,-35.32210704589717,-36.451140479086625,-37.580173912274695,-38.709207345461387,-39.838240778646707,-40.967274211830706,-42.096307645013368,-43.22534107819461,-44.354374511374573,-45.483407944553115,-46.612441377730313,-47.741474810906134,-48.870508244080604,-49.999541677253681,-51.12857511042548,-52.257608543595886,-53.386641976764892,0,0.038864639114663063,0.088726180220050632,0.16250664253659616,0.27032040471190272,0.41290141748544712,0.59035873266929939,0.80257392895818769,1.0491869019543132,1.3294354584695258,1.536410635681847,2.0191449436165856
DP 199,126.45326438468278,0.0027324197093219764,-28.545068422559833,-28.028881795799453,-27.512695169038352,-26.996508542276558,-26.480321915514065,-25.964135288750875,-25.447948661986981,-24.931762035222391,-24.415575408457077,-23.899388781691062,-23.383202154924373,-22.867015528156966,-22.350828901388848,-21.834642274620045,-21.318455647850545,-20.802269021080324,-20.286082394309396,-19.769895767537776,-19.253709140765483,-18.737522513992442,-18.225101954655539,-17.746576358233959,-17.268050761811665,-16.789525165388675,-16.310999568964938,-15.832473972540496,-15.353948376115348,-14.875422779689455,-14.396897183262851,-13.918371586835542,-13.439845990407495,-12.96132039397874,-12.482794797549259,-12.004269201119055,-11.525743604688147,-11.0472180082565,-10.568692411824152,-10.090166815391084,-9.6116412189572831,-9.1331156225227659,-8.6700899872738937,-8.2690649293194429,-7.868039871364223,-7.46701481340823,-7.0659897554514757,-6.6649646974939509,-6.2639396395356535,-5.8629145815765895,-5.46188952361676,-5.0608644656561594,-4.6598394076947915,-4.25881434973265,-3.8577892917697456,-3.4567642338060707,-3.055739175841627,-2.6547141178764138,-2.2536890599104331,-1.8526640019436875,-1.451638943976173,-1.0506138860078891,-0.68366582265150555,-0.39623182040354138,-0.10879781815478687,0.17863618409474841,0.46607018634506736,0.75350418859617141,1.0409381908480604,1.328372193100736,1.6158061953541931,1.9032401976084357,2.1906741998634605,2.4781082021192726,2.7655422043758682,3.052976206633248,3.3404102088914116,3.6278442111503595,3.915278213410093,4.2027122156706147,4.4901462179319127,4.777580220194003,5.0063949967961285,5.1472795496984416,5.2881641026015851,5.4290486555055484,5.5699332084103395,5.7108177613159548,5.8517023142223987,5.9925868671296714,6.1334714200377629,6.27435597294668,6.4152405258564151,6.5561250787669847,6.6970096316783838,6.8378941845905921,6.9787787375036334,7.1196632904175017,7.2605478433321995,7.4014323962477189,7.5423169491640625,7.6832015020812259,7.6667346844824253,7.6319707148097136,7.5972067451378651,7.5624427754668737,7.5276788057967279,7.4929148361274347,7.4581508664590039,7.4233868967914187,7.3886229271246844,7.3538589574588089,7.3190949877937808,7.2843310181296062,7.2495670484662851,7.2148030788038211,7.1800391091422062,7.145275139481444,7.1105111698215264,7.0757472001624766,6.9208838086896636,6.6859522439961125,6.4510206793034834,6.2160891146117621,5.9811575499209511,5.7462259852310638,5.5112944205420948,5.2763628558540443,5.0414312911669041,4.8064997264806841,4.57156816179539,4.3366365971110019,4.1017050324275379,3.8667734677449928,3.6318419030633562,3.3969103383826464,3.1619787737028409,2.9270472090239612,2.6921156443460026,2.4571840796689579,2.0684229925702762,1.6137328901130636,1.1590427876567551,0.70435268520135852,0.24966258274685796,-0.20502751970671806,-0.65971762215939067,-1.1144077246111737,-1.5690978270620286,-2.023787929511994,-2.4784780319610413,-2.9331681344091862,-3.3878582368564163,-3.8425483393027577,-4.297238441748167,-4.7519285441926868,-5.2066186466362936,-5.6613087490789882,-6.1159988515207866,-6.5706889539616684,-7.2124553109682266,-7.9009929419646232,-8.5895305729600153,-9.2780682039544029,-9.96660583494779,-10.655143465940158,-11.343681096931554,-12.032218727921917,-12.720756358911284,-13.409293989899654,-14.097831620887007,-14.786369251873362,-15.474906882858678,-16.16344451384305,-16.851982144826362,-17.540519775808715,-18.229057406790034,-18.917595037770372,-19.60613266874968,-20.294670299727997,-21.201458120125931,-22.132498253725473,-23.063538387323998,-23.994578520921443,-24.925618654517912,-25.856658788113311,-26.787698921707658,-27.718739055300979,-28.649779188893294,-29.580819322484555,-30.511859456074767,-31.442899589663977,-32.373939723252107,-33.304979856839232,-34.236019990425284,-35.167060124010355,-36.098100257594396,-37.029140391177357,-37.960180524759295,-38.891220658340181,0,0.023914076761013904,0.061076650215699531,0.1201387785515203,0.20718139681537331,0.32268710326431765,0.46677000124684753,0.63932416696373684,0.83999672118305158,1.068076306768869,1.2372438271046804,1.6307956027584143
DP 200,170.78176911253647,0.0047263983361571591,-60.37164345675923,-59.184167450509911,-57.996691444258829,-56.809215438006049,-55.621739431751564,-54.43426342549521,-53.246787419237222,-52.059311412977422,-50.871835406715917,-49.6843594004527,-48.49688339418767,-47.30940738792097,-46.12193138165248,-44.934455375382257,-43.746979369110328,-42.559503362836651,-41.372027356561226,-40.18455135028406,-38.997075344005133,-37.809599337724485,-36.6309802035494,-35.532073755527755,-34.433167307504348,-33.3342608594792,-32.235354411452271,-31.1364479634236,-30.037541515393126,-28.938635067360927,-27.839728619326937,-26.740822171291228,-25.641915723253714,-24.543009275214445,-23.444102827173413,-22.345196379130613,-21.246289931086075,-20.14738348303975,-19.048477034991659,-17.949570586941821,-16.850664138890217,-15.751757690836859,-14.689165293420816,-13.771830814811908,-12.854496336201189,-11.937161857588631,-11.019827378974272,-10.102492900358083,-9.1851584217400788,-8.2678239431202485,-7.350489464498601,-6.4331549858751238,-5.5158205072498347,-4.5984860286227116,-3.6811515499937779,-2.7638170713630204,-1.846482592730438,-0.92914811409603471,-0.011813635459813013,0.90552084317822423,1.8228553218180839,2.7401898004597647,3.5782064419421005,4.231145630946429,4.8840848199526228,5.5370240089606648,6.18996319797056,6.8429023869823142,7.4958415759959189,8.1487807650113755,8.80171995402869,9.45465914304785,10.10759833206887,10.760537521091745,11.413476710116475,12.066415899143049,12.719355088171492,13.37229427720178,14.025233466233933,14.678172655267918,15.331111844303784,15.984051033341476,16.501648769182594,16.816231127023471,17.130813484866273,17.445395842710976,17.75997820055759,18.074560558406098,18.389142916256521,18.703725274108844,19.01830763196309,19.332889989819243,19.647472347677297,19.962054705537259,20.276637063399139,20.591219421262913,20.905801779128613,21.220384136996184,21.534966494865696,21.8495488527371,22.164131210610428,22.478713568485652,22.417924656027171,22.330691859868725,22.243459063712208,22.156226267557663,22.068993471405051,21.981760675254396,21.894527879105688,21.807295082958941,21.720062286814137,21.632829490671281,21.545596694530378,21.458363898391436,21.371131102254424,21.283898306119376,21.196665509986282,21.109432713855128,21.022199917725928,20.934967121598671,20.575529781370477,20.034618456843237,19.493707132318065,18.952795807794939,18.411884483273859,17.870973158754865,17.33006183423792,16.789150509723029,16.248239185210203,15.707327860699415,15.166416536190706,14.625505211684057,14.084593887179453,13.543682562676906,13.002771238176424,12.461859913678,11.920948589181624,11.380037264687317,10.839125940195073,10.298214615704875,9.4116124196990771,8.3768523251399021,7.3420922305827663,6.3073321360276662,5.2725720414745707,4.2378119469235491,3.2030518523745468,2.1682917578275429,1.1335316632826138,0.098771568739676519,-0.93598852580120184,-1.9707486203400617,-3.0055087148768709,-4.0402688094116854,-5.0750289039444221,-6.1097889984751594,-7.1445490930038611,-8.1793091875305048,-9.21406928205515,-10.248829376577746,-11.701157697229119,-13.257883008076112,-14.814608318920905,-16.371333629763509,-17.928058940603911,-19.484784251442111,-21.041509562278115,-22.598234873111867,-24.154960183943462,-25.711685494772894,-27.268410805600009,-28.825136116425025,-30.38186142724777,-31.938586738068363,-33.495312048886724,-35.052037359702908,-36.608762670516867,-38.165487981328653,-39.722213292138186,-41.278938602945573,-43.320664542192986,-45.416284533835913,-47.511904525476673,-49.607524517115095,-51.703144508751308,-53.798764500385218,-55.89438449201689,-57.990004483646253,-60.085624475273463,-62.181244466898356,-64.276864458521032,-66.372484450141471,-68.468104441759635,-70.563724433375555,-72.659344424989158,-74.754964416600629,-76.850584408209784,-78.946204399816551,-81.041824391421244,-83.137444383023563,0,0.047777136706785781,0.12834822296718609,0.25972787026097993,0.45377459523906893,0.7115808884138,1.0334587952609795,1.4191791841694779,1.8679162962281357,2.3780092001709736,2.7567127750814788,3.6366242013766708
DP 201,204.44629885600423,0.00109831839943487,-15.707865334685737,-15.386420496473324,-15.064975658260437,-14.743530820047077,-14.422085981833243,-14.100641143618935,-13.779196305404135,-13.457751467188885,-13.136306628973156,-12.814861790756947,-12.493416952540267,-12.171972114323104,-11.850527276105483,-11.529082437887377,-11.207637599668793,-10.886192761449742,-10.564747923230222,-10.243303085010217,-9.9218582467897409,-9.6004134085687944,-9.2814308192430524,-8.9846087027203989,-8.68778658619727,-8.3909644696736443,-8.094142353149552,-7.7973202366249907,-7.5004981200999365,-7.2036760035744063,-6.9068538870484026,-6.6100317705219158,-6.31320965399495,-6.0163875374675069,-5.7195654209395883,-5.4227433044111857,-5.1259211878823088,-4.82909907135295,-4.5322769548231179,-4.2354548382928039,-3.9386327217620107,-3.6418106052307397,-3.3550356032628836,-3.10844953439073,-2.8618634655180921,-2.6152773966449634,-2.3686913277713488,-2.1221052588972436,-1.8755191900226509,-1.6289331211475684,-1.3823470522719989,-1.135760983395941,-0.88917491451939368,-0.6425888456423563,-0.39600277676483137,-0.14941670788681807,0.097169360991684217,0.3437554298706747,0.590341498750154,0.83692756763011877,1.083513636510574,1.330099705391518,1.5549113277132167,1.7289152220051445,1.9029191162975687,2.0769230105904937,2.2509269048839102,2.4249307991778286,2.5989346934722382,2.7729385877671469,2.946942482062552,3.1209463763584542,3.2949502706548532,3.46895416495175,3.6429580592491422,3.816961953547032,3.9909658478454197,4.1649697421443008,4.3389736364436811,4.51297753074356,4.6869814250439266,4.8609853193448016,4.9982037001403983,5.0802429414128065,5.1622821826857255,5.244321423959148,5.3263606652330813,5.4083999065075172,5.4904391477824657,5.5724783890579141,5.6545176303338742,5.7365568716103423,5.8185961128873132,5.9006353541648,5.9826745954427851,6.0647138367212827,6.14675307800028,6.22879231927979,6.3108315605598113,6.3928708018403366,6.4749100431213584,6.5569492844029043,6.533130300410499,6.5071946544391652,6.481259008468351,6.4553233624980484,6.4293877165282662,6.4034520705589966,6.3775164245902447,6.3515807786220106,6.3256451326542873,6.2997094866870826,6.2737738407203985,6.2478381947542285,6.2219025487885711,6.1959669028234394,6.1700312568588114,6.1440956108947082,6.118159964931122,6.09222431896805,5.9939924095488575,5.8475618522244872,5.7011312949006525,5.5547007375773605,5.4082701802546067,5.2618396229323956,5.1154090656107218,4.9689785082895961,4.8225479509690041,4.67611739364895,4.5296868363294438,4.3832562790104737,4.2368257216920489,4.0903951643741641,3.9439646070568157,3.79753404974001,3.6511034924237444,3.5046729351080192,3.3582423777928376,3.2118118204781969,2.9745588310439404,2.6983807157440487,2.4222026004446846,2.1460244851458596,1.8698463698475574,1.593668254549804,1.3174901392525782,1.0413120239558762,0.76513390865972009,0.488955793364088,0.21277767806899445,-0.063400437225568151,-0.33957855251959279,-0.61575666781309413,-0.89193478310605012,-1.1681128983984819,-1.4442910136903737,-1.720469128981734,-1.9966472442725625,-2.2728253595628569,-2.6577496638498714,-3.0698618002469855,-3.4819739366435307,-3.8940860730395022,-4.3061982094349016,-4.7183103458297255,-5.1304224822239819,-5.5425346186176547,-5.9546467550107591,-6.3667588914032969,-6.7788710277952458,-7.1909831641866377,-7.6030953005774427,-8.01520743696769,-8.4273195733573516,-8.8394317097464548,-9.2515438461349664,-9.66365598252291,-10.075768118910283,-10.487880255297087,-11.02557506856982,-11.577224831529623,-12.128874594488829,-12.680524357447428,-13.232174120405473,-13.78382388336291,-14.335473646319777,-14.887123409276033,-15.438773172231739,-15.990422935186846,-16.542072698141371,-17.093722461095297,-17.645372224048653,-18.197021987001435,-18.748671749953594,-19.300321512905207,-19.851971275856215,-20.403621038806634,-20.955270801756495,-21.506920564705741,0,0.012019123886670044,0.032899970464010428,0.067274623911201772,0.11808750275381663,0.18562944615869506,0.269988408925254,0.37110530106211259,0.48876043020019272,0.6225116366686535,0.72183727233150252,0.95249571667166333
DP 202,87.083948808523758,0.0017423349796703367,-13.669331238840096,-13.460108271119843,-13.250885303399384,-13.041662335678685,-12.832439367957802,-12.623216400236707,-12.413993432515364,-12.204770464793819,-11.99554749707206,-11.786324529350093,-11.577101561627893,-11.367878593905489,-11.158655626182858,-10.949432658460008,-10.740209690736956,-10.530986723013676,-10.321763755290188,-10.112540787566472,-9.9033178198425471,-9.6940948521183987,-9.4863863856522954,-9.2923085736673734,-9.0982307616822222,-8.9041529496968348,-8.7100751377112164,-8.5159973257253636,-8.3219195137392834,-8.127841701752974,-7.9337638897664329,-7.7396860777796714,-7.5456082657926649,-7.3515304538054229,-7.157452641817958,-6.9633748298302622,-6.7692970178423328,-6.5752192058541716,-6.3811413938657848,-6.18706358187716,-5.9929857698883113,-5.7989079578992211,-5.6110682154966121,-5.44818104626041,-5.2852938770239311,-5.1224067077871762,-4.959519538550154,-4.7966323693128547,-4.6337452000752792,-4.4708580308374284,-4.3079708615993058,-4.1450836923609051,-3.9821965231222336,-3.819309353883289,-3.6564221846440685,-3.4935350154045746,-3.3306478461648066,-3.1677606769247615,-3.0048735076844451,-2.841986338443856,-2.67909916920299,-2.5162119999618513,-2.3670725083011592,-2.2500113641496369,-2.1329502199978307,-2.0158890758457453,-1.8988279316933787,-1.7817667875407284,-1.6647056433877956,-1.5476444992345826,-1.4305833550810878,-1.3135222109273106,-1.196461066773252,-1.0793999226189133,-0.96233877846428972,-0.84527763430938607,-0.7282164901542002,-0.611155345998732,-0.49409420184298242,-0.37703305768695,-0.25997191353063737,-0.14291076937404237,-0.049560541744414557,0.0082227507906407985,0.066006043326009955,0.12378933586169474,0.18157262839769422,0.23935592093400943,0.29713921347063926,0.3549225060075839,0.41270579854484213,0.47048909108241743,0.52827238362030637,0.5860556761585104,0.64383896869702906,0.70162226123586346,0.75940555377501151,0.817188846314475,0.874972138854253,0.932755431394348,0.99053872393475684,1.0483220164754796,1.0434651276392528,1.0299655788419859,1.0164660300450516,1.0029664812484513,0.989466932452188,0.975967383656258,0.96246783486066589,0.94896828606540451,0.93546873727048063,0.9219691884758896,0.90846963968163508,0.894970090887716,0.88147054209412889,0.8679709933008789,0.85447144450796375,0.84097189571538167,0.8274723469231362,0.81397279813122592,0.751582497550227,0.65659759223240832,0.56161268691496991,0.46662778159790591,0.37164287628121984,0.27665797096490924,0.18167306564897825,0.086688160333423775,-0.0082967449817552587,-0.10328165029655557,-0.1982665556109757,-0.2932514609250218,-0.38823636623869084,-0.48322127155197991,-0.57820617686489517,-0.67319108217742984,-0.76817598748959115,-0.86316089280137209,-0.95814579811277445,-1.0531307034238013,-1.2109250424733329,-1.3956385583909836,-1.580352074308262,-1.7650655902251624,-1.9497791061416923,-2.1344926220578415,-2.3192061379736186,-2.5039196538890267,-2.6886331698040529,-2.8733466857187091,-3.058060201632987,-3.2427737175468914,-3.4274872334604214,-3.61220074937358,-3.7969142652863566,-3.9816277811987648,-4.1663412971107956,-4.3510548130224533,-4.5357683289337336,-4.7204818448446453,-4.9817492324414072,-5.262155992460988,-5.5425627524801362,-5.8229695124988474,-6.1033762725171155,-6.38378303253496,-6.6641897925523637,-6.944596552569327,-7.2250033125858568,-7.5054100726019648,-7.7858168326176189,-8.0662235926328361,-8.3466303526476278,-8.6270371126619825,-8.90744387267589,-9.1878506326893756,-9.46825739270242,-9.7486641527150315,-10.029070912727196,-10.309477672738943,-10.679331609594648,-11.059125061066961,-11.438918512538839,-11.818711964010223,-12.198505415481172,-12.578298866951661,-12.9580923184217,-13.337885769891278,-13.717679221360395,-14.09747267282906,-14.47726612429727,-14.857059575765025,-15.236853027232321,-15.616646478699158,-15.996439930165543,-16.376233381631462,-16.756026833096939,-17.135820284561948,-17.515613736026513,-17.8954071874906,0,0.012964850775408631,0.029683284464876229,0.054477281503650873,0.090720586843788878,0.13865737219565127,0.19832414963746398,0.26968076450412737,0.35260517642481354,0.44683986837320427,0.51644769584922745,0.67878572462879372
DP 203,209.07555828681114,0.0010252531030317908,-14.869155096729413,-14.563470134665842,-14.257785172601809,-13.952100210537337,-13.64641524847241,-13.340730286407045,-13.035045324341231,-12.729360362274949,-12.42367540020822,-12.117990438141037,-11.812305476073414,-11.506620514005325,-11.200935551936803,-10.895250589867828,-10.589565627798391,-10.283880665728523,-9.9781957036581961,-9.6725107415874021,-9.3668257795161711,-9.0611408174444872,-8.7578074344452865,-8.4756384853833389,-8.1934695363209578,-7.9113005872581033,-7.6291316381948,-7.3469626891310513,-7.0647937400668379,-6.7826247910021689,-6.5004558419370522,-6.2182868928714781,-5.9361179438054528,-5.6539489947389709,-5.3717800456720317,-5.0896110966046386,-4.8074421475367979,-4.5252731984684935,-4.2431042493997433,-3.9609353003305348,-3.6787663512608679,-3.3965974021907517,-3.124015976931195,-2.8897851000349686,-2.6555542231382763,-2.42132334624112,-2.1870924693435048,-1.9528615924454211,-1.7186307155468774,-1.4843998386478687,-1.2501689617483995,-1.0159380848484647,-0.78170720794806681,-0.54747633104720406,-0.31324545414587945,-0.079014577244090958,0.15521629965816094,0.38944717656087596,0.62367805346405392,0.85790893036769478,1.0921398072717976,1.3263706841763647,1.5398482599770507,1.7049008126508771,1.869953365325179,2.035005917999948,2.2000584706751876,2.3651110233509036,2.5301635760270873,2.6952161287037404,2.8602686813808664,3.0253212340584641,3.1903737867365289,3.3554263394150694,3.5204788920940793,3.6855314447735621,3.8505839974535125,4.0156365501339373,4.1806891028148314,4.345741655496199,4.5107942081780328,4.6758467608603409,4.8058951009032693,4.8834362948151284,4.9609774887274671,5.0385186826402872,5.11605987655359,5.1936010704673716,5.27114226438163,5.3486834582963745,5.4262246522116007,5.5037658461273029,5.581307040043491,5.658848233960156,5.7363894278773016,5.813930621794924,5.8914718157130332,5.96901300963162,6.0465542035506825,6.1240953974702386,6.2016365913902609,6.2791777853107682,6.2554099728573842,6.2303944152164243,6.2053788575759476,6.1803632999359621,6.1553477422964695,6.1303321846574645,6.1053166270189454,6.0803010693809174,6.0552855117433788,6.0302699541063252,6.00525439646976,5.9802388388336922,5.9552232811981085,5.9302077235630133,5.9051921659284083,5.8801766082942946,5.8551610506606586,5.8301454930275218,5.7365912422942369,5.5973434497554209,5.4580956572171182,5.3188478646793227,5.1796000721420414,5.0403522796052664,4.9011044870690119,4.7618566945332619,4.6226089019980288,4.4833611094633,4.3441133169290929,4.2048655243953856,4.0656177318622024,3.9263699393295242,3.7871221467973561,3.6478743542657024,3.5086265617345584,3.3693787692039283,3.2301309766738071,3.090883184144205,2.8656875483420707,2.6036559620023292,2.3416243756630877,2.0795927893243551,1.8175612029861197,1.5555296166484016,1.2934980303111856,1.031466443974463,0.76943485763825747,0.50740327130254637,0.24537168496734635,-0.016659901367351671,-0.27869148770154056,-0.54072307403523356,-0.8027546603684117,-1.0647862467010936,-1.3268178330332652,-1.5888494193649316,-1.850881005696098,-2.1129125920267544,-2.4777033218903166,-2.8681850517597272,-3.2586667816285972,-3.6491485114969242,-4.0396302413647129,-4.4301119712319537,-4.8205937010986615,-5.2110754309648106,-5.601557160830434,-5.9920388906955129,-6.3825206205600393,-6.7730023504240382,-7.1634840802874775,-7.5539658101503973,-7.9444475400127583,-8.3349292698745838,-8.72541099973586,-9.1158927295966077,-9.5063744594568043,-9.89685618931646,-10.405893135408418,-10.928104128420557,-11.450315121432153,-11.972526114443177,-12.494737107453661,-13.016948100463585,-13.539159093472957,-14.061370086481773,-14.583581079490045,-15.105792072497755,-15.628003065504917,-16.150214058511537,-16.6724250515176,-17.194636044523104,-17.716847037528055,-18.239058030532458,-18.761269023536315,-19.283480016539588,-19.805691009542354,-20.327902002544512,0,0.011323812786477096,0.031055584133918155,0.06357075091810091,0.11163917429598655,0.17553650564685666,0.2553465885966848,0.35101359542197125,0.46232938140065083,0.58887493351064146,0.6828517621019583,0.90107642444309044
DP 204,207.14676016197163,0.0018238562295470376,-26.298717634953036,-25.759084722998033,-25.219451811042269,-24.67981889908561,-24.140185987128259,-23.600553075170051,-23.060920163211069,-22.521287251251273,-21.981654339290721,-21.442021427329362,-20.902388515367175,-20.36275560340421,-19.823122691440453,-19.283489779475897,-18.743856867510527,-18.204223955544396,-17.664591043577442,-17.124958131609716,-16.585325219641163,-16.045692307671828,-15.510203264465675,-15.012009431830814,-14.513815599195155,-14.015621766558676,-13.517427933921407,-13.019234101283333,-12.521040268644454,-12.022846436004773,-11.524652603364288,-11.026458770723004,-10.528264938080914,-10.030071105438028,-9.5318772727943362,-9.0336834401498347,-8.5354896075045374,-8.0372957748584319,-7.5391019422115271,-7.0409081095638193,-6.5427142769153042,-6.0445204442659941,-5.5632274010378682,-5.1495383142517284,-4.735849227464767,-4.3221601406769876,-3.908471053888388,-3.4947819670989695,-3.0810928803087339,-2.6674037935176784,-2.2537147067258072,-1.840025619933114,-1.4263365331396018,-1.0126474463452693,-0.59895835955011933,-0.18526927275415017,0.22841981404263798,0.6421089008402453,1.0557979876386705,1.4694870744379125,1.8831761612379723,2.2968652480388512,2.673953015890973,2.9656365529802162,3.257320090070301,3.5490036271612118,3.8406871642529548,4.1323707013455326,4.4240542384389405,4.7157377755331851,5.0074213126282618,5.2991048497241655,5.5907883868209005,5.8824719239184784,6.17415546101688,6.4658389981161184,6.7575225352161912,7.0492060723170971,7.3408896094188263,7.6325731465214046,7.924256683624801,8.2159402207290366,8.44584620863216,8.5830844128905088,8.7203226171497157,8.8575608214097787,8.9947990256706785,9.1320372299324344,9.2692754341950359,9.4065136384584846,9.5437518427227932,9.6809900469879455,9.8182282512539434,9.9554664555207975,10.092704659788497,10.229942864057049,10.367181068326452,10.504419272596701,10.641657476867803,10.778895681139751,10.916133885412545,11.053372089686201,11.012242802062378,10.968343103731108,10.924443405400707,10.880543707071167,10.836644008742484,10.792744310414678,10.748844612087732,10.704944913761649,10.661045215436429,10.61714551711208,10.573245818788589,10.529346120465961,10.485446422144204,10.4415467238233,10.397647025503275,10.353747327184109,10.309847628865803,10.26594793054837,10.100897269796841,9.8550773921786536,9.6092575145613726,9.363437636945001,9.1176177593295282,8.8717978817149561,8.625978004101297,8.3801581264885439,8.1343382488766878,7.888518371265743,7.6426984936557041,7.3968786160465658,7.1510587384383415,6.9052388608310125,6.659418983224592,6.4135991056190811,6.1677792280144637,5.9219593504107584,5.6761394728079555,5.4303195952060683,5.0324609840414025,4.5694408626389453,4.1064207412373737,3.6434006198367017,3.1803804984369139,2.717360377038037,2.2543402556400447,1.7913201342429297,1.3283000128467275,0.86527989145140316,0.40225977005698127,-0.060760351336553081,-0.52378047272918649,-0.986800594120943,-1.4498207155117893,-1.9128408369017535,-2.375860958290819,-2.83888107967899,-3.301901201066276,-3.764921322452667,-4.4098311629509421,-5.1002155822955331,-5.7906000016391719,-6.4809844209818444,-7.1713688403235683,-7.8617532596643267,-8.552137679004133,-9.2425220983429668,-9.9329065176808431,-10.623290937017778,-11.313675356353732,-12.004059775688754,-12.694444195022768,-13.384828614355881,-14.075213033688,-14.765597453019172,-15.455981872349376,-16.146366291678628,-16.836750711006928,-17.527135130334248,-18.427453209023344,-19.351099454675,-20.274745700325731,-21.198391945975448,-22.122038191624213,-23.045684437271973,-23.969330682918766,-24.892976928564561,-25.816623174209411,-26.740269419853277,-27.66391566549617,-28.58756191113806,-29.511208156778991,-30.434854402418964,-31.358500648057902,-32.282146893695895,-33.205793139332933,-34.12943938496894,-35.053085630604052,-35.976731876238084,0,0.020067695761972773,0.054993048965267438,0.1125217816926779,0.19756563041539094,0.31061192524058906,0.45180850157633468,0.62105659994583085,0.81798809054555321,1.0418622630577687,1.2081169271717991,1.5941878659363673
DP 205,279.5949931093142,0.0036448477447477453,-63.634291167917077,-62.250447146085904,-60.866603124252769,-59.482759102417667,-58.098915080580618,-56.715071058741721,-55.331227036900827,-53.947383015058051,-52.563538993213307,-51.179694971366629,-49.795850949518019,-48.412006927667534,-47.028162905815051,-45.644318883960644,-44.260474862104331,-42.876630840246065,-41.492786818385873,-40.108942796523756,-38.725098774659706,-37.341254752793745,-35.968890165749812,-34.699841577205675,-33.430792988659618,-32.161744400111623,-30.892695811561659,-29.623647223009762,-28.354598634455957,-27.085550045900163,-25.816501457342472,-24.547452868782802,-23.278404280221228,-22.009355691657682,-20.740307103092231,-19.471258514524809,-18.202209925955472,-16.933161337384178,-15.664112748810943,-14.395064160235775,-13.12601557165868,-11.856966983079635,-10.634093237657812,-9.5959210471581322,-8.5577488566564952,-7.519576666152906,-6.4814044756473583,-5.4432322851398656,-4.4050600946304108,-3.3668879041190016,-2.3287157136056451,-1.2905435230903324,-0.25237133257306121,0.7858008579461716,1.8239730484673502,2.8621452389904838,3.90031742951558,4.93848962004262,5.9766618105716143,7.0148340011025665,8.0530061916354647,9.0911783821703214,10.031574821027419,10.74382475863468,11.456074696243942,12.168324633855187,12.880574571468381,13.592824509083592,14.305074446700795,15.017324384319965,15.729574321941126,16.441824259564275,17.154074197189392,17.866324134816491,18.578574072445598,19.290824010076676,20.003073947709755,20.715323885344791,21.427573822981831,22.139823760620843,22.852073698261862,23.564323635904849,24.116357775700564,24.428064432723442,24.739771089748363,25.051477746775262,25.363184403804183,25.674891060835112,25.986597717868026,26.29830437490299,26.61001103193993,26.921717688978863,27.233424346019834,27.54513100306281,27.856837660107772,28.16854431715474,28.480250974203724,28.791957631254729,29.103664288307741,29.415370945362742,29.727077602419744,30.038784259478785,29.839572508751925,29.697545619301451,29.555518729852995,29.413491840406557,29.271464950962194,29.129438061519831,28.987411172079511,28.845384282641252,28.703357393204985,28.561330503770769,28.419303614338592,28.277276724908447,28.135249835480316,27.993222946054225,27.851196056630169,27.709169167208156,27.56714227778815,27.425115388370216,26.990621623023191,26.361145332951402,25.731669042881773,25.1021927528142,24.472716462748764,23.843240172685416,23.21376388262421,22.584287592565097,21.954811302508073,21.325335012453202,20.695858722400438,20.066382432349759,19.436906142301208,18.807429852254767,18.177953562210433,17.548477272168221,16.919000982128107,16.289524692090115,15.660048402054215,15.030572112020449,14.046869845377151,12.911351662746869,11.775833480118651,10.640315297492531,9.5047971148684613,8.3692789322465266,7.2337607496266489,6.0982425670088167,4.9627243843931108,3.8272062017794517,2.6916880191678918,1.5561698365584034,0.42065165395101417,-0.71486652865433153,-1.8503847112575522,-2.9859028938587264,-4.1214210764577981,-5.2569392590547874,-6.3924574416497153,-7.5279756242425435,-9.07483770985196,-10.724540631337133,-12.374243552820097,-14.023946474300836,-15.673649395779378,-17.323352317255697,-18.973055238729824,-20.622758160201695,-22.272461081671381,-23.922164003138889,-25.571866924604123,-27.221569846067183,-28.871272767527952,-30.520975688986656,-32.170678610443005,-33.8203815318972,-35.470084453349173,-37.119787374798953,-38.7694902962465,-40.419193217691841,-42.534283931542049,-44.701089287801565,-46.867894644058943,-49.0347000003139,-51.201505356566678,-53.368310712817255,-55.535116069065516,-57.701921425311482,-59.868726781555353,-62.035532137796821,-64.202337494036072,-66.369142850273136,-68.5359482065079,-70.702753562740469,-72.869558918970668,-75.03636427519875,-77.203169631424558,-79.369974987648035,-81.53678034386941,-83.703585700088283,0,0.044692958002419916,0.12483455612096768,0.25823165364946971,0.45562766889060435,0.718178453188498,1.0462533293479994,1.4396268214253263,1.8974300938504947,2.4179142717779878,2.8045170827705497,3.701705775390606
DP 206,190.45940178933489,0.004383812533948395,-59.982337821792989,-58.773106571845517,-57.563875321896241,-56.354644071945117,-55.145412821992274,-53.936181572037654,-52.726950322081215,-51.517719072122979,-50.308487822163059,-49.09925657220127,-47.890025322237662,-46.6807940722723,-45.471562822305181,-44.262331572336237,-43.053100322365559,-41.843869072393041,-40.634637822418782,-39.425406572442718,-38.216175322464871,-37.006944072485261,-35.806865384222959,-34.68916061657081,-33.5714558489168,-32.453751081261032,-31.336046313603433,-30.218341545944032,-29.100636778282844,-27.982932010619855,-26.865227242955051,-25.747522475288413,-24.629817707620056,-23.512112939949805,-22.394408172277775,-21.276703404603968,-20.158998636928338,-19.041293869250907,-17.923589101571679,-16.805884333890628,-15.688179566207774,-14.570474798523145,-13.490195344964011,-12.559618916684784,-11.629042488403702,-10.69846606012077,-9.7678896318359953,-8.8373132035493782,-7.9067367752609083,-6.97616034697059,-6.0455839186784193,-5.1150074903844018,-4.18443106208853,-3.2538546337908061,-2.323278205491238,-1.3927017771898178,-0.46212534888655121,0.46845107941856678,1.3990275077255325,2.3296039360343412,3.2601803643449978,4.1907567926575071,5.0399373221663133,5.6991915232191488,6.3584457242738717,7.0176999253304633,7.6769541263889387,8.3362083274493131,8.9954625285115473,9.6547167295756715,10.313970930641679,10.97322513170956,11.632479332779322,12.291733533850968,12.950987734924503,13.610241935999911,14.269496137077208,14.928750338156371,15.588004539237421,16.247258740320362,16.906512941405172,17.565767142491872,18.086891163919073,18.400816651752283,18.714742139587415,19.028667627424483,19.342593115263483,19.656518603104406,19.970444090947264,20.28436957879202,20.598295066638723,20.912220554487352,21.226146042337906,21.540071530190367,21.853997018044783,22.167922505901107,22.481847993759377,22.795773481619534,23.109698969481649,23.423624457345682,23.737549945211637,24.051475433079542,23.974372910905544,23.880746034016589,23.787119157129606,23.69349228024458,23.599865403361495,23.506238526480395,23.412611649601246,23.318984772724093,23.22535789584887,23.131731018975643,23.038104142104345,22.94447726523503,22.850850388367657,22.757223511502264,22.663596634638829,22.569969757777372,22.476342880917866,22.382716004060335,22.014748351204386,21.46388252579753,20.913016700392735,20.362150874990004,19.811285049589333,19.260419224190709,18.709553398794178,18.158687573399696,17.60782174800725,17.056955922616883,16.50609009722859,15.955224271842352,15.404358446458161,14.853492621076056,14.302626795695991,13.751760970318008,13.200895144942059,12.650029319568198,12.099163494196397,11.54829766882666,10.651072598800543,9.6054031755641773,8.5597337523298318,7.5140643290975326,6.4683949058672425,5.4227254826390414,4.3770560594128511,3.3313866361886593,2.2857172129665511,1.2400477897464373,0.19437836652838469,-0.851291056687647,-1.8969604799016264,-2.9426299031136063,-3.9882993263235105,-5.0339687495314065,-6.0796381727372548,-7.1253075959410728,-8.1709770191428621,-9.21664644234261,-10.67870962710032,-12.244876172034408,-13.811042716966284,-15.377209261895992,-16.943375806823489,-18.509542351748806,-20.075708896671948,-21.641875441592848,-23.208041986511571,-24.774208531428126,-26.340375076342458,-27.906541621254618,-29.472708166164537,-31.038874711072303,-32.605041255977874,-34.17120780088127,-35.737374345782413,-37.30354089068144,-38.869707435578242,-40.43587398047282,-42.484180092192943,-44.586062330525536,-46.687944568855912,-48.789826807183971,-50.891709045509863,-52.993591283833496,-55.095473522154855,-57.197355760473968,-59.299237998790922,-61.401120237105552,-63.503002475418043,-65.604884713728268,-67.706766952036133,-69.80864919034191,-71.9105314286453,-74.012413666946529,-76.114295905245513,-78.216178143542137,-80.318060381836816,-82.419942620128978,0,0.046543626467797951,0.12656579279478958,0.257854152586911,0.45186777645148796,0.70971010538910106,1.0317084378942805,1.4176359969943721,1.8666585436572976,2.3770974692091329,2.7561244226664816,3.636488687712391
DP 207,88.248059698488021,0.0040609689809552292,-32.2092847454096,-31.712461953588914,-31.215639161767665,-30.718816369945966,-30.221993578123715,-29.725170786300957,-29.228347994477637,-28.731525202653813,-28.234702410829463,-27.7378796190046,-27.241056827179204,-26.744234035353312,-26.247411243526869,-25.750588451699908,-25.253765659872439,-24.75694286804443,-24.260120076215916,-23.763297284386848,-23.266474492557283,-22.769651700727202,-22.276425280083924,-21.815566540070353,-21.354707800056232,-20.893849060041585,-20.432990320026345,-19.972131580010572,-19.511272839994227,-19.050414099977321,-18.589555359959881,-18.128696619941884,-17.667837879923315,-17.2069791399042,-16.746120399884514,-16.2852616598643,-15.824402919843497,-15.363544179822162,-14.902685439800274,-14.441826699777804,-13.980967959754794,-13.520109219731232,-13.074066151987761,-12.687286473575533,-12.300506795162669,-11.913727116749131,-11.526947438334949,-11.140167759920113,-10.753388081504614,-10.366608403088462,-9.9798287246716519,-9.5930490462541922,-9.2062693678360752,-8.8194896894172974,-8.43271001099787,-8.0459303325777789,-7.6591506541570391,-7.2723709757356376,-6.8855912973135807,-6.4988116188908736,-6.1120319404675092,-5.7252522620434965,-5.3711204891865618,-5.0931681913063773,-4.8152158934255089,-4.5372635955439771,-4.2593112976617666,-3.981358999778883,-3.7034067018953261,-3.425454404011095,-3.1475021061261894,-2.8695498082406088,-2.5915975103543603,-2.3136452124674363,-2.035692914579835,-1.7577406166915619,-1.4797883188026146,-1.2018360209129937,-0.92388372302269928,-0.64593142513172885,-0.36797912724008741,-0.090026829347773785,0.13161716761273809,0.26879738257437696,0.40597759753676177,0.54315781249990136,0.68033802746378935,0.81751824242842985,0.95469845739381587,1.0918786723599565,1.2290588873268431,1.3662391022944862,1.5034193172628747,1.6405995322320148,1.7777797472019061,1.9149599621725457,2.0521401771439391,2.1893203921160782,2.3265006070889696,2.463680822062615,2.6008610370370051,2.7380412520121475,2.7264052405606267,2.6943144729914419,2.6622237054230595,2.6301329378554663,2.598042170288676,2.5659514027226771,2.53386063515748,2.5017698675930768,2.4696791000294733,2.437588332466659,2.4054975649046479,2.373406797343435,2.3413160297830089,2.3092252622233871,2.2771344946645624,2.2450437271065309,2.2129529595492969,2.1808621919928628,2.0326788631711912,1.8070986646174025,1.5815184660645147,1.3559382675125136,1.130358068961411,0.90477787041119773,0.67919767186188951,0.45361747331347169,0.22803727476594587,0.0024570762193168207,-0.22312312232640674,-0.44870332087124531,-0.6742835194151876,-0.89986371795822806,-1.1254439165003813,-1.3510241150416327,-1.5766043135819978,-1.80218451212146,-2.0277647106600241,-2.2533449091976943,-2.628066214759039,-3.0667071514858564,-3.5053480882117825,-3.94398902493682,-4.3826299616609772,-4.8212708983842258,-5.2599118351065934,-5.6985527718280879,-6.1371937085486739,-6.5758346452683858,-7.014475581987198,-7.4531165187051283,-7.89175745542216,-8.33039839213832,-8.7690393288535677,-9.2076802655679462,-9.6463212022814151,-10.084962138994012,-10.52360307570572,-10.962244012416528,-11.582649922204723,-12.248499222856635,-12.914348523507517,-13.580197824157365,-14.246047124806195,-14.911896425453987,-15.577745726100751,-16.243595026746462,-16.90944432739116,-17.575293628034828,-18.241142928677444,-18.906992229319066,-19.572841529959607,-20.238690830599154,-20.904540131237653,-21.57038943187511,-22.236238732511563,-22.902088033146988,-23.567937333781327,-24.233786634414702,-25.112012095361244,-26.013837137917093,-26.915662180471919,-27.817487223025552,-28.719312265578196,-29.621137308129729,-30.522962350680181,-31.424787393229526,-32.326612435777847,-33.228437478325063,-34.13026252087122,-35.032087563416283,-35.933912605960259,-36.835737648503155,-37.737562691045014,-38.639387733585721,-39.541212776125384,-40.443037818663925,-41.344862861201484,-42.246687903737858,0,0.03036390397248763,0.069852156012724181,0.12863043153472237,0.21459826534393464,0.32832532161630124,0.46989778845590036,0.63921903943711567,0.83599594441438585,1.0596126190327337,1.2248348075310882,1.6101213455757135
DP 208,166.40241056628287,0.0024210126557772521,-30.415123087280172,-29.820580988728029,-29.226038890175023,-28.631496791621149,-28.036954693066395,-27.44241259451077,-26.847870495954261,-26.253328397396942,-25.658786298838706,-25.064244200279614,-24.469702101719658,-23.875160003158829,-23.28061790459715,-22.686075806034566,-22.091533707471143,-21.496991608906832,-20.902449510341693,-20.307907411775638,-19.713365313208733,-19.118823214640955,-18.528703129792593,-17.978381586413519,-17.428060043033572,-16.877738499652736,-16.327416956271033,-15.77709541288843,-15.22677386950498,-14.676452326120623,-14.126130782735393,-13.575809239349285,-13.025487695962294,-12.475166152574426,-11.924844609185671,-11.374523065796028,-10.824201522405517,-10.27387997901412,-9.7235584356218538,-9.1732368922287,-8.6229153488346579,-8.0725938054397517,-7.5404105676047717,-7.0807814092537242,-6.6211522509017575,-6.1615230925488875,-5.7018939341951151,-5.24226477584042,-4.7826356174848152,-4.3230064591283,-3.8633773007708738,-3.4037481424125362,-2.9441189840532842,-2.4844898256931232,-2.02486066733205,-1.5652315089700639,-1.1056023506071666,-0.64597319224335825,-0.18634403387863871,0.27328512448698938,0.73291428285352767,1.1925434412209808,1.6125197855419,1.9399716477268243,2.2674235099126832,2.5948753720994686,2.922327234287176,3.2497790964758151,3.5772309586653828,3.9046828208558777,4.2321346830473,4.5595865452396547,4.8870384074329305,5.2144902696271327,5.5419421318222764,5.8693939940183375,6.1968458562153277,6.5242977184132478,6.85174958061209,7.17920144281187,7.5066533050125743,7.8341051672142044,8.09382495599473,8.2519450340912925,8.4100651121888141,8.5681851902872879,8.7263052683867173,8.8844253464871,9.042545424588436,9.2006655026907413,9.3587855807939917,9.5169056588982119,9.6750257370033825,9.8331458151095017,9.9912658932165872,10.149385971324621,10.307506049433618,10.465626127543567,10.62374620565447,10.781866283766336,10.939986361879155,11.098106439992923,11.069134665995675,11.025921560169424,10.982708454344156,10.939495348519863,10.896282242696554,10.853069136874224,10.809856031052874,10.766642925232498,10.723429819413106,10.680216713594683,10.637003607777256,10.593790501960788,10.550577396145314,10.507364290330809,10.464151184517281,10.420938078704738,10.377724972893166,10.334511867082577,10.15474179065686,9.8839315825420186,9.6131213744282142,9.3423111663154277,9.071500958203675,8.80069075009296,8.5298805419832764,8.2590703338746376,7.9882601257670194,7.7174499176604385,7.4466397095548986,7.1758295014503828,6.9050192933469035,6.6342090852444606,6.363398877143049,6.0925886690426747,5.8217784609433281,5.5509682528450126,5.2801580447477372,5.0093478366514965,4.5649166072250029,4.0460740242322375,3.527231441240489,3.0083888582497718,2.4895462752600581,1.970703692271385,1.451861109283729,0.93301852629707482,0.41417594331146251,-0.10466663967314628,-0.62350922265672315,-1.1423518056392858,-1.6611943886208194,-2.180036971601349,-2.6988795545808362,-3.2177221375593215,-3.7365647205367747,-4.2554073035132056,-4.7742498864886231,-5.29309246946302,-6.0218439068283427,-6.8030750379121923,-7.5843061689949414,-8.3655373000765643,-9.1467684311571027,-9.9279995622365185,-10.709230693314842,-11.490461824392046,-12.271692955468126,-13.052924086543127,-13.834155217617012,-14.615386348689784,-15.396617479761428,-16.177848610832,-16.959079741901437,-17.740310872969783,-18.521542004037006,-19.302773135103145,-20.084004266168158,-20.865235397232066,-21.89041970542371,-22.942712484283625,-23.995005263142481,-25.047298042000133,-26.099590820856694,-27.151883599712097,-28.204176378566352,-29.25646915741947,-30.308761936271473,-31.361054715122354,-32.413347493972076,-33.465640272820721,-34.517933051668166,-35.570225830514495,-36.622518609359709,-37.674811388203757,-38.727104167046718,-39.779396945888486,-40.831689724729173,-41.88398250356866,0,0.024179254964438922,0.064740364184469573,0.13077010276378714,0.2282819241528144,0.35782349913010586,0.51954957305425631,0.71334469551269575,0.93879521098652186,1.1950688129706668,1.3853219129933225,1.8274107949998675
DP 209,278.40665242063852,0.001443062703111207,-25.123052076382393,-24.577139841697626,-24.031227607012116,-23.485315372325822,-22.93940313763877,-22.393490902950958,-21.847578668262383,-21.301666433573033,-20.75575419888294,-20.209841964192083,-19.663929729500431,-19.118017494808061,-18.5721052601149,-18.026193025420987,-17.4802807907263,-16.934368556030861,-16.388456321334651,-15.84254408663768,-15.296631851939971,-14.750719617241462,-14.209329506758726,-13.708638941674531,-13.207948376589558,-12.707257811503828,-12.206567246417325,-11.705876681330064,-11.205186116242023,-10.704495551153229,-10.203804986063663,-9.703114420973332,-9.2024238558822375,-8.70173329079038,-8.201042725697743,-7.7003521606043446,-7.19966159551019,-6.6989710304152608,-6.1982804653195629,-5.697589900223103,-5.1968993351258739,-4.6962087700278818,-4.21371327663422,-3.8039989299845924,-3.3942845833341924,-2.9845702366830222,-2.5748558900310803,-2.1651415433783647,-1.7554271967248782,-1.345712850070617,-0.93599850341558788,-0.52628415675978524,-0.116569810103209,0.29314453655414235,0.70285888321226209,1.1125732298711555,1.5222875765308204,1.9320019231912589,2.3417162698524683,2.7514306165144471,3.1611449631771982,3.5708593098407229,3.9420300688831107,4.2232645757311893,4.5044990825800548,4.785733589429702,5.0669680962801342,5.3482026031313508,5.6294371099833471,5.9106716168361375,6.1919061236897042,6.4731406305440542,6.7543751373991832,7.0356096442551079,7.3168441511118134,7.5980786579693023,7.8793131648275763,8.160547671686631,8.4417821785464753,8.7230166854070976,9.0042511922685087,9.2854856991307049,9.50352891575677,9.626783703777992,9.7500384918000034,9.8732932798227981,9.9965480678464029,10.119802855870789,10.243057643895977,10.36631243192195,10.489567219948714,10.612822007976277,10.736076796004632,10.859331584033773,10.982586372063727,11.105841160094455,11.229095948125979,11.352350736158305,11.475605524191414,11.598860312225323,11.722115100260027,11.845369888295517,11.767451372924455,11.711632670644452,11.655813968365235,11.599995266086832,11.544176563809232,11.488357861532441,11.432539159256434,11.376720456981252,11.320901754706869,11.265083052433289,11.20926435016051,11.153445647888537,11.09762694561736,11.04180824334699,10.985989541077428,10.930170838808669,10.874352136540711,10.818533434273547,10.647207302027493,10.398874396791484,10.150541491556318,9.9022085863219775,9.6538756810884685,9.4055427758557943,9.1572098706239533,8.9088769653929489,8.66054406016278,8.4122111549334448,8.1638782497049434,7.9155453444772688,7.6672124392504371,7.4188795340244447,7.1705466287992738,6.92221372357495,6.6738808183514458,6.4255479131287867,6.1772150079069625,5.928882102685967,5.5405543736490177,5.0922269726103631,4.6438995715725309,4.1955721705355256,3.7472447694993236,3.2989173684639685,2.8505899674294297,2.4022625663956965,1.9539351653628021,1.5056077643307186,1.0572803632994654,0.60895296226903073,0.160625561239425,-0.28770183978937319,-0.73602924081733123,-1.1843566418444798,-1.6326840428707994,-2.0810114438962937,-2.5293388449209737,-2.9776662459448286,-3.588657983399663,-4.2403177268783114,-4.8919774703560881,-5.543637213832989,-6.195296957309016,-6.8469567007841681,-7.4986164442584551,-8.1502761877318477,-8.8019359312043672,-9.4535956746760412,-10.105255418146806,-10.756915161616723,-11.408574905085731,-12.0602346485539,-12.71189439202117,-13.363554135487574,-14.015213878953112,-14.666873622417764,-15.318533365881541,-15.970193109344445,-16.805962643128957,-17.662190753880733,-18.518418864631638,-19.374646975381616,-20.230875086130723,-21.087103196878939,-21.943331307626245,-22.799559418372667,-23.655787529118257,-24.512015639862902,-25.368243750606663,-26.22447186134956,-27.080699972091523,-27.93692808283264,-28.793156193572841,-29.649384304312168,-30.50561241505061,-31.361840525788136,-32.218068636524812,-33.07429674726054,0,0.017671666307590494,0.04934992752152513,0.10207277554086368,0.18008910845288839,0.28385564982636391,0.41351825355368049,0.568987822077424,0.74992099931094436,0.95562663303178608,1.1084194717786997,1.4630082517682568
DP 210,290.20558445851111,0.0058030311237049388,-103.86102113651637,-101.58668585860971,-99.312350580699871,-97.038015302786889,-94.7636800248709,-92.4893447469517,-90.21500946902917,-87.940674191103668,-85.666338913175025,-83.392003635243327,-81.117668357308347,-78.843333079370339,-76.5689978014291,-74.294662523484774,-72.020327245537374,-69.745991967586761,-67.471656689633022,-65.197321411676157,-62.922986133716179,-60.64865085575309,-58.393416175200556,-56.310088676839371,-54.226761178475165,-52.143433680107741,-50.060106181737162,-47.976778683363456,-45.893451184986581,-43.81012368660658,-41.726796188223389,-39.643468689837164,-37.560141191447677,-35.476813693055121,-33.393486194659374,-31.310158696260476,-29.226831197858488,-27.143503699453312,-25.060176201044968,-22.976848702633482,-20.893521204218874,-18.810193705801105,-16.803527394778119,-15.103509456457976,-13.403491518134674,-11.703473579808207,-10.003455641478583,-8.3034377031458,-6.6034197648098285,-4.9034018264706996,-3.2033838881284074,-1.50336594978295,0.19665198856568131,1.8966699269174889,3.5966878652724539,5.2967058036305863,6.9967237419918868,8.69674168035635,10.396759618723987,12.096777557094775,13.796795495468738,15.496813433845849,17.035080167043205,18.195922325113546,19.356764483187106,20.517606641263878,21.678448799343862,22.839290957427053,24.000133115513485,25.160975273603118,26.321817431695962,27.482659589792028,28.643501747891282,29.804343905993779,30.965186064099491,32.126028222208411,33.286870380320536,34.447712538435908,35.608554696554478,36.769396854676266,37.930239012801273,39.091081170929471,39.988154542118643,40.489568499873812,40.990982457632228,41.492396415393841,41.993810373158752,42.495224330926924,42.996638288698328,43.498052246472994,43.999466204250886,44.500880162032068,45.002294119816433,45.503708077604095,46.005122035395011,46.506535993189146,47.007949950986557,47.509363908787222,48.010777866591113,48.512191824398258,49.013605782208622,49.515019740022296,49.162543220654022,48.921268417348678,48.679993614046595,48.438718810747758,48.197444007452305,47.9561692041601,47.714894400871131,47.47361959758554,47.232344794303188,46.991069991024133,46.749795187748411,46.508520384475908,46.267245581206737,46.025970777940856,45.784695974678264,45.543421171418906,45.3021463681629,45.060871564910187,44.34389630854723,43.309779922729959,42.275663536916056,41.241547151105586,40.207430765298504,39.173314379494862,38.139197993694623,37.105081607897787,36.070965222104377,35.036848836314363,34.002732450527787,32.968616064744651,31.934499678964851,30.900383293188504,29.8662669074156,28.832150521646088,27.798034135879952,26.763917750117272,25.729801364358,24.695684978602156,23.089005708952723,21.236934614823209,19.384863520697056,17.532792426574275,15.680721332454807,13.828650238338778,11.976579144226086,10.124508050116715,8.2724369560107682,6.4203658619081354,4.5682947678088954,2.7162236737130057,0.86415257962050651,-0.98791851446868706,-2.8399896085544447,-4.6920607026368932,-6.5441317967159449,-8.3962028907916224,-10.248273984863973,-12.100345078932937,-14.613722647334361,-17.292434647805042,-19.97114664827215,-22.649858648735684,-25.328570649195647,-28.007282649652037,-30.685994650104888,-33.364706650554069,-36.043418650999733,-38.722130651441894,-41.400842651880346,-44.079554652315316,-46.758266652746606,-49.436978653174435,-52.115690653598641,-54.794402654019294,-57.473114654436316,-60.15182665484982,-62.830538655259708,-65.5092506556661,-68.93340037936315,-72.4403843456586,-75.947368311950441,-79.454352278238488,-82.961336244523039,-86.468320210803924,-89.975304177081171,-93.4822881433547,-96.98927210962475,-100.49625607589105,-104.00324004215375,-107.51022400841289,-111.01720797466824,-114.5241919409201,-118.03117590716822,-121.53815987341288,-125.04514383965386,-128.55212780589096,-132.05911177212485,-135.56609573835453,0,0.071952380839551147,0.20131202478071619,0.4168474688501172,0.735821771903367,1.1601065282644689,1.6903026601625237,2.3260460337581539,3.0659308516502408,3.9071264304341597,4.5319540802792533,5.98190110120591
DP 211,75.577866335680483,0.0049712579310169152,-34.632708023178196,-34.150051701739848,-33.667395380301038,-33.184739058861865,-32.7020827374223,-32.219426415982348,-31.736770094541988,-31.254113773101217,-30.771457451660069,-30.28880113021852,-29.806144808776587,-29.323488487334252,-28.840832165891523,-28.358175844448386,-27.875519523004836,-27.392863201560921,-26.910206880116604,-26.427550558671914,-25.944894237226798,-25.462237915781287,-24.983072077092935,-24.535320913157491,-24.087569749221586,-23.639818585285258,-23.19206742134849,-22.744316257411278,-22.29656509347361,-21.848813929535513,-21.401062765596986,-20.953311601658005,-20.505560437718589,-20.057809273778719,-19.610058109838423,-19.162306945897679,-18.714555781956495,-18.266804618014874,-17.819053454072822,-17.371302290130306,-16.923551126187345,-16.475799962243965,-16.042423133871281,-15.666544327133666,-15.290665520395503,-14.914786713656749,-14.538907906917416,-14.163029100177525,-13.787150293437056,-13.411271486696005,-13.035392679954377,-12.659513873212187,-12.28363506646941,-11.907756259726058,-11.531877452982133,-11.155998646237636,-10.780119839492565,-10.404241032746913,-10.028362226000691,-9.6524834192538975,-9.2766046125065174,-8.9007258057585759,-8.5565337871162939,-8.286278605758282,-8.0160234243996769,-7.7457682430404748,-7.4755130616806884,-7.2052578803202989,-6.9350026989593232,-6.6647475175977391,-6.3944923362355635,-6.1242371548728078,-5.8539819735094509,-5.5837267921455043,-5.3134716107809572,-5.0432164294158213,-4.7729612480500858,-4.5027060666837588,-4.2324508853168412,-3.9621957039493263,-3.6919405225812172,-3.4216853412125157,-3.2060923650173145,-3.0724939882851809,-2.9388956115523603,-2.8052972348188363,-2.6716988580846186,-2.538100481349705,-2.4045021046140995,-2.2709037278777977,-2.1373053511408018,-2.0037069744031086,-1.8701085976647214,-1.7365102209256413,-1.6029118441858616,-1.4693134674453914,-1.3357150907042212,-1.2021167139623594,-1.068518337219803,-0.9349199604765468,-0.801321583732598,-0.6677232069879554,-0.67788969827536316,-0.70867628089618351,-0.7394628635162509,-0.770249446135564,-0.80103602875412283,-0.83182261137192892,-0.86260919398897506,-0.89339577660527825,-0.92418235922082093,-0.9549689418356121,-0.98575552444964754,-1.0165421070629279,-1.0473286896754574,-1.0781152722872323,-1.1089018548982512,-1.1396884375085183,-1.170475020118031,-1.2012616027267897,-1.34482777756584,-1.5635821239221437,-1.7823364702775661,-2.0010908166321206,-2.2198451629857967,-2.4385995093386006,-2.6573538556905203,-2.8761082020415665,-3.094862548391744,-3.313616894741036,-3.532371241089447,-3.7511255874369911,-3.9698799337836577,-4.1886342801294454,-4.407388626474356,-4.6261429728183936,-4.8448973191615572,-5.0636516655038379,-5.2824060118452429,-5.5011603581857713,-5.8648566845257326,-6.2906729594623343,-6.7164892343980656,-7.14230550933292,-7.5681217842669088,-7.9939380592000155,-8.4197543341322447,-8.8455706090636284,-9.2713868839941167,-9.69720315892375,-10.1230194338525,-10.548835708780388,-10.974651983707387,-11.400468258633538,-11.826284533558789,-12.252100808483183,-12.677917083406703,-13.103733358329343,-13.529549633251131,-13.955365908172016,-14.557863026342748,-15.204532442850105,-15.8512018593564,-16.497871275861677,-17.144540692365887,-17.791210108869066,-18.437879525371191,-19.084548941872285,-19.731218358372328,-20.377887774871326,-21.024557191369265,-21.671226607866174,-22.317896024362017,-22.964565440856841,-23.611234857350592,-24.257904273843319,-24.904573690335,-25.55124310682562,-26.197912523315189,-26.844581939803728,-27.697734700911916,-28.573832224441269,-29.44992974796952,-30.326027271496631,-31.202124795022666,-32.078222318547589,-32.954319842071413,-33.830417365594094,-34.706514889115731,-35.582612412636237,-36.458709936155635,-37.334807459673918,-38.210904983191135,-39.0870025067072,-39.963100030222179,-40.839197553736078,-41.715295077248854,-42.591392600760507,-43.46749012427108,-44.3435876477805,0,0.035361417376624321,0.076727865891527261,0.13524263794026808,0.22006705648583791,0.3319244066862731,0.47092413559234281,0.6369989207707073,0.829917837171715,1.0491457408050371,1.2104364728446115,1.5870363687328615
DP 212,265.74962693958895,0.0027241843158341259,-46.000016186080082,-45.00912592211666,-44.018235658151838,-43.0273453941856,-42.036455130217988,-41.045564866248952,-40.054674602278524,-39.063784338306661,-38.072894074333448,-37.0820038103588,-36.091113546382743,-35.10022328240526,-34.109333018426362,-33.118442754446122,-32.127552490464439,-31.136662226481388,-30.145771962496909,-29.15488169851103,-28.163991434523737,-27.173101170535038,-26.190300873317383,-25.280311041748877,-24.370321210178993,-23.460331378607663,-22.55034154703495,-21.640351715460831,-20.730361883885262,-19.820372052308297,-18.910382220729907,-18.000392389150146,-17.090402557568936,-16.180412725986344,-15.270422894402321,-14.360433062816915,-13.450443231230073,-12.540453399641821,-11.630463568052152,-10.720473736461082,-9.8104839048685957,-8.9004940732747091,-8.0231384471428679,-7.2763211852014518,-6.5295039232586021,-5.7826866613143322,-5.0358693993686456,-4.2890521374215247,-3.5422348754729893,-2.7954176135230226,-2.048600351571638,-1.30178308961883,-0.55496582766459279,0.19185143429107188,0.93866869624815563,1.6854859582066644,2.4323032201665979,3.1791204821279542,3.9259377440907355,4.6727550060549348,5.41957226802056,6.166389529987609,6.8437832866387573,7.3591866768590846,7.8745900670808631,8.3899934573040849,8.9053968475287544,9.420800237754877,9.9362036279824384,10.451607018211455,10.967010408441908,11.482413798673816,11.997817188907163,12.513220579141956,13.028623969378186,13.544027359615885,14.059430749855032,14.574834140095588,15.090237530337623,15.605640920581108,16.121044310826012,16.636447701072381,17.037388796673167,17.266633745488193,17.495878694304668,17.725123643122615,17.954368591942035,18.1836135407629,18.412858489585254,18.642103438409077,18.871348387234356,19.100593336061074,19.329838284889281,19.559083233718944,19.788328182550082,20.017573131382669,20.24681808021673,20.476063029052241,20.705307977889241,20.93455292672769,21.163797875567596,21.39304282440898,21.264394571095483,21.167085662677184,21.069776754260381,20.972467845845053,20.87515893743122,20.777850029018868,20.680541120608016,20.58323221219862,20.485923303790749,20.388614395384316,20.291305486979393,20.193996578575977,20.096687670174006,19.99937876177351,19.902069853374535,19.804760944977005,19.707452036581003,19.610143128186461,19.300661251762264,18.8497273874733,18.398793523185908,17.947859658900025,17.496925794615713,17.045991930332885,16.595058066051642,16.144124201771959,15.693190337493801,15.242256473217166,14.791322608942103,14.340388744668575,13.88945488039659,13.438521016126156,12.987587151857237,12.536653287589889,12.08571942332407,11.634785559059798,11.183851694797072,10.732917830535898,10.022989109616969,9.2020590957500783,8.3811290818847066,7.5601990680208635,6.73926905415851,5.9183390402977292,5.0974090264384477,4.2764790125806584,3.4555489987244328,2.6346189848696926,1.8136889710164963,0.992758957164809,0.1718289433146572,-0.6491010705340009,-1.4700310843811066,-2.2909610982267132,-3.1118911120707855,-3.9328211259133345,-4.7537511397543781,-5.57468115359389,-6.6983811674931522,-7.8977772587036554,-9.0971733499125573,-10.296569441119818,-11.495965532325473,-12.695361623529488,-13.894757714731922,-15.094153805932695,-16.293549897131864,-17.492945988329449,-18.692342079525361,-19.891738170719673,-21.09113426191233,-22.290530353103435,-23.48992644429287,-24.689322535480695,-25.888718626666911,-27.088114717851507,-28.28751080903444,-29.486906900215796,-31.030410405220707,-32.6121516812774,-34.193892957332444,-35.7756342333858,-37.357375509437581,-38.939116785487677,-40.520858061536138,-42.102599337582873,-43.684340613628073,-45.266081889671618,-46.847823165713443,-48.429564441753648,-50.011305717792226,-51.593046993829176,-53.174788269864408,-54.75652954589809,-56.338270821930017,-57.920012097960274,-59.50175337398904,-61.083494650016014,0,0.03287245572749966,0.091589446726930326,0.18918363626210033,0.33357852763277646,0.52561704022880518,0.76556676443870941,1.0532624374912063,1.388069906504074,1.7687128411662787,2.0514388675671933,2.7076197977283227
DP 213,94.718103934805839,0.0028776617765874108,-24.170213501154851,-23.782729676698651,-23.395245852242045,-23.007762027785013,-22.620278203327512,-22.232794378869585,-21.84531055441121,-21.457826729952405,-21.070342905493177,-20.68285908103347,-20.295375256573379,-19.907891432112798,-19.520407607651787,-19.132923783190353,-18.745439958728483,-18.357956134266178,-17.970472309803419,-17.58298848534022,-17.19550466087658,-16.808020836412513,-16.42334428815138,-16.063933491076021,-15.704522694000202,-15.345111896923918,-14.985701099847159,-14.626290302769952,-14.26687950569227,-13.907468708614147,-13.548057911535551,-13.188647114456488,-12.829236317376969,-12.469825520296995,-12.11041472321655,-11.751003926135635,-11.391593129054273,-11.032182331972438,-10.672771534890147,-10.313360737807397,-9.95394994072418,-9.5945391436405,-9.2466920907696188,-8.945100561269907,-8.6435090317696837,-8.3419175022689185,-8.0403259727676346,-7.7387344432658089,-7.437142913763461,-7.1355513842605873,-6.8339598547571709,-6.5323683252532359,-6.2307767957487741,-5.9291852662437776,-5.6275937367382527,-5.3260022072321966,-5.0244106777256157,-4.7228191482185071,-4.4212276187108666,-4.1196360892026993,-3.8180445596940022,-3.5164530301847767,-3.2403377477650204,-3.0236678445799638,-2.806997941394358,-2.5903280382082134,-2.3736581350215276,-2.1569882318342968,-1.9403183286465253,-1.7236484254582096,-1.5069785222693526,-1.2903086190799526,-1.0736387158900111,-0.856968812699527,-0.6402989095084991,-0.423629006316929,-0.20695910312481716,0.0097108000678388911,0.226380703261037,0.44305060645477862,0.65972050964906115,0.87639041284388508,1.0491293879720016,1.1559709328841117,1.2628124777968139,1.3696540227101128,1.476495567624005,1.5833371125384943,1.6901786574535735,1.7970202023692536,1.9038617472855237,2.0107032922023911,2.1175448371198513,2.2243863820379075,2.3312279269565597,2.4380694718758029,2.5449110167956439,2.6517525617160778,2.7585941066371049,2.8654356515587325,2.9722771964809516,3.0791187414037644,3.0695991512272056,3.0444227566024433,3.0192463619783108,2.9940699673548057,2.9688935727319259,2.9437171781096754,2.9185407834880515,2.8933643888670484,2.8681879942466781,2.8430115996269341,2.8178352050078113,2.7926588103893235,2.7674824157714562,2.7423060211542207,2.71712962653761,2.6919532319216244,2.66677683730627,2.641600442691538,2.5259024063334286,2.3498551827612979,2.173807959189868,1.99776073561913,1.8217135120490888,1.6456662884797408,1.4696190649110952,1.293571841343145,1.1175246177758864,0.941477394209328,0.76543017064346941,0.58938294707830263,0.41333572351383219,0.23728849995006357,0.061241276386984268,-0.11480594717539301,-0.29085317073708056,-0.4669003942980664,-0.64294761785835364,-0.81899484141794554,-1.1112955883194147,-1.4534208435807425,-1.7955460988413809,-2.137671354101323,-2.4797966093605863,-2.8219218646191417,-3.164047119877015,-3.5061723751342044,-3.8482976303906882,-4.1904228856464956,-4.5325481409016035,-4.8746733961560267,-5.2167986514097509,-5.5589239066627947,-5.9010491619151351,-6.2431744171667942,-6.5852996724177624,-6.9274249276680324,-7.269550182917615,-7.6116754381665084,-8.0954589799757315,-8.6146587671498267,-9.1338585543231332,-9.65305834149564,-10.172258128667368,-10.691457915838289,-11.210657703008437,-11.729857490177773,-12.249057277346326,-12.768257064514087,-13.287456851681055,-13.806656638847224,-14.325856426012596,-14.845056213177203,-15.36425600034099,-15.883455787503994,-16.402655574666205,-16.921855361827632,-17.441055148988251,-17.960254936148086,-18.644948206148488,-19.348031378990839,-20.051114551832374,-20.75419772467307,-21.457280897512934,-22.160364070351992,-22.863447243190215,-23.566530416027586,-24.269613588864171,-24.972696761699929,-25.675779934534845,-26.378863107368915,-27.081946280202189,-27.785029453034646,-28.488112625866243,-29.191195798697049,-29.894278971526994,-30.597362144356111,-31.300445317184444,-32.003528490011895,0,0.022109497896370209,0.052125601479408708,0.097603780005810992,0.16428203486882548,0.25257112575251611,0.362538620290249,0.49410569503461338,0.64703182443784879,0.82082089374662648,0.9493834684199175,1.2490177691325364
DP 214,69.384928838287408,0.0024203419051666243,-15.67138721271602,-15.467320357236694,-15.263253501757253,-15.059186646277658,-14.855119790797934,-14.651052935318072,-14.446986079838087,-14.242919224357964,-14.038852368877709,-13.834785513397325,-13.630718657916793,-13.426651802436147,-13.222584946955367,-13.018518091474444,-12.814451235993403,-12.610384380512196,-12.406317525030886,-12.202250669549425,-11.998183814067852,-11.794116958586129,-11.591525286242655,-11.402210401585103,-11.212895516927412,-11.023580632269548,-10.834265747611539,-10.644950862953355,-10.455635978295033,-10.266321093636549,-10.077006208977913,-9.8876913243191211,-9.6983764396601728,-9.5090615550010682,-9.3197466703418073,-9.1304317856823864,-8.9411169010228129,-8.751802016363083,-8.5624871317032,-8.3731722470431613,-8.1838573623829625,-7.9945424777226188,-7.8113017916545324,-7.6523581870310409,-7.4934145824073237,-7.3344709777833881,-7.1755273731592206,-7.0165837685348373,-6.8576401639102205,-6.6986965592853807,-6.5397529546603179,-6.3808093500350322,-6.2218657454095228,-6.0629221407837877,-5.9039785361578332,-5.7450349315316531,-5.5860913269052475,-5.4271477222786135,-5.26820411765176,-5.109260513024684,-4.9503169083973839,-4.7913733037698574,-4.6458201644278283,-4.5315118659851583,-4.4172035675422521,-4.3028952690991193,-4.1885869706557513,-4.0742786722121522,-3.959970373768321,-3.8456620753242565,-3.7313537768799603,-3.6170454784354322,-3.5027371799906697,-3.3884288815456762,-3.2741205831004492,-3.1598122846549912,-3.0455039862093018,-2.9311956877633802,-2.8168873893172233,-2.7025790908708327,-2.5882707924242125,-2.47396249397736,-2.3827532360743433,-2.3261930848321444,-2.2696329335896639,-2.2130727823468983,-2.1565126311038503,-2.0999524798605163,-2.0433923286169016,-1.9868321773730027,-1.93027202612882,-1.8737118748843538,-1.8171517236396038,-1.7605915723945709,-1.7040314211492544,-1.6474712699036542,-1.5909111186577685,-1.5343509674116018,-1.4777908161651505,-1.4212306649184148,-1.3646705136713959,-1.3081103624240942,-1.3121299175381527,-1.3250499011800143,-1.3379698848215629,-1.3508898684628012,-1.3638098521037232,-1.3767298357443361,-1.3896498193846325,-1.4025698030246223,-1.415489786664293,-1.4284097703036553,-1.4413297539427037,-1.4542497375814381,-1.4671697212198631,-1.4800897048579726,-1.4930096884957695,-1.5059296721332551,-1.5188496557704276,-1.5317696394072859,-1.592357715101121,-1.6847252697822634,-1.77709282446303,-1.8694603791434277,-1.96182793382345,-2.0541954885031042,-2.1465630431823808,-2.2389305978612866,-2.3312981525398246,-2.4236657072179844,-2.51603326189577,-2.6084008165731869,-2.70076837125023,-2.7931359259268991,-2.8855034806031989,-2.9778710352791196,-3.0702385899546756,-3.1626061446298541,-3.2549736993046583,-3.3473412539790917,-3.5009802186017382,-3.6808791862714045,-3.8607781539406969,-4.04067712160962,-4.2205760892781781,-4.4004750569463491,-4.5803740246141587,-4.7602729922816005,-4.9401719599486649,-5.1200709276153615,-5.2999698952816825,-5.4798688629476393,-5.6597678306132124,-5.8396667982784249,-6.0195657659432626,-6.1994647336077255,-6.3793637012718243,-6.5592626689355429,-6.7391616365988991,-6.9190606042618823,-7.1736528480875243,-7.4469192934718054,-7.72018573885564,-7.9934521842390094,-8.2667186296219182,-8.5399850750043829,-8.8132515203863946,-9.08651796576794,-9.3597844111490236,-9.6330508565296746,-9.9063173019098461,-10.179583747289579,-10.452850192668846,-10.726116638047674,-10.99938308342602,-11.272649528803926,-11.545915974181371,-11.819182419558368,-12.092448864934907,-12.365715310310984,-12.726275853979535,-13.096536658701959,-13.466797463423898,-13.837058268145341,-14.207319072866317,-14.577579877586807,-14.94784068230679,-15.318101487026309,-15.688362291745344,-16.058623096463883,-16.428883901181948,-16.799144705899536,-17.16940551061662,-17.539666315333228,-17.909927120049364,-18.280187924764988,-18.650448729480154,-19.020709534194815,-19.390970338909018,-19.761231143622691,0,0.016855464405924649,0.035365767807265636,0.060612760651209879,0.096913028540605822,0.14463940745191348,0.2038567046870649,0.27455095635447241,0.35664637888391293,0.44993885830523506,0.51831306299600521,0.678065215103316
DP 215,122.7796826581846,0.0047617946443997954,-48.709869611410674,-47.837881222656648,-46.965892833901485,-46.093904445145142,-45.221916056387663,-44.349927667629053,-43.477939278869236,-42.605950890108225,-41.733962501346049,-40.861974112582722,-39.989985723818194,-39.117997335052529,-38.246008946285649,-37.374020557517667,-36.502032168748457,-35.6300437799781,-34.758055391206575,-33.886067002433869,-33.01407861366,-32.142090224884953,-31.276456095265665,-30.468010898689535,-29.6595657021122,-28.851120505533661,-28.042675308953925,-27.234230112372966,-26.425784915790832,-25.617339719207489,-24.808894522622932,-24.000449326037192,-23.192004129450233,-22.383558932862073,-21.575113736272719,-20.766668539682151,-19.958223343090388,-19.149778146497411,-18.341332949903261,-17.532887753307879,-16.72444255671131,-15.915997360113538,-15.133711448190788,-14.45606391129585,-13.778416374399628,-13.100768837502116,-12.423121300603308,-11.745473763703208,-11.067826226801829,-10.390178689899155,-9.7125311529951848,-9.0348836160899282,-8.3572360791833784,-7.679588542275539,-7.0019410053664091,-6.3242934684559886,-5.6466459315442723,-4.9689983946312717,-4.29135085771698,-3.6137033208013989,-2.9360557838845303,-2.258408246966368,-1.6382900065841486,-1.1524086040563128,-0.66652720152715406,-0.18064579899668248,0.30523560353510559,0.79111700606821589,1.2769984086026416,1.7628798111383883,2.2487612136754467,2.7346426162138298,3.2205240187535216,3.70640542129454,4.1922868238368718,4.6781682263805227,5.1640496289254862,5.6499310314717777,6.1358124340193791,6.6216938365683085,7.1075752391185487,7.593456641670099,7.9803347929497113,8.2187057278111428,8.4570766626739573,8.69544759753816,8.9338185324037553,9.172189467270746,9.4105604021391223,9.64893133700889,9.8873022718800474,10.125673206752595,10.364044141626541,10.60241507650186,10.840786011378583,11.079156946256697,11.317527881136185,11.555898816017097,11.794269750899366,12.032640685783027,12.2710116206681,12.509382555554541,12.482498802352067,12.424070553018211,12.365642303685792,12.307214054354819,12.248785805025292,12.190357555697187,12.131929306370546,12.073501057045322,12.015072807721543,11.95664455839921,11.898216309078315,11.83978805975886,11.781359810440833,11.722931561124245,11.664503311809096,11.606075062495416,11.547646813183142,11.489218563872329,11.227759034122107,10.830942118916219,10.434125203711881,10.037308288509076,9.6404913733078388,9.2436744581081349,8.8468575429099978,8.45004062771341,8.0532237125183723,7.6564067973248733,7.259589882132957,6.8627729669425674,6.4659560517537376,6.0691391365664655,5.67232222138072,5.2755053061965551,4.87868839101392,4.4818714758328477,4.0850545606533331,3.6882376454753651,3.0312549578333154,2.2627691403724208,1.4942833229130619,0.72579750545524691,-0.0426883120010551,-0.81117412945579093,-1.5796599469089998,-2.3481457643606998,-3.1166315818108314,-3.88511739925946,-4.6536032167065313,-5.4220890341520782,-6.1905748515960726,-6.9590606690385659,-7.7275464864794889,-8.496032303918895,-9.2645181213567689,-10.03300393879309,-10.801489756227884,-11.569975573661145,-12.654962292020674,-13.819077975141774,-14.983193658261161,-16.14730934137885,-17.311425024494838,-18.47554070760911,-19.6396563907217,-20.803772073832544,-21.967887756941703,-23.1320034400492,-24.296119123154917,-25.460234806258978,-26.624350489361291,-27.788466172461963,-28.952581855560908,-30.11669753865813,-31.280813221753618,-32.44492890484748,-33.609044587939579,-34.773160271029973,-36.3066013269673,-37.881082414253072,-39.455563501537085,-41.030044588819287,-42.604525676099769,-44.179006763378474,-45.753487850655461,-47.327968937930592,-48.902450025204054,-50.476931112475718,-52.05141219974567,-53.625893287013845,-55.200374374280265,-56.774855461544881,-58.34933654880772,-59.923817636068812,-61.498298723328332,-63.072779810585871,-64.647260897841775,-66.221741985095775,0,0.0410889393744311,0.10424817667552355,0.20427330552594872,0.3516375973593327,0.547159676459943,0.79102764241715584,1.0830618111680488,1.4226689954761182,1.8086529007223706,2.0948929328488011,2.7609063022371205
DP 216,299.04808513617024,0.001992391499458806,-36.388903698294769,-35.58762758931725,-34.786351480338645,-33.985075371358946,-33.18379926237818,-32.382523153396249,-31.5812470444133,-30.779970935429205,-29.978694826444059,-29.177418717457805,-28.376142608470456,-27.574866499482003,-26.773590390492473,-25.972314281501859,-25.171038172510137,-24.369762063517324,-23.568485954523421,-22.76720984552842,-21.965933736532353,-21.164657627535171,-20.370180893028351,-19.636899171649628,-18.903617450269852,-18.170335728888954,-17.437054007506955,-16.703772286123858,-15.97049056473969,-15.237208843354393,-14.503927121968015,-13.770645400580564,-13.037363679191994,-12.30408195780233,-11.570800236411571,-10.837518515019717,-10.104236793626766,-9.370955072232718,-8.6376733508375754,-7.9043916294413377,-7.1711099080439933,-6.4378281866455733,-5.7317860414401318,-5.1347034883902261,-4.5376209353392207,-3.9405383822871154,-3.3434558292339078,-2.7463732761795985,-2.1492907231241856,-1.5522081700676702,-0.955125617010058,-0.35804306395134078,0.23903948910847997,0.83612204216940633,1.4332045952314314,2.0302871482945588,2.6273697013587887,3.2244522544241212,3.8215348074905529,4.418617360558085,5.0156999136267153,5.6127824666964514,6.1525643367866749,6.5586428078574484,6.9647212789293347,7.3707997500023383,7.7768782210764682,8.182956692151711,8.5890351632280773,8.9951136343055591,9.4011921053841618,9.80727057646388,10.213349047544716,10.619427518626678,11.025505989709753,11.431584460793946,11.837662931879267,12.243741402965703,12.649819874053238,13.055898345141925,13.4619768162317,13.868055287322619,14.18107198844076,14.354493835490509,14.527915682541403,14.701337529593417,14.874759376646566,15.048181223700844,15.22160307075624,15.395024917812764,15.568446764870457,15.741868611929233,15.915290458989171,16.08871230605023,16.26213415311242,16.435556000175715,16.608977847240173,16.782399694305738,16.955821541372448,17.12924338844029,17.302665235509249,17.476087082579348,17.344474883524182,17.257145141557466,17.169815399591911,17.082485657627497,16.995155915664228,16.9078261737021,16.820496431741127,16.733166689781285,16.6458369478226,16.558507205865048,16.471177463908621,16.383847721953355,16.296517979999248,16.209188238046266,16.121858496094429,16.03452875414375,15.947199012194197,15.8598692702458,15.606423606755705,15.242231378628924,14.878039150503289,14.513846922378868,14.149654694255625,13.785462466133568,13.42127023801269,13.057078009893006,12.692885781774514,12.328693553657187,11.964501325541066,11.600309097426123,11.236116869312367,10.8719246411998,10.507732413088418,10.143540184978221,9.7793479568692,9.4151557287613716,9.0509635006547384,8.6867712725492865,8.1237100238771482,7.4754165096107572,6.8271229953455368,6.178829481081487,5.5305359668185883,4.882242452556885,4.2339489382963444,3.5856554240369451,2.9373619097787458,2.2890683955216962,1.6407748812658267,0.99248136701111722,0.34418785275758823,-0.30410566149479434,-0.95239917574598232,-1.6006926899960197,-2.2489862042448783,-2.8972797184925656,-3.5455732327390956,-4.1938667469844511,-5.0707824847181433,-6.0048564795473913,-6.9389304743754057,-7.8730044692021659,-8.8070784640276987,-9.7411524588519924,-10.67522645367505,-11.609300448496827,-12.543374443317408,-13.477448438136744,-14.411522432954802,-15.345596427771669,-16.279670422587238,-17.213744417401621,-18.147818412214718,-19.081892407026608,-20.01596640183724,-20.950040396646649,-21.884114391454791,-22.818188386261717,-24.009143071166669,-25.228642752840038,-26.448142434512167,-27.667642116183004,-28.887141797852607,-30.10664147952096,-31.326141161188016,-32.5456408428538,-33.765140524518387,-34.984640206181666,-36.2041398878437,-37.4236395695045,-38.643139251163987,-39.86263893282225,-41.082138614479227,-42.301638296134968,-43.521137977789451,-44.740637659442612,-45.960137341094629,-47.179637022745247,0,0.024916362007274272,0.069800673487990489,0.1446426779155767,0.25541148933558061,0.40275813880728667,0.58689222172962152,0.80768760622536051,1.0646553735472546,1.3568113488158673,1.5738225676897339,2.0773851635051455
DP 217,297.86903324461849,0.0017535713915553983,-31.941448845832085,-31.238616978776054,-30.535785111719118,-29.832953244661148,-29.130121377602247,-28.427289510542373,-27.72445764348155,-27.021625776419764,-26.318793909357019,-25.61596204229334,-24.913130175228655,-24.21029830816304,-23.507466441096458,-22.804634574028935,-22.101802706960424,-21.398970839890971,-20.696138972820542,-19.993307105749178,-19.290475238676834,-18.587643371603537,-17.890767399621076,-17.247495046440559,-16.604222693259061,-15.96095034007663,-15.31767798689323,-14.674405633708867,-14.031133280523534,-13.387860927337234,-12.744588574149988,-12.101316220961769,-11.458043867772584,-10.814771514582448,-10.171499161391333,-9.5282268081992587,-8.8849544550062358,-8.2416821018122359,-7.5984097486172821,-6.95513739542136,-6.3118650422244782,-5.6685926890266343,-5.0491860904327357,-4.525243638186307,-4.0013011859389076,-3.4773587336905409,-2.9534162814412115,-2.4294738291909104,-1.9055313769396414,-1.381588924687404,-0.85764647243420045,-0.33370402018002809,0.19023843207511432,0.71418088433122906,1.2381233365883073,1.7620657888463556,2.2860082411053719,2.8099506933653537,3.3338931456263059,3.8578355978882284,4.3817780501511061,4.9057205024149653,5.3794393868219146,5.7359683638109535,6.0924973408009828,6.4490263177919847,6.8055552947839759,7.1620842717769531,7.5186132487709028,7.8751422257658428,8.2316712027617633,8.5882001797586653,8.944729156756555,9.301258133755427,9.6577871107552831,10.01431608775612,10.370845064757944,10.727374041760747,11.083903018764525,11.440431995769298,11.796960972775048,12.153489949781783,12.428405633265861,12.580899447891534,12.733393262518197,12.885887077145862,13.038380891774517,13.190874706404172,13.343368521034817,13.495862335666434,13.648356150299062,13.80084996493269,13.953343779567296,14.10583759420291,14.258331408839494,14.41082522347709,14.563319038115669,14.715812852755247,14.868306667395821,15.020800482037384,15.173294296679929,15.325788111323481,15.21121840945613,15.134891333212373,15.058564256969611,14.98223718072787,14.905910104487118,14.829583028247376,14.753255952008647,14.676928875770896,14.600601799534182,14.524274723298458,14.447947647063742,14.37162057083003,14.295293494597331,14.218966418365619,14.142639342134927,14.066312265905246,13.98998518967656,13.913658113448873,13.691449796390593,13.371985020607632,13.052520244825732,12.73305546904486,12.413590693265013,12.094125917486227,11.774661141708492,11.455196365931773,11.135731590156123,10.816266814381494,10.496802038607926,10.177337262835389,9.8578724870638972,9.5384077112934484,9.2189429355240371,8.8994781597556756,8.580013383988339,8.2605486082220629,7.9410838324568216,7.6216190566926274,7.1273841709094814,6.5582454494629125,5.989106728017366,5.4199680065728648,4.8508292851293655,4.28169056368692,3.7125518422454951,3.1434131208050746,2.5742743993657062,2.0051356779273459,1.4359969564900248,0.86685823505372461,0.29771951361846105,-0.27141920781579487,-0.840557929249002,-1.4096966506811979,-1.9788353721123557,-2.5479740935424871,-3.1171128149715996,-3.6862515363996797,-4.4564357680365809,-5.2768837526240233,-6.09733173721039,-6.9177797217956556,-7.7382277063798428,-8.5586756909629234,-9.3791236755449336,-10.199571660125823,-11.020019644705638,-11.84046762928438,-12.660915613862011,-13.481363598438572,-14.301811583013997,-15.122259567588388,-15.942707552161638,-16.763155536733819,-17.583603521304912,-18.404051505874921,-19.224499490443829,-20.044947475011647,-21.091388881343896,-22.162943041349827,-23.234497201354664,-24.306051361358339,-25.377605521360966,-26.449159681362438,-27.520713841362845,-28.59226800136209,-29.663822161360297,-30.735376321357336,-31.80693048135327,-32.87848464134813,-33.950038801341854,-35.021592961334477,-36.09314712132597,-37.164701281316411,-38.236255441305737,-39.307809601293918,-40.379363761280992,-41.450917921266949,0,0.021905475382344421,0.061356002260804676,0.12713100462622468,0.22447931928566708,0.35397296519712429,0.51579606301201231,0.70983764899937429,0.93566819053401074,1.1924228647948774,1.3831381332207109,1.8256848804168062
DP 218,70.817871214976961,0.0026338026880440139,-17.355685217748334,-17.125787517874958,-16.895889818001418,-16.665992118127733,-16.436094418253877,-16.206196718379882,-15.976299018505708,-15.746401318631364,-15.516503618756875,-15.286605918882231,-15.056708219007412,-14.826810519132446,-14.596912819257321,-14.36701511938203,-14.137117419506581,-13.907219719630977,-13.677322019755207,-13.447424319879264,-13.217526620003197,-12.987628920126935,-12.759393478364307,-12.546118516749312,-12.332843555134138,-12.119568593518768,-11.906293631903218,-11.693018670287472,-11.47974370867156,-11.26646874705545,-11.053193785439166,-10.8399188238227,-10.626643862206036,-10.4133689005892,-10.200093938972167,-9.9868189773549574,-9.7735440157375653,-9.5602690541199884,-9.346994092502225,-9.13371913088427,-8.9204441692661476,-8.7071692076478282,-8.5007374773127466,-8.3216789955317516,-8.1426205137505,-7.9635620319689826,-7.7845035501872131,-7.6054450684051877,-7.426386586622904,-7.2473281048403653,-7.068269623057561,-6.8892111412745054,-6.710152659491178,-6.5310941777076019,-6.3520356959237754,-6.1729772141396833,-5.9939187323553345,-5.8148602505707245,-5.6358017687858624,-5.4567432870007391,-5.2776848052153618,-5.0986263234297224,-4.9346555358904265,-4.8058898436345627,-4.6771241513784307,-4.5483584591220323,-4.4195927668653656,-4.290827074608436,-4.1620613823512338,-4.0332956900937669,-3.9045299978360339,-3.7757643055780306,-3.64699861331976,-3.5182329210612227,-3.3894672288024212,-3.2607015365433503,-3.1319358442840111,-3.0031701520244076,-2.8744044597645333,-2.7456387675043916,-2.6168730752439857,-2.4881073829833085,-2.3853684121543393,-2.3216701385009606,-2.2579718648472626,-2.1942735911932396,-2.1305753175388955,-2.0668770438842285,-2.0031787702292396,-1.9394804965739258,-1.8757822229182932,-1.8120839492623351,-1.7483856756060565,-1.6846874019494555,-1.6209891282925302,-1.5572908546352848,-1.4935925809777149,-1.4298943073198243,-1.3661960336616092,-1.302497760003072,-1.2387994863442131,-1.1751012126850318,-1.1797103239574087,-1.1942937711836825,-1.2088772184096026,-1.2234606656351719,-1.238044112860383,-1.2526275600852417,-1.2672110073097447,-1.281794454533898,-1.2963779017576942,-1.3109613489811383,-1.3255447962042264,-1.3401282434269601,-1.3547116906493424,-1.3692951378713705,-1.3838785850930422,-1.3984620323143615,-1.4130454795353269,-1.4276289267559361,-1.4959180056556465,-1.6000116850710662,-1.7041053644860633,-1.808199043900645,-1.9122927233148066,-2.0163864027285516,-2.1204800821418734,-2.2245737615547791,-2.3286674409672656,-2.4327611203793307,-2.5368547997909747,-2.6409484792022044,-2.7450421586130127,-2.8491358380234,-2.9532295174333716,-3.0573231968429191,-3.1614168762520558,-3.2655105556607684,-3.3696042350690583,-3.4736979144769298,-3.6468234259497123,-3.8495349404522665,-4.0522464549543988,-4.2549579694561093,-4.4576694839574111,-4.6603809984582849,-4.8630925129587457,-5.0658040274587961,-5.2685155419584166,-5.4712270564576286,-5.673938570956425,-5.8766500854547967,-6.0793615999527466,-6.2820731144502915,-6.48478462894741,-6.6874961434441138,-6.8902076579403984,-7.0929191724362628,-7.2956306869317187,-7.4983422014267518,-7.7852058990733131,-8.093108636784871,-8.4010113744959085,-8.7089141122064344,-9.0168168499164647,-9.3247195876259816,-9.632622325334987,-9.9405250630434772,-10.248427800751459,-10.556330538458946,-10.864233276165908,-11.172136013872366,-11.480038751578315,-11.78794148928375,-12.095844226988676,-12.403746964693097,-12.711649702397018,-13.019552440100421,-13.327455177803303,-13.635357915505692,-14.041607099683009,-14.458784699677532,-14.875962299671508,-15.293139899664906,-15.710317499657823,-16.127495099650179,-16.544672699641986,-16.961850299633252,-17.379027899623978,-17.796205499614182,-18.213383099603824,-18.630560699592948,-19.047738299581511,-19.464915899569537,-19.882093499557016,-20.299271099543965,-20.716448699530378,-21.133626299516216,-21.550803899501553,-21.967981499486321,0,0.018427354677948992,0.038975635897966585,0.067263702688953819,0.10802753227691687,0.16166673961661088,0.22824804722770836,0.30775089142361445,0.40008305173743092,0.505007852655599,0.58198818088268389,0.76182187319776662
DP 219,151.734187950493,0.0015376623164203474,-18.193255629221092,-17.845860908738668,-17.498466188255723,-17.151071467772287,-16.803676747288357,-16.45628202680394,-16.10888730631898,-15.761492585833571,-15.414097865347639,-15.066703144861213,-14.71930842437429,-14.37191370388687,-14.024518983398949,-13.677124262910517,-13.329729542421594,-12.982334821932167,-12.634940101442247,-12.28754538095183,-11.940150660460906,-11.592755939969487,-11.24792304046148,-10.926146771962504,-10.604370503463022,-10.282594234963032,-9.96081796646253,-9.6390416979615274,-9.3172654294600186,-8.9954891609579981,-8.6737128924554732,-8.3519366239524313,-8.0301603554488921,-7.7083840869448421,-7.3866078184402832,-7.0648315499352137,-6.7430552814296432,-6.4212790129235637,-6.0995027444169772,-5.7777264759098772,-5.4559502074022772,-5.1341739388941656,-4.8229222934470419,-4.5537696376537289,-4.2846169818598856,-4.0154643260655121,-3.7463116702706114,-3.47715901447518,-3.2080063586792158,-2.9388537028827244,-2.6697010470857006,-2.4005483912881478,-2.1313957354900652,-1.8622430796914513,-1.5930904238923072,-1.3239377680926341,-1.0547851122924305,-0.78563245649169666,-0.51647980069043309,-0.24732714488864097,0.021825510913680152,0.29097816671653265,0.53706556533145688,0.72933330377945471,0.92160104222799522,1.1138687806770737,1.306136519126692,1.498404257576851,1.6906719960275527,1.8829397344787915,2.0752074729305696,2.2674752113828904,2.4597429498357473,2.6520106882891477,2.8442784267430854,3.0365461651975645,3.2288139036525836,3.4210816421081462,3.6133493805642463,3.8056171190208854,3.997884857478065,4.1901525959357846,4.3428975005175534,4.43635722033549,4.52981694015399,4.6232766599730493,4.7167363797926631,4.810196099612841,4.9036558194335758,4.9971155392548718,5.0905752590767293,5.1840349788991471,5.2774946987221227,5.3709544185456579,5.464414138369758,5.5578738581944078,5.651333578019619,5.7447932978453942,5.8382530176717227,5.9317127374986205,6.025172457326077,6.118632177154085,6.1042576349986621,6.0798156512869763,6.0553736675758643,6.0309316838653269,6.0064897001553605,5.9820477164459707,5.95760573273716,5.9331637490289157,5.9087217653212454,5.8842797816141514,5.8598377979076348,5.8353958142016893,5.8109538304963229,5.7865118467915231,5.7620698630873006,5.7376278793836537,5.7131858956805814,5.6887439119780812,5.5840438614225247,5.4258371686025386,5.2676304757831742,5.1094237829644049,4.9512170901462529,4.7930103973287066,4.6348037045117705,4.4765970116954454,4.3183903188797252,4.1601836260646152,4.0019769332501252,3.8437702404362346,3.6855635476229569,3.5273568548102938,3.3691501619982325,3.2109434691867831,3.052736776375939,2.8945300835657117,2.7363233907560929,2.5781166979470855,2.3175309106610014,2.0130669861622716,1.7086030616641439,1.4041391371666223,1.0996752126696934,0.79521128817337927,0.49074736367766442,0.18628343918254078,-0.1181804853119673,-0.42264440980588375,-0.72710833429919086,-1.0315722587918992,-1.3360361832840002,-1.6405001077755086,-1.9449640322664048,-2.2494279567567039,-2.5538918812463982,-2.8583558057354872,-3.1628197302239816,-3.4672836547118711,-3.8958535884272218,-4.3554514907901227,-4.81504939315237,-5.2746472955139545,-5.7342451978748858,-6.1938431002351635,-6.6534410025947812,-7.1130389049537355,-7.5726368073120334,-8.0322347096696873,-8.4918326120266645,-8.9514305143829915,-9.41102841673865,-9.87062631909367,-10.330224221448022,-10.789822123801729,-11.249420026154759,-11.709017928507155,-12.168615830858863,-12.628213733209936,-13.2322939333655,-13.852429239579678,-14.47256454579318,-15.09269985200601,-15.71283515821816,-16.332970464429643,-16.953105770640441,-17.573241076850543,-18.193376383060016,-18.813511689268786,-19.433646995476888,-20.053782301684343,-20.673917607891092,-21.294052914097179,-21.91418822030257,-22.534323526507318,-23.154458832711381,-23.774594138914747,-24.394729445117495,-25.014864751319482,0,0.014699222819134437,0.038840465488088255,0.077881418557922785,0.13550461044232312,0.21203113006095908,0.30754772835583677,0.4219855433320423,0.555102970174373,0.70641391791936625,0.818719723572005,1.079772787073795
DP 220,137.74988931678917,0.0057086736230454139,-63.298712205571988,-62.122612753523157,-60.946513301472656,-59.770413849420443,-58.5943143973667,-57.418214945311234,-56.242115493254111,-55.06601604119534,-53.889916589134948,-52.713817137072894,-51.537717685009191,-50.361618232943854,-49.185518780876833,-48.009419328808185,-46.833319876737917,-45.657220424665987,-44.481120972592379,-43.305021520517151,-42.128922068440275,-40.952822616361729,-39.785339823987762,-38.695407783451977,-37.605475742914471,-36.515543702375325,-35.425611661834466,-34.335679621291916,-33.245747580747711,-32.1558155402018,-31.065883499654227,-29.975951459104984,-28.886019418554007,-27.796087378001378,-26.706155337447072,-25.616223296891082,-24.526291256333408,-23.436359215774043,-22.346427175213019,-21.256495134650304,-20.166563094085884,-19.0766310535198,-18.022137722104794,-17.109400902181754,-16.196664082256966,-15.283927262330375,-14.371190442402009,-13.458453622471886,-12.545716802539966,-11.6329799826063,-10.72024316267083,-9.807506342733598,-8.8947695227945847,-7.9820327028537914,-7.0692958829112316,-6.1565590629668945,-5.2438222430207748,-4.33108542307288,-3.4183486031232171,-2.5056117831717781,-1.5928749632185677,-0.680138143263579,0.15478304361854733,0.80813196822183586,1.4614808928269438,2.1148298174338578,2.7681787420425805,3.4215276666531174,4.074876591265463,4.7282255158796191,5.38157444049559,6.0349233651133671,6.6882722897329518,7.3416212143543484,7.994970138977564,8.6483190636025853,9.3016679882294149,9.9550169128580652,10.60836583748852,11.261714762120787,11.915063686754856,12.568412611390743,13.088100190136442,13.407292591543577,13.726484992952606,14.045677394363517,14.364869795776332,14.684062197191036,15.003254598607613,15.322447000026077,15.641639401446447,15.960831802868716,16.280024204292847,16.599216605718887,16.91840900714681,17.23760140857663,17.55679381000834,17.875986211441941,18.195178612877413,18.514371014314793,18.833563415754071,19.152755817195246,19.110819656010321,19.030205955446061,18.949592254883765,18.868978554323405,18.788364853764975,18.707751153208509,18.627137452654011,18.546523752101425,18.465910051550807,18.385296351002129,18.304682650455383,18.2240689499106,18.143455249367747,18.062841548826871,17.982227848287913,17.9016141477509,17.821000447215869,17.740386746682763,17.386872254894939,16.851419603070482,16.3159669512481,15.780514299427802,15.245061647609589,14.709608995793424,14.174156343979366,13.638703692167377,13.103251040357481,12.567798388549647,12.032345736743915,11.496893084940229,10.961440433138636,10.425987781339144,9.8905351295417,9.3550824777463575,8.81962982595307,8.28417717416188,7.748724522372771,7.2132718705857455,6.3288263844571233,5.2948078282629316,4.2607892720707952,3.2267707158807224,2.1927521596926769,1.1587336035067308,0.12471504732282708,-0.90930350885905753,-1.9433220650388414,-2.9773406212166078,-4.011359177392297,-5.0453777335659407,-6.0793962897375078,-7.1134148459070605,-8.1474334020745118,-9.1814519582399363,-10.215470514403293,-11.249489070564596,-12.283507626723846,-13.317526182881041,-14.775437814236572,-16.339327722784628,-17.903217631330428,-19.467107539873965,-21.030997448415249,-22.594887356954278,-24.15877726549105,-25.722667174025531,-27.286557082557771,-28.850446991087782,-30.414336899615471,-31.978226808140938,-33.542116716664111,-35.106006625185074,-36.669896533703756,-38.233786442220151,-39.797676350734307,-41.361566259246239,-42.925456167755875,-44.489346076263246,-46.547366777927969,-48.660296090623333,-50.773225403316474,-52.886154716007226,-54.999084028695641,-57.112013341381747,-59.224942654065558,-61.33787196674696,-63.450801279426116,-65.5637305921029,-67.676659904777367,-69.789589217449574,-71.90251853011938,-74.015447842786955,-76.128377155452085,-78.241306468115013,-80.354235780775554,-82.467165093433749,-84.580094406089714,-86.693023718743177,0,0.052077508144689984,0.13533951427935015,0.26886546892895635,0.46580515277099888,0.72725008649435019,1.0534773833291651,1.4442492871826798,1.8987530774985024,2.4153520574531813,2.7986608359930676,3.6900218260537332
DP 221,117.92062149378143,0.00506554551725832,-50.32279319341211,-49.434908682790109,-48.5470241721671,-47.659139661542824,-46.771255150917341,-45.883370640290764,-44.995486129662986,-44.10760161903405,-43.21971710840392,-42.331832597772618,-41.4439480871402,-40.55606357650656,-39.668179065871776,-38.78029455523582,-37.89241004459867,-37.00452553396039,-36.116641023320852,-35.228756512680256,-34.340872002038466,-33.452987491395483,-32.571564181932558,-31.748292293840461,-30.925020405747137,-30.101748517652634,-29.278476629556909,-28.455204741459941,-27.631932853361796,-26.808660965262465,-25.985389077161912,-25.162117189060183,-24.338845300957193,-23.515573412853048,-22.69230152474767,-21.869029636641109,-21.04575774853333,-20.222485860424364,-19.399213972314168,-18.575942084202769,-17.752670196090193,-16.929398307976406,-16.132731428799048,-15.442485842760851,-14.752240256721334,-14.061994670680534,-13.371749084638425,-12.681503498595019,-11.991257912550306,-11.301012326504281,-10.610766740456963,-9.9205211544083483,-9.2302755683584259,-8.54002998230719,-7.8497843962546563,-7.1595388102008322,-6.4692932241456989,-5.77904763808926,-5.0888020520315216,-4.39855646597248,-3.7083108799121445,-3.0180652938505017,-2.3863536203706182,-1.89122292050495,-1.3960922206379427,-0.90096152076960934,-0.40583082089994826,0.089299878971045979,0.58443057884337046,1.0795612787170259,1.5746919785920104,2.0698226784683258,2.5649533783459693,3.060084078224941,3.5552147781052552,4.0503454779868893,4.5454761778698591,5.0406068777541577,5.5357375776397886,6.03086827752675,6.5259989774150391,7.0211296773046579,7.41548060498574,7.6586594928634311,7.9018383807425279,8.14501726862304,8.3881961565049572,8.6313750443882835,8.8745539322730256,9.1177328201591745,9.3609117080467374,9.6040905959357072,9.847269483826091,10.090448371717871,10.333627259611076,10.576806147505678,10.819985035401698,11.063163923299129,11.306342811197979,11.549521699098214,11.792700586999874,12.035879474902938,12.009664971337319,11.950542820854039,11.89142067037225,11.832298519891923,11.773176369413058,11.71405421893564,11.654932068459694,11.595809917985212,11.536687767512189,11.477565617040625,11.418443466570537,11.359321316101907,11.30019916563473,11.241077015169028,11.181954864704778,11.122832714241996,11.063710563780687,11.004588413320832,10.738559134775992,10.334588511286098,9.9306178877977853,9.5266472643110465,9.122676640825901,8.71870601734232,8.3147353938603388,7.9107647703799389,7.5067941469011172,7.1028235234238775,6.69885289994823,6.294882276474155,5.8909116530016634,5.4869410295307643,5.0829704060614338,4.6789997825937029,4.2750291591275342,3.87105853566296,3.467087912199974,3.0631172887385683,2.3938722031160995,1.610934480250003,0.82799675738546685,0.04505903452250716,-0.73787868833890624,-1.5208164111987246,-2.3037541340569803,-3.0866918569136996,-3.8696295797688189,-4.6525673026224013,-5.4355050254743995,-6.21844274832484,-7.0013804711736931,-7.7843181940210133,-8.5672559168667348,-9.3501936397109127,-10.133131362553517,-10.916069085394545,-11.69900680823401,-12.481944531071916,-13.587723326187472,-14.774216203812982,-15.960709081436752,-17.147201959058787,-18.333694836679062,-19.5201877142976,-20.706680591914395,-21.893173469529419,-23.079666347142719,-24.266159224754311,-25.452652102364059,-26.639144979972141,-27.825637857578389,-29.012130735183007,-30.19862361278582,-31.385116490386874,-32.571609367986191,-33.758102245583757,-34.944595123179582,-36.13108800077368,-37.694405485811686,-39.299596329246739,-40.904787172680024,-42.509978016111475,-44.115168859541164,-45.720359702969,-47.325550546395064,-48.930741389819254,-50.535932233241731,-52.141123076662375,-53.746313920081185,-55.351504763498248,-56.956695606913492,-58.561886450326945,-60.167077293738537,-61.772268137148288,-63.377458980556391,-64.98264982396249,-66.587840667366976,-68.193031510769544,0,0.042878238805952547,0.10774526143449958,0.20993906575701957,0.36042447144123141,0.56004142409587587,0.80897475635704474,1.1070406151723018,1.4536401071141947,1.8475633329075891,2.1396190126842858,2.819315880473912
DP 222,140.26366373294772,0.0018490884608601071,-20.757254839081465,-20.3695109328459,-19.981767026609795,-19.594023120373123,-19.206279214135922,-18.818535307898191,-18.430791401659867,-18.043047495421042,-17.655303589181649,-17.267559682941723,-16.879815776701232,-16.492071870460212,-16.104327964218641,-15.716584057976522,-15.328840151733861,-14.94109624549065,-14.5533523392469,-14.165608433002598,-13.777864526757751,-13.390120620512363,-13.00522048883335,-12.64591459706198,-12.286608705290067,-11.927302813517585,-11.567996921744548,-11.208691029970963,-10.849385138196807,-10.490079246422102,-10.130773354646834,-9.771467462871021,-9.4121615710946376,-9.0528556793177053,-8.69354978754021,-8.3342438957621621,-7.97493800398356,-7.6156321122043913,-7.2563262204246755,-6.8970203286444,-6.53771443686356,-6.1784085450821724,-5.8307967219202927,-5.5299617259160883,-5.2291267299112976,-4.9282917339059207,-4.6274567378999585,-4.3266217418934065,-4.0257867458862684,-3.7249517498785463,-3.424116753870234,-3.1232817578613363,-2.8224467618518534,-2.5216117658417794,-2.2207767698311214,-1.919941773819875,-1.6191067778080415,-1.3182717817956229,-1.0174367857826165,-0.71660178976902478,-0.4157667937548476,-0.11493179774008234,0.16023389227365603,0.37550372617619232,0.59077356007933024,0.80604339398306313,1.0213132278873953,1.2365830617923272,1.4518528956978562,1.6671227296039857,1.8823925635107097,2.0976623974180355,2.3129322313259566,2.5282020652344772,2.7434718991435956,2.9587417330533148,3.1740115669636291,3.3892814008745424,3.6045512347860567,3.8198210686981664,4.0350909026108779,4.2503607365241827,4.42155652314196,4.5266401973184438,4.6317238714955566,4.7368075456732956,4.8418912198516582,4.9469748940306415,5.0520585682102483,5.15714224239048,5.2622259165713379,5.3673095907528143,5.4723932649349178,5.5774769391176431,5.6825606133009954,5.7876442874849623,5.8927279616695643,5.99781163585478,6.10289531004063,6.2079789842270969,6.3130626584141876,6.4181463326019008,6.4039557943606029,6.3772625951127111,6.3505693958654543,6.3238761966188459,6.2971829973728743,6.270489798127544,6.2437965988828692,6.2171033996388161,6.1904102003954158,6.16371700115265,6.1370238019105292,6.1103306026690563,6.0836374034282183,6.0569442041880324,6.0302510049484734,6.00355780570956,5.9768646064712909,5.9501714072336576,5.8335701057889722,5.6570286531533132,5.48048720051834,5.3039457478840557,5.1274042952504475,4.9508628426175241,4.7743213899852917,4.597779937353744,4.4212384847228741,4.2446970320926933,4.0681555794632018,3.891614126834388,3.7150726742062612,3.5385312215788214,3.3619897689520615,3.1854483163259917,3.0089068637006005,2.8323654110758976,2.6558239584518808,2.4792825058285488,2.1878093594651951,1.8470782209915919,1.5063470825186638,1.165615944046416,0.82488480557483568,0.48415366710394747,0.14342252863373059,-0.1973086098358213,-0.53803974830468171,-0.878770886772878,-1.2195020252403888,-1.560233163707228,-1.9009643021733826,-2.2416954406388743,-2.5824265791036756,-2.923157717567809,-3.2638888560312593,-3.6046199944940316,-3.9453511329561337,-4.2860822714175546,-4.7663660522552433,-5.2815396425331516,-5.7967132328103244,-6.3118868230867458,-6.8270604133624326,-7.3422340036373761,-7.8574075939115806,-8.3725811841850248,-8.8877547744577345,-9.4029283647297088,-9.9181019550009282,-10.433275545271416,-10.948449135541141,-11.463622725810147,-11.978796316078395,-12.49396990634591,-13.009143496612669,-13.524317086878707,-14.039490677143972,-14.55466426740853,-15.232480192681058,-15.928369196648017,-16.624258200614268,-17.320147204579694,-18.016036208544389,-18.7119252125083,-19.407814216471444,-20.10370322043384,-20.799592224395457,-21.495481228356333,-22.191370232316412,-22.887259236275781,-23.583148240234337,-24.279037244192157,-24.974926248149202,-25.670815252105502,-26.366704256060995,-27.062593260015735,-27.758482263969761,-28.454371267922948,0,0.017017153434693809,0.0443723575028607,0.088316119433650836,0.15313897557527667,0.23920044894962031,0.34659299370929564,0.47523849667838686,0.624868548942272,0.79494281757296348,0.92114379442917427,1.2145927020279776
DP 223,83.75200489756773,0.0050711860149883457,-38.521425858741111,-37.9456300513501,-37.369834243958536,-36.794038436566424,-36.218242629173723,-35.642446821780482,-35.066651014386636,-34.490855206992258,-33.915059399597325,-33.339263592201789,-32.763467784805712,-32.187671977409067,-31.611876170011872,-31.036080362614083,-30.460284555215715,-29.884488747816828,-29.308692940417348,-28.73289713301731,-28.157101325616715,-27.581305518215533,-27.009676177624097,-26.475545432157215,-25.941414686689711,-25.407283941221642,-24.873153195752927,-24.339022450283615,-23.804891704813688,-23.270760959343146,-22.736630213872008,-22.202499468400248,-21.6683687229279,-21.134237977454923,-20.600107231981344,-20.065976486507139,-19.531845741032338,-18.997714995556944,-18.463584250080924,-17.929453504604297,-17.395322759127058,-16.861192013649205,-16.344223475412264,-15.895904577250398,-15.447585679087791,-14.999266780924447,-14.55094788276036,-14.102628984595553,-13.65431008643,-13.205991188263711,-12.757672290096684,-12.309353391928919,-11.861034493760412,-11.412715595591159,-10.964396697421181,-10.516077799250462,-10.067758901079005,-9.6194400029068134,-9.1711211047338743,-8.7228022065602069,-8.2744833083858,-7.8261644102106542,-7.4156698576209861,-7.0934333031475392,-6.7711967486733231,-6.448960194198361,-6.1267236397226315,-5.8044870852461479,-5.4822505307689022,-5.1600139762908963,-4.8377774218121337,-4.5155408673326125,-4.19330431285233,-3.8710677583712929,-3.5488312038894927,-3.2265946494069335,-2.9043580949236159,-2.5821215404395383,-2.2598849859547014,-1.9376484314691025,-1.6154118769827486,-1.2931753224956375,-1.0361811275116781,-0.87705201350111994,-0.717922899489712,-0.55879378547744041,-0.39966467146431189,-0.24053555745032665,-0.081406443435484144,0.07772267058021691,0.23685178459677275,0.39598089861418961,0.55511001263246118,0.71423912665159162,0.873368240671582,1.032497354692423,1.1916264687141287,1.3507555827366886,1.5098846967601047,1.6690138107843837,1.8281429248095178,1.9872720388355058,1.9742483457025024,1.9372126748099172,1.9001770039182471,1.8631413330274995,1.8261056621376643,1.7890699912487442,1.7520343203607449,1.7149986494736535,1.6779629785874859,1.6409273077022277,1.6038916368178888,1.5668559659344712,1.5298202950519608,1.4927846241703708,1.4557489532896979,1.4187132824099382,1.3816776115310967,1.3446419406531718,1.1730504982206624,0.91175308833240143,0.65045567844518359,0.3891582685589986,0.12786085867385516,-0.13343655121025305,-0.39473396109331133,-0.65603137097533371,-0.91732878085632286,-1.1786261907362661,-1.4399236006151612,-1.7012210104930265,-1.9625184203698514,-2.2238158302456275,-2.4851132401203726,-2.7464106499940732,-3.0077080598667427,-3.2690054697383646,-3.53030287960894,-3.7916002894784815,-4.2257856311319264,-4.7340681352184877,-5.2423506393040178,-5.7506331433885105,-6.25891564747198,-6.7671981515544051,-7.2754806556357909,-7.7837631597161643,-8.29204566379548,-8.8003281678737846,-9.308610671951044,-9.816893176027282,-10.32517568010247,-10.833458184176639,-11.341740688249764,-11.850023192321864,-12.358305696392922,-12.866588200462942,-13.374870704531938,-13.883153208599897,-14.602164318519158,-15.373860069707499,-16.145555820894614,-16.91725157208052,-17.688947323265225,-18.460643074448711,-19.232338825631004,-20.004034576812071,-20.7757303279919,-21.547426079170585,-22.31912183034801,-23.090817581524245,-23.86251333269924,-24.634209083873049,-25.405904835045657,-26.177600586217011,-26.949296337387171,-27.720992088556152,-28.492687839723889,-29.264383590890418,-30.282315106135876,-31.327608736794538,-32.372902367451971,-33.418195998108111,-34.463489628762964,-35.5087832594166,-36.554076890068892,-37.599370520719908,-38.644664151369739,-39.68995778201824,-40.735251412665463,-41.780545043311449,-42.825838673956142,-43.871132304599584,-44.916425935241726,-45.961719565882625,-47.007013196522266,-48.0523068271606,-49.097600457797711,-50.142894088433486,0,0.037225789897411821,0.0840152039146925,0.15261138129966142,0.25270276276376541,0.38500124415835196,0.5496108724058506,0.74642629705963093,0.97512459714222965,1.2350133932287148,1.4268153753931843,1.8742749478442213
DP 224,92.714247965368017,0.0020359388059965448,-16.809209463663979,-16.542735463365307,-16.276261463066348,-16.009787462767079,-15.743313462467531,-15.476839462167694,-15.210365461867541,-14.943891461567087,-14.677417461266367,-14.410943460965338,-14.144469460664006,-13.87799546036239,-13.611521460060473,-13.345047459758256,-13.078573459455756,-12.812099459152945,-12.545625458849845,-12.279151458546455,-12.012677458242768,-11.74620345793878,-11.481659606553134,-11.234487277880918,-10.9873149492084,-10.740142620535572,-10.492970291862418,-10.245797963188956,-9.9986256345151787,-9.7514533058410944,-9.5042809771667009,-9.257108648491986,-9.0099363198169637,-8.762763991141636,-8.51559166246598,-8.2684193337900282,-8.02124700511376,-7.7740746764371762,-7.5269023477602808,-7.2797300190830736,-7.0325576904055511,-6.7853853617277231,-6.5461633128780656,-6.3387427590833285,-6.1313222052882272,-5.9239016514927636,-5.7164810976969411,-5.509060543900766,-5.3016399901042188,-5.0942194363073146,-4.8867988825100541,-4.67937832871243,-4.4719577749144426,-4.2645372211160986,-4.0571166673173948,-3.8496961135183287,-3.6422755597189043,-3.4348550059191161,-3.2274344521189713,-3.0200138983184659,-2.8125933445176,-2.6051727907163729,-2.4152693880494418,-2.2662398899506591,-2.1172103918515064,-1.9681808937519836,-1.8191513956520906,-1.6701218975518302,-1.5210923994511976,-1.3720629013501959,-1.2230334032488237,-1.0740039051470833,-0.9249744070449738,-0.77594490894249424,-0.62691541083964331,-0.47788591273642328,-0.32885641463283394,-0.17982691652887381,-0.030797418424544507,0.11823207968015556,0.26726157778522347,0.41629107589066205,0.53511249308003517,0.60862107505902729,0.6821296570384271,0.75563823901823512,0.82914682099844972,0.90265540297907043,0.97616398496009915,1.0496725669415365,1.1231811489233763,1.1966897309056277,1.270198312888283,1.3437068948713475,1.4172154768548189,1.4907240588386983,1.5642326408229825,1.6377412228076758,1.7112498047927738,1.7847583867782817,1.8582669687641966,1.9317755507505179,1.925322552302122,1.9080394648909589,1.8907563774802256,1.8734732900699209,1.8561902026600505,1.8389071152506054,1.8216240278415954,1.8043409404330091,1.7870578530248578,1.769774765617133,1.7524916782098405,1.7352085908029786,1.717925503396545,1.7006424159905418,1.6833593285849702,1.666076241179826,1.6487931537751137,1.6315100663708313,1.5519700355877211,1.4309243951075163,1.3098787546277921,1.1888331141485431,1.0677874736697768,0.9467418331914853,0.82569619271367845,0.704650552236349,0.58360491175949525,0.46255927128312374,0.34151363080723568,0.22046799033182141,0.099422349856887984,-0.021623290617563025,-0.14266893109153911,-0.2637145715650332,-0.3847602120380515,-0.50580585251058685,-0.62685149298264209,-0.7478971334542186,-0.94890678840036691,-1.1841878150275209,-1.4194688416542018,-1.6547498682804038,-1.8900308949061344,-2.1253119215313845,-2.3605929481561576,-2.5958739747804644,-2.8311550014042872,-3.06643602802764,-3.3017170546505143,-3.5369980812729143,-3.7722791078948328,-4.0075601345162868,-4.2428411611372558,-4.4781221877577515,-4.7134032143777755,-4.9486842409973173,-5.1839652676163865,-5.4192462942349815,-5.7519722028153737,-6.1090604832196007,-6.4661487636232762,-6.8232370440264063,-7.1803253244289831,-7.5374136048310261,-7.8945018852325219,-8.2515901656334574,-8.60867844603385,-8.9657667264337029,-9.3228550068329916,-9.6799432872317528,-10.037031567629946,-10.394119848027611,-10.751208128424722,-11.108296408821282,-11.465384689217293,-11.822472969612765,-12.179561250007684,-12.536649530402061,-13.007581387319302,-13.491163726149779,-13.974746064979712,-14.458328403809041,-14.941910742637829,-15.425493081466028,-15.909075420293659,-16.392657759120702,-16.876240097947203,-17.359822436773104,-17.843404775598461,-18.32698711442325,-18.810569453247432,-19.29415179207108,-19.777734130894139,-20.261316469716636,-20.744898808538569,-21.228481147359897,-21.712063486180707,-22.195645825000884,0,0.015510336850412393,0.036303935580056346,0.067650460783757568,0.11357899784631753,0.17437802988312176,0.2500936796934034,0.34067230887290417,0.44595070918174379,0.56559074700837186,0.65406651910001068,0.86030597377818574
DP 225,297.28314396128559,0.004370503140353023,-79.502966719104478,-77.754240296496647,-76.005513873886514,-74.256787451273922,-72.508061028658986,-70.75933460604162,-69.010608183421908,-67.2618817607998,-65.513155338175224,-63.764428915548322,-62.015702492919033,-60.266976070287356,-58.518249647653278,-56.769523225016805,-55.020796802377994,-53.272070379736761,-51.52334395709309,-49.774617534447067,-48.025891111798721,-46.277164689147909,-44.54324674680349,-42.942606526997,-41.34196630718813,-39.741326087376855,-38.140685867563171,-36.5400456477471,-34.939405427928612,-33.338765208107752,-31.738124988284497,-30.137484768458805,-28.536844548630786,-26.93620432880029,-25.335564108967446,-23.734923889132187,-22.13428366929455,-20.533643449454487,-18.933003229612044,-17.3323630097672,-15.731722789919962,-14.131082570070319,-12.589789933986157,-11.285890437820514,-9.9819909416524553,-8.67809144548199,-7.374191949309119,-6.0702924531338365,-4.7663929569561381,-3.4624934607760296,-2.1585939645935168,-0.85469446840859187,0.44920502777875077,1.7531045239685108,3.0570040201606745,4.36090351635525,5.6648030125522384,6.9687025087516341,8.272602004953443,9.57650150115766,10.88040099736428,12.184300493573312,13.36328271259328,14.250787349009155,15.138291985427486,16.02579662184824,16.913301258271449,17.800805894697096,18.688310531125229,19.575815167555778,20.463319803988785,21.35082444042424,22.238329076862112,23.125833713302473,24.013338349745272,24.900842986190519,25.788347622638192,26.675852259088359,27.563356895540917,28.450861531995947,29.338366168453447,30.225870804913377,30.91033319350559,31.290227412277911,31.670121631052684,32.05001584982994,32.429910068609637,32.809804287391856,33.189698506176491,33.569592724963634,33.949486943753236,34.329381162545353,34.709275381339907,35.089169600136927,35.469063818936391,35.8489580377384,36.228852256542815,36.608746475349754,36.988640694159145,37.368534912971029,37.74842913178535,38.128323350602173,37.844335737439891,37.654760771874386,37.465185806311354,37.275610840750844,37.086035875192842,36.896460909637334,36.706885944084362,36.517310978533864,36.327736012985895,36.138161047440377,35.948586081897417,35.759011116356952,35.569436150818944,35.379861185283474,35.190286219750512,35.000711254220036,34.811136288692069,34.62156132316661,34.068802958605417,33.273916606533987,32.479030254465172,31.684143902398933,30.88925755033528,30.09437119827421,29.29948484621579,28.504598494159932,27.709712142106671,26.914825790055986,26.119939438007954,25.32505308596247,24.530166733919589,23.735280381879317,22.94039402984162,22.145507677806535,21.350621325774039,20.555734973744126,19.760848621716846,18.965962269692156,17.735813591508407,16.319118039001829,14.902422486497796,13.485726933996357,12.069031381497412,10.652335829001101,9.23564027650733,7.8189447240160579,6.4022491715274041,4.9855536190412693,3.5688580665577185,2.1521625140767076,0.73546696159827751,-0.68122859087763943,-2.0979241433509448,-3.5146196958217315,-4.9313152482899385,-6.3480108007555822,-7.7647063532186928,-9.1814019056792251,-11.09895466681284,-13.141727647856337,-15.184500628897139,-17.2272736099352,-19.270046590970566,-21.312819572003225,-23.355592553033155,-25.398365534060332,-27.441138515084837,-29.483911496106639,-31.526684477125663,-33.569457458142054,-35.6122304391556,-37.655003420166587,-39.697776401174728,-41.740549382180234,-43.783322363183,-45.826095344183067,-47.868868325180372,-49.911641306175007,-52.517545015307647,-55.186024719579372,-57.854504423848404,-60.522984128114516,-63.191463832378076,-65.859943536638724,-68.5284232408967,-71.196902945151834,-73.865382649404353,-76.533862353653916,-79.202342057900822,-81.870821762145027,-84.539301466386348,-87.207781170625,-89.8762608748608,-92.544740579093954,-95.2132202833243,-97.881699987551855,-100.55017969177672,-103.21865939599864,0,0.054565744036341353,0.15282311023083661,0.31663740254741579,0.55908455160092074,0.88158899626260079,1.2846092493605548,1.7678688209989115,2.3302981465825474,2.9697434375514686,3.4447177062833312,4.546879178778636
DP 226,108.84846975911995,0.0014652432224452434,-13.714591152926008,-13.480094006797467,-13.245596860668643,-13.01109971453951,-12.776602568410087,-12.542105422280363,-12.30760827615034,-12.073111130020042,-11.838613983889433,-11.604116837758536,-11.369619691627337,-11.135122545495836,-10.900625399364055,-10.666128253231976,-10.431631107099593,-10.197133960966919,-9.9626368148339441,-9.7281396687006758,-9.49364252256712,-9.2591453764332652,-9.0263510492088024,-8.80888225312906,-8.59141345704901,-8.3739446609686574,-8.1564758648880034,-7.9390070688070358,-7.7215382727257618,-7.504069476644184,-7.2866006805623016,-7.0691318844801128,-6.851663088397614,-6.6341942923148087,-6.4167254962317006,-6.1992567001482834,-5.981787904064567,-5.7643191079805387,-5.546850311896204,-5.3293815158115656,-5.1119127197266137,-4.8944439236413642,-4.6839886146932441,-4.501587585761718,-4.3191865568298509,-4.1367855278976489,-3.9543844989651116,-3.771983470032239,-3.5895824410990271,-3.4071814121654769,-3.2247803832315953,-3.0423793542973709,-2.8599783253628144,-2.677577296427919,-2.4951762674926887,-2.3127752385571183,-2.1303742096212139,-1.9479731806849725,-1.7655721517483933,-1.5831711228114798,-1.4007700938742296,-1.2183690649366423,-1.0514081876460137,-0.92047481734540271,-0.78954144704444573,-0.65860807674314514,-0.52767470644150094,-0.39674133613951174,-0.26580796583717786,-0.13487459553449921,-0.0039412252314771174,0.12699214507188988,0.25792551537559955,0.38885888567965432,0.5197922559840551,0.65072562628879849,0.78165899659388682,0.91259236689931977,1.0435257372050968,1.174459107511221,1.3053924778176837,1.4363258481244949,1.5406544458065374,1.60507525586361,1.6694960659210492,1.7339168759788592,1.7983376860370364,1.8627584960955834,1.9271793061544962,1.9916001162137811,2.0560209262734332,2.1204417363334551,2.1848625463938456,2.2492833564546033,2.3137041665157319,2.3781249765772263,2.4425457866390907,2.5069665967013219,2.5713874067639253,2.6358082168268968,2.7002290268902378,2.7646498369539452,2.7582327824921009,2.7427816477029743,2.7273305129142309,2.7118793781258712,2.6964282433378961,2.680977108550306,2.6655259737631032,2.6500748389762805,2.6346237041898446,2.6191725694037897,2.6037214346181226,2.58827029983284,2.5728191650479371,2.5573680302634259,2.5419168954792948,2.5264657606955492,2.5110146259121882,2.4955634911292113,2.4253962574950529,2.318750762645172,2.2121052677957156,2.1054597729466722,1.9988142780980522,1.8921687832498459,1.7855232884020671,1.6788777935547032,1.572232298707757,1.4655868038612305,1.3589413090151286,1.252295814169442,1.1456503193241752,1.0390048244793304,0.93235932963490142,0.82571383479089366,0.719068339947302,0.61242284510413336,0.50577735026138437,0.39913185541905433,0.2222800048802564,0.015338768181289486,-0.19160246851726315,-0.39854370521539806,-0.60548494191312252,-0.8124261786104241,-1.0193674153073127,-1.2263086520037927,-1.433249888699849,-1.6401911253954971,-1.8471323620907243,-2.0540735987855396,-2.2610148354799362,-2.4679560721739229,-2.6748973088674859,-2.8818385455606377,-3.0887797822533773,-3.2957210189456978,-3.5026622556376039,-3.7096034923290939,-4.0020395580958859,-4.3158503412723128,-4.629661124448269,-4.9434719076237625,-5.257282690798788,-5.5710934739733444,-5.8849042571474444,-6.1987150403210531,-6.5125258234942125,-6.8263366066669056,-7.1401473898391155,-7.4539581730108839,-7.7677689561821541,-8.0815797393529856,-8.39539052252333,-8.7092013056932185,-9.0230120888626359,-9.33682287203158,-9.650633655200064,-9.96444443836808,-10.378087462631646,-10.802824006608109,-11.227560550584084,-11.652297094559556,-12.077033638534566,-12.501770182509079,-12.926506726483101,-13.351243270456635,-13.775979814429705,-14.200716358402282,-14.625452902374381,-15.050189446345998,-15.47492599031713,-15.899662534287771,-16.32439907825793,-16.749135622227609,-17.173872166196791,-17.598608710165479,-18.023345254133716,-18.448081798101459,0,0.011950766214744198,0.029404906344899777,0.056576198030734041,0.096539482110894442,0.14952209716632753,0.21556942480704566,0.29463266199020188,0.38655696227195158,0.49102836056628146,0.56843658626073812,0.74867418653034434
DP 227,195.81816050661558,0.0039918877057669227,-55.575397620077318,-54.448328168061806,-53.321258716044682,-52.194189264025809,-51.067119812005352,-49.940050359983218,-48.812980907959385,-47.685911455933919,-46.55884200390679,-45.431772551877948,-44.304703099847529,-43.177633647815362,-42.050564195781526,-40.923494743746112,-39.796425291708978,-38.66935583967016,-37.54228638762973,-36.415216935587644,-35.288147483543852,-34.161078031498413,-33.042577240385192,-32.001195207621876,-30.959813174856922,-29.918431142090274,-28.877049109321945,-27.835667076551935,-26.794285043780253,-25.752903011006889,-24.711520978231832,-23.670138945455125,-22.628756912676703,-21.587374879896618,-20.545992847114842,-19.504610814331379,-18.46322878154626,-17.421846748759457,-16.380464715970952,-15.339082683180772,-14.297700650388915,-13.256318617595383,-12.249946793009137,-11.383617455888286,-10.517288118765705,-9.65095878164141,-8.7846294445154065,-7.9183001073876742,-7.0519707702582206,-6.1856414331270448,-5.3193120959941584,-4.4529827588595481,-3.5866534217232107,-2.720324084585152,-1.8539947474453788,-0.98766541030388355,-0.12133607316066834,0.74499326398426791,1.6113226011309216,2.4776519382792914,3.3439812754293832,4.2103106125811944,5.0005963485542173,5.6134446191668816,6.2262928897813108,6.8391411603974763,7.45198943101539,8.0648377016350654,8.6776859722564783,9.2905342428796445,9.9033825135045639,10.516230784131228,11.129079054759652,11.7419273253898,12.354775596021721,12.967623866655375,13.580472137290796,14.193320407927969,14.806168678566868,15.419016949207537,16.031865219849944,16.644713490494112,17.128729161028751,17.419492887002178,17.7102566129774,18.0010203389544,18.291784064933196,18.582547790913772,18.873311516896148,19.164075242880315,19.454838968866262,19.745602694854018,20.036366420843528,20.327130146834847,20.617893872827953,20.908657598822831,21.1994213248195,21.490185050818,21.78094877681826,22.071712502820283,22.362476228824161,22.653239954829761,22.577063207688948,22.488439046428436,22.399814885169747,22.31119072391289,22.222566562657843,22.133942401404614,22.045318240153243,21.956694078903652,21.868069917655884,21.779445756409945,21.690821595165833,21.602197433923568,21.513573272683093,21.424949111444459,21.336324950207651,21.247700788972647,21.159076627739477,21.07045246650814,20.726943824535837,20.213508180026441,19.700072535518984,19.186636891013432,18.673201246509777,18.159765602008029,17.646329957508215,17.132894313010294,16.61945866851428,16.106023024020189,15.592587379528021,15.079151735037751,14.565716090549392,14.052280446062969,13.538844801578422,13.025409157095822,12.511973512615098,11.998537868136307,11.485102223659428,10.971666579184467,10.137024506721904,9.1647181992628184,8.1924118918056088,7.2201055843502981,6.2477992768968562,5.275492969445331,4.3031866619956824,3.3308803545478889,2.3585740471020222,1.38626773965801,0.41396143221590537,-0.55834487522432419,-1.5306511826626514,-2.5029574900991238,-3.4752637975336738,-4.447570104966359,-5.419876412397147,-6.3921827198260406,-7.3644890272530708,-8.3367953346782,-9.6946830048045189,-11.148970571337502,-12.603258137868469,-14.057545704397397,-15.511833270924312,-16.966120837449168,-18.420408403972022,-19.874695970492827,-21.328983537011581,-22.783271103528357,-24.237558670043043,-25.691846236555751,-27.146133803066377,-28.60042136957502,-30.054708936081585,-31.508996502586164,-32.963284069088672,-34.4175716355892,-35.871859202087634,-37.326146768584074,-39.22646331354418,-41.176343318272465,-43.126223322998726,-45.076103327722834,-47.02598333244493,-48.975863337164917,-50.925743341882857,-52.875623346598672,-54.8255033513125,-56.775383356024214,-58.725263360733855,-60.675143365441429,-62.625023370146891,-64.574903374850336,-66.524783379551636,-68.474663384250988,-70.424543388948138,-72.374423393643227,-74.3243033983363,-76.274183403027209,0,0.042894715935645977,0.11695828819328552,0.23863839276529808,0.41847487219926144,0.65749312295901785,0.95599977114856283,1.3137849680239688,1.7300737709195018,2.2033066065283049,2.5547188714545159,3.3708783982684558
DP 228,131.6239986488699,0.0015683382163977097,-16.85230268903754,-16.543547261478832,-16.234791833919694,-15.926036406360119,-15.617280978800128,-15.308525551239708,-14.999770123678861,-14.691014696117598,-14.382259268555897,-14.073503840993775,-13.764748413431219,-13.455992985868257,-13.14723755830485,-12.838482130741019,-12.529726703176767,-12.220971275612092,-11.912215848046985,-11.603460420481451,-11.294704992915497,-10.985949565349109,-10.679450753619307,-10.393261697727063,-10.107072641834385,-9.820883585941278,-9.5346945300477319,-9.24850547415375,-8.9623164182593325,-8.6761273623644772,-8.3899383064691921,-8.103749250573463,-7.817560194677303,-7.53137113878071,-7.2451820828836722,-6.9589930269862,-6.672803971088304,-6.3866149151899645,-6.1004258592911826,-5.8142368033919718,-5.528047747492324,-5.24185869159224,-4.9649549968974522,-4.7251931858642369,-4.4854313748305614,-4.24566956379642,-4.0059077527618143,-3.76614594172675,-3.5263841306912185,-3.2866223196552267,-3.0468605086187726,-2.8070986975818526,-2.5673368865444717,-2.3275750755066276,-2.0878132644683181,-1.8480514534295485,-1.6082896423903141,-1.368527831350618,-1.1287660203104577,-0.889004209269837,-0.649242398228753,-0.40948058718720526,-0.19012133596573058,-0.018368700491258223,0.15338393498368807,0.32513657045910638,0.49688920593499475,0.66864184141135841,0.84039447688819291,1.0121471123655013,1.18389974784328,1.3556523833215324,1.5274050188002548,1.6991576542794513,1.87091028975912,2.0426629252392625,2.2144155607198757,2.3861681962009609,2.5579208316825195,2.7296734671645515,2.9014261026470547,3.0731787381300277,3.2098567606294282,3.2939220348178759,3.3779873090068171,3.4620525831962552,3.5461178573861911,3.6301831315766169,3.7142484057675387,3.7983136799589596,3.8823789541508709,3.9664442283432795,4.0505095025361841,4.1345747767295782,4.2186400509234767,4.3027053251178611,4.3867705993127446,4.4708358735081193,4.5549011477039931,4.638966421900359,4.7230316960972232,4.8070969702945847,4.79674451691672,4.7757902821949667,4.754836047473721,4.7338818127529922,4.7129275780327724,4.6919733433130579,4.6710191085938586,4.6500648738751664,4.6291106391569867,4.608156404439316,4.5872021697221621,4.5662479350055136,4.5452937002893767,4.5243394655737523,4.503385230858636,4.482430996144033,4.4614767614299389,4.4405225267163537,4.3478139324779228,4.2072679681588205,4.0667220038402618,3.9261760395222502,3.7856300752047893,3.64508411088787,3.5045381465715062,3.3639921822556809,3.2234462179404106,3.0829002536256809,2.9423542893115053,2.8018083249978747,2.6612623606847907,2.5207163963722548,2.3801704320602655,2.2396244677488246,2.0990785034379273,1.95853253912758,1.8179865748177813,1.6774406105085327,1.4450490111675083,1.1732937566106358,0.901538502054302,0.62978324749851367,0.35802799294325882,0.086272738388557049,-0.18548251616560751,-0.45723777071923949,-0.7289930252723188,-1.0007482798248668,-1.2725035343768676,-1.5442587889283288,-1.8160140434792453,-2.0877692980296283,-2.3595245525794621,-2.6312798071287591,-2.9030350616775138,-3.1747903162257227,-3.4465455707733974,-3.7183008253205263,-4.101691345790087,-4.5129920017362677,-4.9242926576818524,-5.3355933136268421,-5.746893969571234,-6.1581946255150228,-6.56949528145822,-6.9807959374008126,-7.3920965933428171,-7.8033972492842292,-8.21469790522503,-8.6259985611652432,-9.0372992171048452,-9.4485998730438681,-9.8599005289822852,-10.271201184920098,-10.682501840857327,-11.093802496793948,-11.505103152729969,-11.916403808665402,-12.457898657098383,-13.013860894273959,-13.569823131448942,-14.125785368623285,-14.681747605797007,-15.237709842970141,-15.793672080142638,-16.349634317314528,-16.9055965544858,-17.461558791656469,-18.017521028826511,-18.573483265995947,-19.129445503164753,-19.685407740332977,-20.24136997750055,-20.79733221466752,-21.353294451833882,-21.9092566889996,-22.465218926164749,-23.021181163329263,0,0.013994685988478266,0.036046814947328476,0.07124979668210317,0.1231505827500627,0.1920366194278065,0.27797834091436818,0.38091282520100006,0.500627776902737,0.63669550871055836,0.737636781060252,0.97241980334147449
DP 229,187.79074177281066,0.0019390161707867211,-26.297531873761375,-25.769003893649263,-25.240475913536407,-24.711947933422707,-24.183419953308263,-23.654891973193045,-23.126363993077028,-22.597836012960258,-22.06930803284267,-21.540780052724312,-21.012252072605186,-20.483724092485296,-19.955196112364597,-19.426668132243126,-18.898140152120877,-18.36961217199784,-17.841084191874032,-17.312556211749445,-16.784028231624085,-16.255500251497924,-15.730963935910518,-15.242352978487141,-14.753742021062994,-14.265131063638053,-13.776520106212326,-13.287909148785809,-12.7992981913585,-12.310687233930402,-11.822076276501523,-11.333465319071848,-10.84485436164139,-10.356243404210133,-9.86763244677811,-9.3790214893452841,-8.8904105319116677,-8.4017995744772644,-7.9131886170420822,-7.4245776596060953,-6.9359667021693348,-6.4473557447317758,-5.9750740123653863,-5.5681099520279265,-5.161145891689662,-4.7541818313505821,-4.3472177710106958,-3.9402537106700017,-3.5332896503284976,-3.1263255899861861,-2.7193615296430651,-2.3123974692991349,-1.9054334089543961,-1.4984693486088456,-1.0915052882624883,-0.68454122791532113,-0.2775771675673453,0.12938689278143944,0.53635095313103265,0.94331501348143321,1.3502790738326409,1.75724313418466,2.1286711102814277,2.4171804367963743,2.7056897633121428,2.9941990898287369,3.28270841634615,3.5712177428643881,3.8597270693834518,4.1482363959033384,4.4367457224240443,4.7252550489455754,5.0137643754679262,5.3022737019910995,5.5907830285151006,5.8792923550399161,6.1678016815655656,6.4563110080920314,6.7448203346193241,7.03332966114743,7.321838987676375,7.6103483142061323,7.838503436142088,7.9761258249787623,8.1137482138162813,8.2513706026546529,8.38899299149386,8.5266153803339186,8.6642377691748216,8.8018601580165559,8.93948254685913,9.0771049357025575,9.2147273245468337,9.3523497133919413,9.4899721022379033,9.6275944910846931,9.7652168799323338,9.9028392687808129,10.040461657630146,10.178084046480306,10.315706435331325,10.453328824183176,10.420604239915615,10.37998959149507,10.339374943075393,10.298760294656567,10.258145646238608,10.217530997821505,10.176916349405266,10.136301700989883,10.095687052575364,10.055072404161702,10.014457755748904,9.9738431073369647,9.9332284589258784,9.89261381051566,9.8519991621062868,9.8113845136977922,9.7707698652901467,9.73015521688336,9.5694477993210931,9.3286766437483752,9.0879054881765775,8.84713433260567,8.6063631770356643,8.3655920214665613,8.1248208658983714,7.8840497103310794,7.6432785547646889,7.4025073991991954,7.1617362436346266,6.9209650880709415,6.680193932508165,6.4394227769462979,6.1986516213853182,5.9578804658252613,5.7171093102660944,5.4763381547078325,5.2355669991504818,4.9947958435940336,4.60227393770165,4.144713946843078,3.6871539559853934,3.2295939651286094,2.7720339742726989,2.3144739834177006,1.8569139925635889,1.3993540017103521,0.94179401085802639,0.48423402000657673,0.026674029156028168,-0.4308859616936343,-0.88844595254239678,-1.3460059433902838,-1.8035659342372607,-2.2611259250833595,-2.7186859159285608,-3.1762459067728681,-3.633805897616289,-4.0913658884588173,-4.7314908350874614,-5.4172591777090471,-6.103027520329678,-6.7887958629493488,-7.47456420556806,-8.1603325481858047,-8.8461008908025924,-9.5318692334184,-10.217637576033262,-10.903405918647177,-11.58917426126011,-12.274942603872097,-12.960710946483088,-13.646479289093151,-14.332247631702245,-15.018015974310369,-15.703784316917533,-16.389552659523744,-17.07532100212898,-17.761089344733271,-18.65834648907579,-19.579104610311106,-20.499862731545406,-21.420620852778747,-22.341378974011104,-23.262137095242462,-24.182895216472833,-25.10365333770222,-26.024411458930665,-26.945169580158087,-27.86592770138456,-28.786685822610032,-29.707443943834516,-30.628202065058023,-31.548960186280567,-32.46971830750212,-33.390476428722664,-34.31123454994222,-35.231992671160867,-36.152750792378441,0,0.02045982575172621,0.055556784446704748,0.11309670390618093,0.19812195991181716,0.31111548534143785,0.45221993670071231,0.62133577320197853,0.81809787118473,1.0417714540164216,1.2078573873505336,1.593640198125001
DP 230,113.6292224154606,0.0031531819444173257,-30.480482022730921,-29.950210794606981,-29.41993956648238,-28.889668338357058,-28.359397110231061,-27.829125882104378,-27.298854653977017,-26.768583425848956,-26.238312197720241,-25.708040969590829,-25.177769741460718,-24.647498513329928,-24.117227285198464,-23.58695605706631,-23.056684828933456,-22.52641360079992,-21.996142372665705,-21.465871144530812,-20.935599916395216,-20.405328688258951,-19.87891224499068,-19.387189229910771,-18.895466214830179,-18.403743199748856,-17.912020184666822,-17.420297169584096,-16.928574154500655,-16.436851139416511,-15.945128124331648,-15.453405109246093,-14.961682094159823,-14.469959079072845,-13.978236063985161,-13.486513048896761,-12.994790033807664,-12.503067018717863,-12.011344003627347,-11.519620988536129,-11.027897973444196,-10.536174958351561,-10.06032644029467,-9.6479766606336614,-9.2356268809718784,-8.8232771013093281,-8.4109273216460068,-7.9985775419819172,-7.5862277623170575,-7.1738779826514234,-6.7615282029850183,-6.34917842331785,-5.9368286436499,-5.5244788639811855,-5.112129084311702,-4.6997793046414458,-4.2874295249704186,-3.875079745298617,-3.4627299656260493,-3.0503801859527129,-2.6380304062786051,-2.2256806266037277,-1.8482670293145633,-1.5523722916768707,-1.2564775540383848,-0.96058281639911525,-0.66468807875905866,-0.36879334111821288,-0.072898603476579768,0.2229961341658433,0.51889087180905136,0.81478560945304612,1.1106803470978295,1.4065750847433991,1.7024698223897603,1.9983645600369071,2.2942592976848379,2.5901540353335597,2.8860487729830719,3.1819435106333707,3.4778382482844585,3.7737329859363276,4.0094516773233906,4.1549048773147028,4.3003580773068615,4.4458112772998559,4.5912644772936888,4.7367176772883592,4.8821708772838681,5.0276240772802163,5.1730772772774065,5.3185304772754289,5.4639836772742987,5.6094368772739962,5.7548900772745384,5.9003432772759128,6.0457964772781381,6.1912496772811894,6.3367028772850817,6.4821560772898188,6.6276092772953872,6.7730624773017976,6.7579697019304792,6.7228416104059088,6.6877135188822123,6.6525854273593819,6.6174573358374209,6.5823292443163348,6.5472011527961236,6.5120730612767712,6.4769449697583017,6.4418168782407035,6.4066887867239792,6.3715606952081183,6.3364326036931322,6.3013045121790228,6.2661764206657793,6.2310483291534133,6.1959202376419169,6.1607921461312891,6.0020122893398824,5.7607959743871335,5.5195796594353306,5.2783633444844735,5.0371470295345668,4.7959307145855981,4.5547143996375805,4.3134980846905133,4.0722817697443858,3.8310654547992056,3.589849139854985,3.3486328249116983,3.1074165099693589,2.8662001950279743,2.6249838800875267,2.3837675651480303,2.1425512502094755,1.9013349352718727,1.6601186203352221,1.418902305399514,1.0190882168489055,0.55130151232783564,0.083514807807699876,-0.38427189671149348,-0.85205860122976107,-1.3198453057470731,-1.7876320102634526,-2.2554187147789109,-2.7232054192934148,-3.1909921238069954,-3.6587788283196292,-4.1265655328313322,-4.5943522373420844,-5.0621389418519191,-5.5299256463608,-5.9977123508687527,-6.4654990553757647,-6.9332857598818327,-7.4010724643869779,-7.8688591688911727,-8.52971980915163,-9.2388512145635211,-9.9479826199743666,-10.657114025384164,-11.366245430792921,-12.075376836200608,-12.784508241607275,-13.493639647012852,-14.202771052417409,-14.911902457820929,-15.621033863223355,-16.330165268624768,-17.03929667402511,-17.748428079424428,-18.457559484822678,-19.16669089021989,-19.875822295616036,-20.58495370101117,-21.294085106405205,-22.003216511798236,-22.937755849443914,-23.897342880224048,-24.856929911003117,-25.816516941781064,-26.77610397255793,-27.735691003333745,-28.695278034108444,-29.654865064882017,-30.614452095654592,-31.574039126425998,-32.53362615719638,-33.493213187965679,-34.452800218733863,-35.412387249500952,-36.371974280266983,-37.3315613110319,-38.2911483417958,-39.250735372558516,-40.210322403320241,-41.169909434080814,0,0.02623085389822067,0.065295568972589368,0.12651707440581061,0.21662258128680881,0.33611855917619587,0.48511173770778437,0.66349194660896549,0.87090472395708529,1.1066328063588913,1.2813569176620923,1.6880773013168098
DP 231,80.473721081287366,0.0047664321345598781,-35.0171648643268,-34.507107565073824,-33.997050265820306,-33.486992966566419,-32.976935667312006,-32.466878368057131,-31.956821068801762,-31.446763769545974,-30.936706470289657,-30.426649171032906,-29.916591871775676,-29.406534572517966,-28.8964772732598,-28.386419974001139,-27.876362674742033,-27.366305375482472,-26.856248076222389,-26.346190776961862,-25.836133477700873,-25.32607617843939,-24.819708763079525,-24.346550651621673,-23.873392540163337,-23.400234428704472,-22.927076317245088,-22.453918205785193,-21.980760094324772,-21.507601982863868,-21.034443871402431,-20.561285759940485,-20.088127648478022,-19.614969537015071,-19.141811425551573,-18.668653314087567,-18.195495202623068,-17.722337091158039,-17.2491789796925,-16.776020868226446,-16.30286275675989,-15.829704645292813,-15.371744137279546,-14.974574761342879,-14.577405385405566,-14.180236009467622,-13.783066633529035,-13.38589725758982,-12.988727881649972,-12.591558505709472,-12.194389129768348,-11.797219753826573,-11.400050377884176,-11.002881001941136,-10.605711625997451,-10.208542250053126,-9.8113728741081783,-9.4142034981625873,-9.0170341222163639,-8.6198647462694975,-8.222695370322,-7.8255259943738684,-7.4618551114094425,-7.1763484341937032,-6.8908417569773031,-6.6053350797602546,-6.3198284025425462,-6.034321725324177,-5.7488150481051585,-5.4633083708854748,-5.177801693665141,-4.892295016444149,-4.6067883392225042,-4.3212816620002,-4.03577498477724,-3.7502683075536276,-3.4647616303293516,-3.1792549531044227,-2.8937482758788384,-2.6082415986525955,-2.3227349214256976,-2.0372282441981433,-1.8095034225976443,-1.6684527498599044,-1.5274020771214165,-1.3863514043821736,-1.2453007316421811,-1.104250058901437,-0.96319938615994494,-0.82214871341770046,-0.68109804067470969,-0.54004736793096275,-0.39899669518646863,-0.25794602244122372,-0.11689534969522569,0.024155323051519444,0.16520599579901743,0.30625666854726297,0.44730734129626287,0.58835801404601429,0.72940868679651472,0.87045935954776377,0.85923134452243166,0.826529675496827,0.79382800647202911,0.76112633744803448,0.72842466842485065,0.69572299940247173,0.66302133038090216,0.6303196613601294,0.5976179923401711,0.56491632332101316,0.53221465430266623,0.49951298528512428,0.466811316268385,0.4341096472524536,0.40140797823733,0.36870630922301284,0.33600464020950016,0.30330297119679739,0.15140751578948541,-0.07995234162531667,-0.311312199039191,-0.54267205645215166,-0.77403191386418557,-1.0053917712753013,-1.2367516286854874,-1.4681114860947528,-1.6994713435030997,-1.93083120091052,-2.1621910583170085,-2.3935509157225856,-2.6249107731272381,-2.85627063053096,-3.0876304879337684,-3.3189903453356484,-3.5503502027366114,-3.781710060136644,-4.0130699175357529,-4.2444297749339395,-4.6289543341735335,-5.0791229766886854,-5.5292916192029224,-5.9794602617162393,-6.4296289042286485,-6.8797975467401242,-7.3299661892506816,-7.7801348317603445,-8.23030347426906,-8.68047211677689,-9.1306407592837822,-9.5808094017897609,-10.030978044294816,-10.48114668679897,-10.931315329302187,-11.381483971804498,-11.831652614305892,-12.281821256806362,-12.731989899305908,-13.182158541804542,-13.81902274000257,-14.502563032975759,-15.186103325947869,-15.869643618918895,-16.553183911888826,-17.236724204857676,-17.92026449782545,-18.603804790792132,-19.287345083757721,-19.970885376722237,-20.654425669685669,-21.33796596264802,-22.021506255609264,-22.705046548569438,-23.388586841528539,-24.072127134486557,-24.755667427443466,-25.439207720399295,-26.122748013354059,-26.806288306307717,-27.7079987702376,-28.633952655590473,-29.559906540942173,-30.485860426292739,-31.411814311642182,-32.337768196990432,-33.2637220823376,-34.189675967683577,-35.115629853028473,-36.0415837383722,-36.9675376237148,-37.89349150905624,-38.819445394396539,-39.7453992797357,-40.671353165073718,-41.597307050410606,-42.523260935746357,-43.449214821080922,-44.375168706414421,-45.3011225917467,0,0.034536823955841504,0.076780350573102,0.13791657764815146,0.22692688516309717,0.34448626602595317,0.49069286325888778,0.66546004023509009,0.86851571066088984,1.0992631561116832,1.269378725260031,1.6663770552303985
DP 232,95.074492403891966,0.0014774208091032066,-12.446547587821222,-12.246626096672278,-12.046704605523104,-11.846783114373693,-11.646861623224062,-11.446940132074205,-11.24701864092412,-11.04709714977381,-10.84717565862327,-10.647254167472493,-10.447332676321505,-10.247411185170289,-10.047489694018834,-9.84756820286716,-9.6476467117152485,-9.4477252205631181,-9.2478037294107658,-9.0478822382581736,-8.8479607471053647,-8.6480392559523267,-8.4495662441848225,-8.2641296838054519,-8.078693123425845,-7.8932565630460134,-7.7078200026659225,-7.5223834422855989,-7.3369468819050354,-7.151510321524233,-6.9660737611432,-6.7806372007619187,-6.5952006403804013,-6.4097640799986406,-6.22432751961665,-6.0388909592344096,-5.8534543988519383,-5.6680178384692272,-5.4825812780862728,-5.29714471770308,-5.1117081573196508,-4.92627159693598,-4.7468014910869254,-4.5911974853599791,-4.4355934796327521,-4.279989473905256,-4.124385468177481,-3.9687814624494391,-3.8131774567211205,-3.6575734509925293,-3.5019694452636676,-3.34636543953453,-3.1907614338051182,-3.0351574280754332,-2.8795534223454724,-2.7239494166152429,-2.5683454108847381,-2.412741405153958,-2.2571373994229065,-2.1015333936915832,-1.9459293879599846,-1.7903253822281142,-1.6478661843412112,-1.5360786189191398,-1.4242910534967859,-1.3125034880741522,-1.2007159226512394,-1.0889283572280448,-0.97714079180457181,-0.86535322638081524,-0.75356566095678112,-0.64177809553246523,-0.52999053010787045,-0.41820296468299517,-0.30641539925783806,-0.19462783383240162,-0.082840268406684667,0.028947297019313468,0.14073486244559119,0.25252242787214996,0.36430999329898844,0.47609755872610754,0.56521821447307763,0.620337970066244,0.675457725659717,0.73057748125349753,0.78569723684758441,0.84081699244197916,0.89593674803668033,0.95105650363168948,1.0061762592270052,1.0612960148226278,1.1164157704185573,1.1715355260147926,1.2266552816113381,1.2817750372081864,1.3368947928053474,1.3920145484028104,1.4471343040005828,1.5022540595986642,1.5573738151970504,1.6124935707957433,1.6075671551760531,1.5945725090434983,1.5815778629112673,1.5685832167793565,1.555588570647773,1.5425939245165121,1.5295992783855774,1.5166046322549593,1.5036099861246688,1.4906153399947029,1.4776206938650598,1.4646260477357396,1.4516314016067442,1.4386367554780706,1.425642109349722,1.4126474632216954,1.399652817093995,1.3866581709666166,1.326960583024916,1.2361269647956963,1.145293346566838,1.0544597283383361,0.963626110110195,0.87279249188241048,0.78195887365498928,0.69112525542792491,0.600291637201218,0.50945801897487253,0.41862440074888918,0.32779078252326188,0.23695716429799313,0.1461235460730875,0.05528992784853639,-0.035543690375651395,-0.12637730859948365,-0.21721092682295431,-0.30804454504606477,-0.39887816326881637,-0.54969026459884,-0.72620824001408679,-0.90272621542897824,-1.0792441908435111,-1.2557621662576925,-1.4322801416715105,-1.6087981170849732,-1.7853160924980871,-1.9618340679108361,-2.1383520433232346,-2.3148700187352746,-2.491387994146959,-2.6679059695582827,-2.8444239449692583,-3.0209419203798706,-3.197459895790129,-3.3739778712000303,-3.5504958466095742,-3.7270138220187632,-3.9035317974275934,-4.1531355794596436,-4.4210116766728831,-4.6888877738857131,-4.9567638710981354,-5.2246399683101492,-5.4925160655217553,-5.7603921627329555,-6.02826825994374,-6.2961443571541214,-6.5640204543640976,-6.8318965515736565,-7.0997726487828086,-7.3676487459915529,-7.6355248431998985,-7.9034009404078285,-8.1712770376153472,-8.4391531348224564,-8.7070292320291571,-8.9749053292354528,-9.2427814264413382,-9.5960380261614677,-9.95878224508498,-10.321526464008082,-10.684270682930732,-11.047014901852981,-11.409759120774783,-11.77250333969617,-12.135247558617122,-12.497991777537672,-12.860735996457768,-13.223480215377455,-13.586224434296716,-13.94896865321555,-14.31171287213396,-14.674457091051934,-15.037201309969497,-15.399945528886635,-15.762689747803325,-16.125433966719608,-16.488178185635459,0,0.011368409618946095,0.026835882854672984,0.050291183160855631,0.084684180767787123,0.13022609732097445,0.18695181157746552,0.25482064817881911,0.33370817693139676,0.42335803359231627,0.48968135810851532,0.64425332521474232
DP 233,156.53367528744877,0.0023171811795810538,-27.982150187856888,-27.443459499328078,-26.904768810798515,-26.366078122268163,-25.827387433737016,-25.288696745205108,-24.750006056672394,-24.211315368138937,-23.672624679604688,-23.133933991069654,-22.595243302533842,-22.056552613997262,-21.517861925459904,-20.979171236921765,-20.44048054838283,-19.901789859843127,-19.363099171302636,-18.824408482761395,-18.285717794219348,-17.747027105676523,-17.212318938910283,-16.713453844584368,-16.21458875025769,-15.715723655930205,-15.216858561601937,-14.717993467272862,-14.219128372943016,-13.72026327861237,-13.221398184280936,-12.72253308994871,-12.223667995615687,-11.724802901281876,-11.225937806947272,-10.727072712611879,-10.228207618275697,-9.7293425239387243,-9.2304774296009544,-8.7316123352624,-8.2327472409230484,-7.7338821465829088,-7.2513726763633271,-6.8342864756178994,-6.4172002748716483,-6.0001140741245669,-5.5830278733766754,-5.1659416726279508,-4.7488554718784028,-4.3317692711280351,-3.914683070376844,-3.497596869624827,-3.0805106688719861,-2.66342446811832,-2.2463382673638308,-1.8292520666085195,-1.4121658658523828,-0.99507966509542134,-0.57799346433763921,-0.16090726357903379,0.25617893718039408,0.6732651379406478,1.0545361014578185,1.3522370496261404,1.6499379977953026,1.947638945965301,2.2453398941361393,2.5430408423078164,2.840741790480334,3.13844273865369,3.4361436868278821,3.7338446350029173,4.0315455831787883,4.3292465313555,4.626947479533051,4.92464842771144,5.2223493758906665,5.5200503240707395,5.8177512722516447,6.1154522204333865,6.4131531686159766,6.7108541167993971,6.9472423127571137,7.09165993151662,7.2360775502769918,7.38049516903823,7.5249127878003534,7.6693304065633292,7.8137480253271736,7.9581656440918884,8.1025832628574666,8.24700088162392,8.39141850039124,8.5358361191594234,8.6802537379284779,8.824671356698401,8.9690889754691909,9.1135065942408442,9.25792421301337,9.4023418317867637,9.5467594505610212,9.6911770693361454,9.6676751508568284,9.6293905143258076,9.5911058777956644,9.5528212412664235,9.5145366047380691,9.476251968210601,9.4379673316840229,9.3996826951583277,9.3613980586335312,9.3231134221096248,9.2848287855866047,9.2465441490644675,9.2082595125432309,9.16997487602288,9.131690239503417,9.0934056029848449,9.0551209664671664,9.0168363299503689,8.8543179006482422,8.6089749856792874,8.3636320707112848,8.1182891557442165,7.8729462407780968,7.6276033258129212,7.3822604108486791,7.1369174958853874,6.8915745809230273,6.6462316659616141,6.4008887510011627,6.1555458360416324,5.91020292108305,5.664860006125414,5.4195170911687178,5.174174176212964,4.9288312612581464,4.6834883463042827,4.438145431351356,4.192802516399377,3.7891429200049926,3.3176311795096947,2.8461194390153217,2.37460769852189,1.9030959580293738,1.431584217537808,0.96007247704716692,0.48856073655744209,0.017048996068666812,-0.45446274441919343,-0.92597448490611156,-1.3974862253921032,-1.8689979658771569,-2.3405097063612952,-2.8120214468444833,-3.2835331873267539,-3.7550449278080862,-4.2265566682884863,-4.6980684087679627,-5.169580149246503,-5.8328530422799183,-6.5440684891536245,-7.2552839360263226,-7.9664993828979984,-8.677714829768659,-9.388930276638316,-10.100145723506957,-10.811361170374569,-11.522576617241175,-12.23379206410679,-12.945007510971353,-13.656222957834919,-14.367438404697452,-15.078653851559009,-15.789869298419505,-16.501084745279023,-17.212300192137509,-17.923515638995,-18.634731085851453,-19.345946532706908,-20.280290721239471,-21.239429335572183,-22.198567949903897,-23.157706564234537,-24.116845178564155,-25.075983792892718,-26.035122407220243,-26.994261021546702,-27.953399635872167,-28.912538250196587,-29.871676864519952,-30.830815478842325,-31.7899540931636,-32.74909270748384,-33.708231321803055,-34.66736993612124,-35.62650855043838,-36.585647164754434,-37.544785779069542,-38.503924393383521,0,0.022483650229738507,0.059691321554233734,0.12000564526403339,0.20904533190026675,0.32730777012772061,0.4749295892868185,0.651804668494582,0.85755815309214722,1.0914356038383639,1.2650381891428546,1.6685258580955891
DP 234,64.263377549835084,0.0014177858131262085,-8.59356257408411,-8.4891672072862949,-8.3847718404884244,-8.2803764736905112,-8.1759811068925412,-8.0715857400945268,-7.9671903732964582,-7.8627950064983443,-7.75839963970018,-7.6540042729019762,-7.5496089061037184,-7.4452135393054126,-7.3408181725070563,-7.23642280570865,-7.132027438910197,-7.0276320721116914,-6.9232367053131405,-6.818841338514539,-6.7144459717158966,-6.6100506049171983,-6.5064097474708822,-6.4095595455158723,-6.3127093435608028,-6.2158591416056632,-6.1190089396504659,-6.0221587376952073,-5.9253085357398865,-5.8284583337845,-5.731608131829053,-5.6347579298735448,-5.5379077279179745,-5.4410575259623375,-5.34420732400664,-5.2473571220508779,-5.1505069200950606,-5.0536567181391723,-4.9568065161832271,-4.8599563142272153,-4.7631061122711413,-4.6662559103150079,-4.5725112642142411,-4.491188988308,-4.4098667124016515,-4.3285444364952061,-4.2472221605886533,-4.165899884681993,-4.0845776087752332,-4.0032553328683695,-3.9219330569613988,-3.840610781054322,-3.7592885051471461,-3.6779662292398663,-3.596643953332479,-3.5153216774249914,-3.4339994015173971,-3.3526771256096985,-3.2713548497018943,-3.1900325737939914,-3.1087102978859806,-3.02738802197787,-2.952913322718878,-2.8944165180577355,-2.8359197133964891,-2.7774229087351316,-2.7189261040736681,-2.6604292994120931,-2.6019324947504114,-2.543435690088621,-2.4849388854267191,-2.4264420807647129,-2.3679452761025952,-2.3094484714403722,-2.2509516667780383,-2.1924548621155964,-2.1339580574530457,-2.0754612527903862,-2.0169644481276197,-1.9584676434647428,-1.8999708388017595,-1.8414740341386668,-1.7947878370340944,-1.765817830359484,-1.7368478236847378,-1.7078778170098499,-1.6789078103348236,-1.6499378036596575,-1.6209677969843532,-1.5919977903089082,-1.5630277836333262,-1.5340577769576,-1.5050877702817391,-1.4761177636057381,-1.4471477569295959,-1.4181777502533159,-1.3892077435768957,-1.3602377369003371,-1.3312677302236384,-1.3022977235467998,-1.2733277168698229,-1.2443577101927064,-1.2462676215236856,-1.2528256545544947,-1.2593836875851467,-1.2659417206156434,-1.2724997536459821,-1.2790577866761652,-1.2856158197061895,-1.2921738527360609,-1.2987318857657726,-1.3052899187953313,-1.3118479518247304,-1.3184059848539722,-1.32496401788306,-1.3315220509119909,-1.3380800839407632,-1.3446381169693797,-1.35119614999784,-1.3577541830261424,-1.3886879131219398,-1.4358724919370702,-1.4830570707520088,-1.5302416495667557,-1.577426228381311,-1.6246108071956749,-1.6717953860098473,-1.7189799648238255,-1.7661645436376154,-1.8133491224512106,-1.8605337012646139,-1.9077182800778258,-1.9549028588908468,-2.0020874377036741,-2.0492720165163103,-2.0964565953287537,-2.1436411741410066,-2.1908257529530668,-2.2380103317649347,-2.2851949105766125,-2.363715179507087,-2.45566545304649,-2.5476157265857036,-2.6395660001247254,-2.7315162736635554,-2.8234665472021927,-2.9154168207406363,-3.0073670942788961,-3.0993173678169588,-3.19126764135483,-3.2832179148925129,-3.3751681884300031,-3.4671184619673,-3.5590687355044066,-3.6510190090413204,-3.742969282578041,-3.8349195561145768,-3.9268698296509137,-4.0188201031870614,-4.1107703767230177,-4.2409184951387457,-4.3806165260905932,-4.5203145570422008,-4.6600125879935659,-4.7997106189446921,-4.9394086498955758,-5.0791066808462233,-5.2188047117966265,-5.3585027427467855,-5.4982007736967153,-5.6378988046463929,-5.7775968355958343,-5.9172948665450269,-6.0569928974939931,-6.1966909284427079,-6.3363889593911873,-6.4760869903394189,-6.6157850212874187,-6.7554830522351761,-6.8951810831826919,-7.0795243203588472,-7.2688286048874948,-7.4581328894158831,-7.6474371739440059,-7.8367414584718791,-8.0260457429994911,-8.2153500275268421,-8.40465431205393,-8.5939585965807748,-8.783262881107353,-8.97256716563368,-9.1618714501597456,-9.35117573468555,-9.54048001921111,-9.7297843037363965,-9.9190885882614328,-10.108392872786212,-10.297697157310724,-10.487001441834998,-10.676305726358988,0,0.0097260071392154829,0.01980816749440267,0.033046812952495043,0.051886682110813827,0.076559540130132345,0.10711351431809536,0.14355285565570156,0.18585373809280645,0.23392560877133811,0.26898614589500441,0.35093754470974209
DP 235,273.15397406882391,0.0014594443213612732,-25.091110562698013,-24.547828169399082,-24.004545776099388,-23.461263382798936,-22.917980989497703,-22.37469859619571,-21.831416202892971,-21.288133809589446,-20.744851416285169,-20.201569022980124,-19.658286629674311,-19.115004236367742,-18.571721843060413,-18.0284394497523,-17.485157056443452,-16.941874663133831,-16.398592269823435,-15.855309876512278,-15.312027483200367,-14.768745089887688,-14.229936012937733,-13.731387206095595,-13.232838399252698,-12.734289592409032,-12.235740785564593,-11.737191978719386,-11.238643171873429,-10.740094365026682,-10.241545558179174,-9.7429967513309066,-9.24444794448187,-8.7458991376320547,-8.2473503307814884,-7.7488015239301467,-7.2502527170780375,-6.7517039102251539,-6.253155103371518,-5.7546062965171032,-5.2560574896619263,-4.7575086828059829,-4.2769770310075552,-3.8685148509573359,-3.4600526709063391,-3.0515904908545708,-2.643128310802028,-2.234666130748713,-1.8262039506946259,-1.4177417706397606,-1.0092795905841259,-0.60081741052771731,-0.19235523047053329,0.21610694958742732,0.62456912964615852,1.0330313097056634,1.4414934897659442,1.8499556698269966,2.2584178498888225,2.66688002995142,3.0753422100147896,3.4838043900789355,3.8540316992861361,4.1350431051423531,4.4160545109993627,4.6970659168571531,4.9780773227157287,5.2590887285750894,5.5401001344352423,5.8211115402961733,6.1021229461578921,6.3831343520204014,6.66414575788369,6.94515716374777,7.2261685696126232,7.50717997547827,7.7881913813447063,8.0692027872119354,8.35021419307993,8.6312255989487188,8.9122370048183051,9.1932484106886552,9.4114268086826876,9.5353542100779851,9.6592816114740785,9.7832090128709588,9.9071364142686384,10.031063815667116,10.154991217066387,10.278918618466454,10.402846019867315,10.52677342126896,10.650700822671416,10.774628224074666,10.898555625478702,11.02248302688354,11.146410428289173,11.270337829695604,11.394265231102828,11.518192632510837,11.642120033919642,11.766047435329252,11.69143156253436,11.63679939558153,11.5821672286295,11.527535061678282,11.472902894727868,11.418270727778259,11.363638560829461,11.309006393881459,11.254374226934267,11.19974205998788,11.1451098930423,11.090477726097523,11.035845559153552,10.981213392210396,10.926581225268031,10.871949058326482,10.817316891385738,10.762684724445791,10.59252478814995,10.345344518959063,10.098164249769011,9.85098398057979,9.6038037113914125,9.35662344220386,9.109443173017171,8.8622629038312954,8.6150826346462672,8.3679023654620739,8.1207220962787172,7.8735418270961937,7.6263615579145085,7.3791812887336636,7.1320010195536483,6.8848207503744794,6.6376404811961356,6.3904602120186391,6.1432799428419713,5.8960996736661579,5.5084785610924287,5.0606666192449365,4.6128546773982677,4.1650427355524284,3.7172307937074045,3.2694188518632208,2.8216069100198573,2.3737949681773021,1.9259830263355913,1.4781710844946914,1.0303591426546248,0.5825472008153787,0.13473525897696448,-0.31307668286063911,-0.76088862469740115,-1.20870056653335,-1.6565125083684678,-2.1043244502027578,-2.5521363920362297,-2.9999483338688768,-3.6113622252764555,-4.2636785370719492,-4.9159948488665668,-5.5683111606603077,-6.2206274724531712,-6.8729437842451606,-7.5252600960362726,-8.17757640782649,-8.8298927196158381,-9.4822090314043272,-10.134525343191912,-10.786841654978637,-11.439157966764467,-12.091474278549439,-12.743790590333521,-13.396106902116733,-14.048423213899047,-14.700739525680515,-15.353055837461072,-16.005372149240774,-16.843183686920266,-17.701607753403913,-18.5600318198867,-19.418455886368555,-20.276879952849534,-21.135304019329606,-21.993728085808815,-22.852152152287061,-23.710576218764494,-24.569000285241003,-25.427424351716621,-26.285848418191343,-27.144272484665212,-28.002696551138133,-28.861120617610158,-29.719544684081328,-30.577968750551612,-31.436392817020941,-32.294816883489432,-33.153240949957016,0,0.017766631242995042,0.049569817327410927,0.1024723751336207,0.18075035429513639,0.28486149458117194,0.41495159414304938,0.570931239019846,0.75245617673752263,0.95883353802778526,1.1121241505412269,1.4678798484102948
DP 236,192.45884578214191,0.0029163168976230908,-40.164569980340296,-39.353036894757871,-38.541503809174252,-37.729970723589389,-36.91843763800339,-36.106904552416175,-35.295371466827739,-34.483838381238115,-33.672305295647305,-32.860772210055309,-32.049239124462076,-31.237706038867668,-30.426172953272058,-29.614639867675248,-28.803106782077236,-27.991573696478035,-27.180040610877615,-26.368507525276037,-25.556974439673212,-24.745441354069222,-23.940060552245242,-23.190050885991162,-22.440041219735907,-21.690031553479418,-20.940021887221729,-20.19001222096281,-19.440002554702698,-18.68999288844137,-17.939983222178849,-17.189973555915088,-16.439963889650141,-15.689954223383976,-14.939944557116586,-14.189934890848003,-13.439925224578207,-12.689915558307197,-11.939905892034973,-11.18989622576154,-10.439886559486904,-9.6898768932110535,-8.9650181329955014,-8.34076418569162,-7.7165102383864816,-7.0922562910801119,-6.468002343772504,-5.8437483964636536,-5.2194944491535633,-4.59524050184223,-3.9709865545296616,-3.3467326072158521,-2.7224786599007995,-2.0982247125845057,-1.4739707652669729,-0.84971681794820009,-0.22546287062818612,0.39879107669306768,1.0230450240155597,1.6472989713392905,2.2715529186642573,2.8958068659904708,3.4653881881289212,3.9073983288986023,4.349408469669549,4.7914186104417533,5.2334287512152216,5.6754388919899545,6.1174490327659488,6.5594591735432,7.0014693143217173,7.4434794551014845,7.8854895958825217,8.3274997366648229,8.7695098774483782,9.2115200182332035,9.6535301590192812,10.095540299806636,10.537550440595238,10.97956058138511,11.421570722176236,11.863580862968627,12.212865447000956,12.423059504728808,12.63325356245797,12.843447620188414,13.053641677920149,13.263835735653172,13.474029793387484,13.684223851123097,13.894417908859994,14.104611966598183,14.314806024337662,14.525000082078426,14.7351941398205,14.945388197563828,15.155582255308481,15.365776313054424,15.575970370801647,15.786164428550164,15.996358486299966,16.206552544051057,16.153665268487046,16.090471029892075,16.027276791298426,15.964082552706085,15.900888314115063,15.837694075525372,15.774499836936979,15.7113055983499,15.648111359764158,15.584917121179712,15.5217228825966,15.458528644014779,15.395334405434275,15.332140166855103,15.268945928277233,15.205751689700689,15.142557451125453,15.079363212551538,14.832270325507427,14.462575442397023,14.09288055928802,13.723185676180378,13.353490793074121,12.983795909969235,12.614101026865749,12.244406143763634,11.874711260662895,11.505016377563532,11.13532149446557,10.76562661136898,10.395931728273769,10.026236845179954,9.656541962087493,9.2868470789964341,8.9171521959067448,8.5474573128184428,8.1777624297315228,7.8080675466459866,7.2063540153974834,6.5052007876759248,5.80404755995573,5.1028943322368994,4.4017411045194157,3.7005878768033247,2.9994346490885877,2.2982814213751888,1.5971281936631809,0.8959749659525118,0.19482173824322171,-0.5063314894647124,-1.207484717171273,-1.9086379448764939,-2.6097911725803247,-3.3109444002828128,-4.0120976279839278,-4.7132508556836719,-5.414404083382073,-6.1155573110791,-7.0954906307479426,-8.1451222672598487,-9.194753903770291,-10.244385540279257,-11.294017176786767,-12.343648813292802,-13.393280449797393,-14.442912086300469,-15.492543722802097,-16.542175359302288,-17.591806995800958,-18.641438632298193,-19.691070268793922,-20.740701905288244,-21.790333541781035,-22.839965178272394,-23.889596814762271,-24.939228451250706,-25.988860087737642,-27.038491724223135,-28.410807732095034,-29.818980947976453,-31.227154163856412,-32.635327379734811,-34.043500595611718,-35.451673811487119,-36.859847027361049,-38.268020243233444,-39.676193459104361,-41.084366674973772,-42.492539890841705,-43.900713106708139,-45.308886322573031,-46.717059538436523,-48.125232754298381,-49.533405970158796,-50.941579186017776,-52.349752401875165,-53.757925617731104,-55.1660988335855,0,0.031104077549411146,0.0846684970835404,0.17259528466303062,0.30253657492721314,0.4752320792432152,0.69090189861573192,0.94939429725565183,1.250149973480406,1.5920437401780818,1.8459209472002469,2.4355827348030048
DP 237,170.80106936885809,0.0033208551253579772,-42.421291713708463,-41.586865490029766,-40.752439266349853,-39.918013042668704,-39.08358681898634,-38.249160595302783,-37.414734371617925,-36.580308147931895,-35.745881924244671,-34.911455700556182,-34.077029476866471,-33.242603253175581,-32.4081770294834,-31.573750805790041,-30.73932458209546,-29.90489835839962,-29.070472134702591,-28.236045911004346,-27.401619687304855,-26.56719346360418,-25.738991191796675,-24.966805075352646,-24.19461895890738,-23.422432842460882,-22.650246726013137,-21.878060609564173,-21.105874493113919,-20.333688376662483,-19.561502260209785,-18.789316143755837,-18.017130027300674,-17.244943910844256,-16.472757794386602,-15.700571677927714,-14.928385561467611,-14.156199445006228,-13.384013328543604,-12.611827212079758,-11.839641095614674,-11.067454979148346,-10.320786416493251,-9.6761892750818479,-9.0315921336691645,-8.3869949922552,-7.7423978508399607,-7.0978007094234394,-6.4532035680056383,-5.8086064265865573,-5.1640092851661992,-4.51941214374456,-3.87481500232164,-3.2302178608974352,-2.5856207194719558,-1.9410235780451961,-1.2964264366171536,-0.65182929518783306,-0.0072321537572342057,0.63736498767464211,1.2819621291077952,1.926559270542231,2.5154205225000683,2.9742296095810343,3.43303869666331,3.8918477837468854,4.3506568708317559,4.8094659579179364,5.2682750450054172,5.7270841320942063,6.1858932191842877,6.6447023062756854,7.1035113933683736,7.5623204804623656,8.0211295675576668,8.4799386546542639,8.9387477417521719,9.3975568288513838,9.8563659159518924,10.3151750030537,10.773984090156812,11.232793177261238,11.596499666249123,11.817550010726848,12.0386003552059,12.259650699686308,12.480701044168045,12.701751388651127,12.922801733135548,13.143852077621309,13.364902422108427,13.585952766596865,13.807003111086653,14.028053455577773,14.249103800070257,14.470154144564052,14.691204489059196,14.912254833555687,15.133305178053511,15.354355522552684,15.57540586705321,15.796456211555045,15.753731341994529,15.692430791507732,15.631130241022323,15.569829690538269,15.5085291400556,15.447228589574278,15.385928039094344,15.32462748861578,15.263326938138583,15.202026387662762,15.140725837188294,15.079425286715223,15.018124736243493,14.956824185773149,14.895523635304192,14.834223084836587,14.772922534370363,14.711621983905482,14.459048314368923,14.078956218856481,13.698864123345446,13.318772027835873,12.938679932327759,12.558587836821054,12.17849574131583,11.798403645812042,11.418311550309694,11.0382194548088,10.658127359309349,10.278035263811342,9.8979431683147752,9.5178510728196741,9.137758977326,8.7576668818337868,8.3775747863430041,7.9974826908536771,7.617390595365797,7.2372984998793655,6.6142969873873518,5.8871881590018438,5.1600793306177648,4.4329705022351185,3.7058616738538808,2.9787528454741037,2.2516440170957428,1.5245351887187837,0.79742636034328318,0.070317531969185429,-0.65679129640346856,-1.383900124774702,-2.1110089531444975,-2.8381177815128882,-3.5652266098798227,-4.292335438245348,-5.0194442666094394,-5.7465530949720973,-6.4736619233333332,-7.2007707516931445,-8.22129339893376,-9.3151729676454949,-10.409052536355684,-11.502932105064321,-12.596811673771407,-13.690691242476948,-14.78457081118095,-15.878450379883388,-16.972329948584278,-18.066209517283667,-19.160089085981447,-20.253968654677724,-21.347848223372385,-22.441727792065588,-23.535607360757162,-24.629486929447264,-25.723366498135764,-26.817246066822765,-27.911125635508181,-29.005005204192038,-30.439683176820779,-31.912231217984413,-33.384779259146512,-34.857327300306984,-36.329875341465886,-37.8024233826232,-39.274971423778936,-40.747519464933056,-42.220067506085634,-43.692615547236613,-45.165163588386029,-46.637711629533911,-48.110259670680094,-49.582807711824728,-51.055355752967813,-52.527903794109307,-54.000451835249194,-55.47299987638749,-56.945547917524266,-58.418095958659393,0,0.03357085581313634,0.0901858144291908,0.1825031164371955,0.31885515185408486,0.5000095796726185,0.72618571244902252,0.99722245859211511,1.3125396690362197,1.6709701474288221,1.9370765944206065,2.5553697832041209
DP 238,74.804149831751118,0.0044245292043898887,-30.554838423482032,-30.132272148633678,-29.709705873784991,-29.287139598935969,-28.86457332408661,-28.442007049236906,-28.019440774386851,-27.596874499536476,-27.174308224685756,-26.751741949834713,-26.329175674983286,-25.906609400131558,-25.4840431252795,-25.061476850427081,-24.638910575574325,-24.216344300721239,-23.793778025867798,-23.371211751014052,-22.948645476159939,-22.526079201305464,-22.106568341425131,-21.714556505125366,-21.322544668825223,-20.9305328325247,-20.538520996223792,-20.146509159922513,-19.754497323620864,-19.362485487318818,-18.970473651016409,-18.5784618147136,-18.186449978410433,-17.79443814210687,-17.40242630580293,-17.010414469498613,-16.618402633193938,-16.226390796888872,-15.834378960583413,-15.442367124277586,-15.050355287971369,-14.658343451664782,-14.278916452755125,-13.949829398211108,-13.620742343666606,-13.291655289121598,-12.962568234576091,-12.633481180030072,-12.304394125483572,-11.975307070936568,-11.646220016389066,-11.31713296184107,-10.988045907292571,-10.658958852743567,-10.329871798194066,-10.000784743644065,-9.6716976890935662,-9.3426106345425755,-9.0135235799910749,-8.6844365254390823,-8.355349470886587,-8.0262624163336,-7.7249153533515846,-7.4882958113859175,-7.2516762694197281,-7.0150567274530289,-6.7784371854858136,-6.541817643518085,-6.3051981015498342,-6.0685785595810717,-5.8319590176117959,-5.5953394756420014,-5.3587199336716864,-5.122100391700867,-4.8854808497295235,-4.6488613077576675,-4.4122417657852955,-4.1756222238124057,-3.9390026818390029,-3.7023831398650833,-3.465763597890648,-3.2291440559156959,-3.0403782650298057,-2.9233942315922037,-2.8064101981539991,-2.6894261647151865,-2.5724421312757673,-2.45545809783574,-2.3384740643951103,-2.2214900309538717,-2.104505997512029,-1.9875219640695763,-1.8705379306265204,-1.7535538971828588,-1.6365698637385884,-1.5195858302937153,-1.4026017968482332,-1.2856177634021471,-1.1686337299554539,-1.0516496965081499,-0.93466566306024379,-0.8176816296117333,-0.82651326119367352,-0.85344299257388923,-0.8803727239534459,-0.9073024553323461,-0.93423218671058594,-0.961161918088167,-0.98809164946508532,-1.0150213808413555,-1.0419511122169582,-1.0688808435919077,-1.0958105749661942,-1.1227403063398211,-1.1496700377127944,-1.1765997690851067,-1.2035295004567599,-1.2304592318277559,-1.2573889631980915,-1.2843186945677674,-1.4099851673268413,-1.6014776898155607,-1.7929702123035083,-1.9844627347906953,-2.175955257277113,-2.3674477797627671,-2.5589403022476453,-2.7504328247317607,-2.9419253472151112,-3.1334178696976926,-3.3249103921794996,-3.5164029146605471,-3.7078954371408237,-3.899387959620328,-4.0908804820990738,-4.2823730045770443,-4.4738655270542553,-4.6653580495306946,-4.8568505720063575,-5.0483430944812611,-5.3667312210909364,-5.7395048915300952,-6.1122785619684912,-6.4850522324061188,-6.8578259028429835,-7.2305995732790853,-7.6033732437144161,-7.9761469141490009,-8.3489205845828085,-8.72169425501586,-9.09446792544813,-9.467241595879651,-9.8400152663104112,-10.212788936740404,-10.585562607169622,-10.958336277598086,-11.331109948025782,-11.703883618452709,-12.076657288878884,-12.449430959304292,-12.976890894662988,-13.543024223908265,-14.109157553152649,-14.67529088239608,-15.241424211638613,-15.807557540880229,-16.373690870120925,-16.939824199360693,-17.505957528599559,-18.072090857837512,-18.638224187074517,-19.204357516310626,-19.77049084554579,-20.336624174780074,-20.902757504013412,-21.468890833245847,-22.035024162477338,-22.601157491707941,-23.167290820937591,-23.733424150166353,-24.48033237432475,-25.247328596493372,-26.014324818661041,-26.781321040827716,-27.548317262993454,-28.3153134851582,-29.082309707321983,-29.849305929484757,-30.616302151646597,-31.383298373807506,-32.150294595967345,-32.917290818126325,-33.684287040284289,-34.451283262441287,-35.218279484597296,-35.985275706752326,-36.752271928906367,-37.519268151059464,-38.2862643732116,-39.053260595362751,0,0.031384591223417725,0.067825234304887475,0.11916367603175498,0.1935231203045775,0.29155108788338729,0.413346717317063,0.55885379324033313,0.72787471061649234,0.919945684683974,1.061201060017797,1.3910477239984094
DP 239,206.91128632174303,0.0057708882415356162,-83.153092200624172,-81.447242626020042,-79.741393051413453,-78.035543476804335,-76.329693902192659,-74.62384432757851,-72.917994752961846,-71.212145178342652,-69.506295603720957,-67.800446029096719,-66.094596454470008,-64.388746879840738,-62.682897305208883,-60.977047730574682,-59.271198155937867,-57.565348581298579,-55.859499006656748,-54.153649432012386,-52.447799857365524,-50.741950282716104,-49.049197141473449,-47.4743131388423,-45.899429136208653,-44.324545133572407,-42.749661130933667,-41.174777128292405,-39.599893125648542,-38.025009123002185,-36.45012512035332,-34.8752411177019,-33.300357115047916,-31.7254731123914,-30.150589109732348,-28.575705107070764,-27.000821104406626,-25.425937101739972,-23.851053099070764,-22.27616909639903,-20.701285093724749,-19.126401091047942,-17.604932998310762,-16.297131069849897,-14.989329141386458,-13.681527212920432,-12.373725284451808,-11.065923355980605,-9.7581214275068113,-8.4503194990304227,-7.1425175705514627,-5.8347156420699031,-4.52691371358575,-3.2191117850989985,-1.9113098566096716,-0.60350792811775078,0.70429400037675827,2.0120959288738569,3.3198978573735429,4.6276997858758131,5.9355017143806617,7.2433036428881135,8.43541640641702,9.357584139920565,10.279751873426745,11.201919606935553,12.124087340446986,13.046255073961072,13.968422807477792,14.890590540997115,15.8127582745191,16.734926008043711,17.657093741570918,18.579261475100807,19.501429208633308,20.423596942168423,21.345764675706203,22.2679324092466,23.190100142789657,24.112267876335306,25.0344356098836,25.956603343434523,26.683491535871376,27.117455802056242,27.55142006824385,27.98538433443408,28.419348600627057,28.8533128668227,29.287277133021039,29.721241399222052,30.155205665425758,30.589169931632149,31.023134197841227,31.457098464052958,31.891062730267418,32.32502699648456,32.758991262704356,33.192955528926852,33.626919795152055,34.060884061379937,34.494848327610462,34.928812593843716,34.799114703093728,34.660441611021035,34.521768518951049,34.383095426883784,34.2444223348193,34.105749242757547,33.967076150698489,33.828403058642174,33.689729966588594,33.551056874537778,33.412383782489655,33.2737106904443,33.135037598401652,32.996364506361729,32.857691414324535,32.719018322290118,32.580345230258395,32.441672138229457,31.919964734656681,31.142895089176225,30.365825443698608,29.588755798223854,28.811686152751964,28.034616507282895,27.257546861816753,26.480477216353435,25.703407570892953,24.926337925435366,24.14926827998065,23.372198634528797,22.595128989079782,21.818059343633653,21.040989698190355,20.263920052749938,19.486850407312353,18.709780761877667,17.932711116445848,17.155641471016885,15.897837617887946,14.433998327192279,12.970159036499432,11.506319745809421,10.042480455122194,8.57864116443786,7.11480187375631,5.6509625830775461,4.1871232924016644,2.7232840017285609,1.2594447110583062,-0.20439457960914023,-1.6682338702737392,-3.1320731609355632,-4.5959124515945087,-6.0597517422506666,-7.5235910329039886,-8.98743032355447,-10.451269614202161,-11.915108904847012,-13.954111775387425,-16.136912336590065,-18.319712897789667,-20.502513458986261,-22.68531402017981,-24.868114581370314,-27.05091514255783,-29.233715703742252,-31.416516264923654,-33.599316826102083,-35.782117387277417,-37.964917948449774,-40.147718509619,-42.330519070785307,-44.513319631948491,-46.69612019310869,-48.878920754265813,-51.06172131541998,-53.244521876571014,-55.42732243771917,-58.273999359356559,-61.194447293356269,-64.114895227352932,-67.035343161346361,-69.9557910953369,-72.876239029324182,-75.796686963308446,-78.717134897289469,-81.637582831267608,-84.55803076524252,-87.478478699214378,-90.398926633183208,-93.319374567148841,-96.239822501111433,-99.160270435070956,-102.08071836902738,-105.00116630298065,-107.92161423693071,-110.84206217087802,-113.76251010482183,0,0.063466671122779664,0.17390586903775668,0.35581122209535015,0.62471795250521178,0.9821667910148274,1.4286250773956184,1.9637804020095841,2.5864690137272244,3.2943487963724944,3.8200376453202392,5.0407782582556582
DP 240,93.6195941905322,0.004745104025154977,-39.484299837958609,-38.855138558592856,-38.2259772792264,-37.596815999859189,-36.967654720491332,-36.338493441122736,-35.709332161753444,-35.080170882383406,-34.451009603012778,-33.821848323641333,-33.192687044269235,-32.56352576489639,-31.934364485522906,-31.305203206148672,-30.676041926773731,-30.046880647398094,-29.417719368021768,-28.788558088644702,-28.159396809266994,-27.530235529888508,-26.905631523901938,-26.322043409220992,-25.738455294539296,-25.154867179856844,-24.571279065173677,-23.987690950489764,-23.40410283580508,-22.820514721119668,-22.236926606433521,-21.653338491746648,-21.069750377058998,-20.486162262370627,-19.902574147681484,-19.318986032991617,-18.735397918301025,-18.151809803609652,-17.568221688917578,-16.984633574224727,-16.401045459531129,-15.817457344836827,-15.252642479628117,-14.762921499613935,-14.273200519598916,-13.783479539583015,-13.293758559566275,-12.804037579548684,-12.314316599530235,-11.824595619510919,-11.334874639490772,-10.845153659469766,-10.355432679447883,-9.8657116994251659,-9.37599071940159,-8.8862697393771484,-8.3965487593518677,-7.9068277793257264,-7.4171067992987219,-6.9273858192708762,-6.4376648392421769,-5.9479438592126153,-5.4995866947993353,-5.1477464034273668,-4.7959061120545146,-4.4440658206807928,-4.0922255293061891,-3.7403852379307128,-3.3885449465543585,-3.036704655177124,-2.684864363799019,-2.3330240724200326,-1.9811837810401725,-1.6293434896594374,-1.2775031982778216,-0.92566290689533137,-0.57382261551196223,-0.221982324127717,0.12985796725740414,0.48169825864340454,0.83353855003027988,1.1853788414180295,1.4658932505062015,1.6394171506687623,1.8129410508322836,1.9864649509967676,2.15998885116222,2.3335127513286356,2.5070366514960081,2.6805605516643487,2.85408445183365,3.0276083520039139,3.2011322521751437,3.3746561523473337,3.5481800525204892,3.7217039526946065,3.8952278528696893,4.068751753045734,4.2422756532227437,4.4157995534007162,4.5893234535796479,4.7628473537595468,4.7475108064008147,4.7066710021835547,4.6658311979673011,4.624991393752067,4.5841515895378535,4.5433117853246507,4.5024719811124747,4.4616321769013,4.42079237269115,4.3799525684820093,4.3391127642738958,4.2982729600667948,4.2574331558607081,4.216593351655642,4.1757535474515892,4.134913743248549,4.0940739390465346,4.0532341348455372,3.8654074051461484,3.5795870761916686,3.293766747238319,3.007946418286096,2.722126089335005,2.4363057603850442,2.1504854314362185,1.8646651024885248,1.578844773541954,1.2930244445965196,1.0072041156522269,0.72138378670904968,0.43556345776701022,0.14974312882610935,-0.13607720011367341,-0.42189752905231442,-0.707717857989835,-0.99353818692621687,-1.2793585158614629,-1.5651788447955801,-2.0397847755545682,-2.5953013705751617,-3.150817965594638,-3.7063345606129872,-4.261851155630227,-4.8173677506463166,-5.3728843456612978,-5.9284009406751741,-6.4839175356879011,-7.03943413069953,-7.5949507257100217,-8.1504673207193949,-8.7059839157276446,-9.2615005107347841,-9.8170171057407813,-10.372533700745663,-10.928050295749427,-11.48356689075205,-12.039083485753579,-12.59460008075396,-13.38016325092372,-14.22324078293828,-15.066318314951571,-15.909395846963539,-16.752473378974237,-17.595550910983647,-18.438628442991774,-19.28170597499858,-20.124783507004135,-20.967861039008394,-21.810938571011345,-22.654016103013,-23.497093635013371,-24.340171167012475,-25.183248699010267,-26.026326231006802,-26.869403763001991,-27.712481294995925,-28.55555882698857,-29.398636358979918,-30.510474115610261,-31.652176942055206,-32.793879768498833,-33.9355825949411,-35.077285421382008,-36.218988247821564,-37.3606910742598,-38.502393900696646,-39.644096727132187,-40.785799553566342,-41.92750237999919,-43.069205206430738,-44.210908032860871,-45.352610859289676,-46.49431368571716,-47.636016512143271,-48.777719338568048,-49.919422164991424,-51.06112499141355,-52.202827817834283,0,0.036288098659367725,0.085218199712743789,0.15915231338417463,0.26751309390882355,0.41097501257230912,0.58964725849225319,0.80340259793413615,1.0518532326994852,1.3341974202131888,1.5430278858194764,2.0297814351212864
DP 241,182.79703052051386,0.0032054000349567764,-42.7432403201734,-41.889283237977025,-41.035326155779394,-40.181369073580491,-39.327411991380309,-38.473454909178905,-37.6194978269762,-36.765540744772295,-35.911583662567104,-35.057626580360647,-34.203669498152919,-33.349712415943969,-32.495755333733754,-31.641798251522257,-30.787841169309527,-29.933884087095539,-29.079927004880265,-28.225969922663737,-27.372012840445962,-26.518055758226922,-25.670523095221796,-24.880810812415604,-24.091098529608175,-23.301386246799431,-22.511673963989466,-21.721961681178197,-20.932249398365677,-20.142537115551839,-19.352824832736751,-18.5631125499204,-17.77340026710278,-16.983687984283875,-16.193975701463689,-15.404263418642239,-14.614551135819525,-13.824838852995534,-13.035126570170261,-12.245414287343726,-11.45570200451591,-10.665989721686824,-9.9025770911098316,-9.2443643125032313,-8.58615153389531,-7.9279387552860809,-7.2697259766755495,-6.611513198063709,-5.953300419450553,-5.2950876408360923,-4.6368748622203295,-3.9786620836032518,-3.3204493049848622,-2.6622365263651671,-2.0040237477441627,-1.3458109691218505,-0.68759819049822946,-0.02938541187329911,0.628827366752938,1.2870401453804809,1.9452529240093306,2.6034657026394914,3.2043790200558377,3.6715917892775951,4.1388045585006914,4.6060173277251133,5.0732300969508692,5.5404428661779619,6.0076556354063753,6.4748684046361245,6.9420811738672024,7.4092939430996205,7.8765067123333568,8.3437194815684332,8.8109322508048447,9.2781450200425741,9.7453577892816465,10.212570558522048,10.679783327763781,11.146996097006843,11.614208866251246,12.081421635496973,12.45117643305497,12.674741970087036,12.898307507120448,13.12187304415523,13.345438581191386,13.569004118228905,13.792569655267787,14.016135192308036,14.239700729349655,14.463266266392631,14.686831803436959,14.910397340482698,15.133962877529768,15.357528414578205,15.581093951628022,15.80465948867919,16.028225025731732,16.25179056278564,16.475356099840916,16.698921636897534,16.648896784084055,16.584173190559344,16.519449597036036,16.454726003514097,16.390002409993564,16.325278816474427,16.260555222956693,16.195831629440335,16.131108035925397,16.066384442411834,16.001660848899668,15.936937255388878,15.872213661879503,15.807490068371518,15.742766474864915,15.67804288135971,15.613319287855916,15.548595694353493,15.289298783528031,14.90028326256871,14.511267741610856,14.122252220654476,13.733236699699562,13.344221178746086,12.955205657794112,12.566190136843584,12.177174615894526,11.788159094946927,11.399143574000801,11.01012805305615,10.621112532112956,10.232097011171232,9.8430814902309649,9.4540659692921718,9.0650504483548353,8.676034927418975,8.2870194064845712,7.89800388555165,7.2627348485398873,6.5219252651617881,5.7811156817851233,5.0403060984099177,4.2994965150361359,3.558686931663833,2.8178773482929667,2.0770677649235219,1.3362581815555541,0.59544859818900864,-0.14536098517607315,-0.88617056853971643,-1.626980151901902,-2.3677897352626647,-3.1085993186219509,-3.8494089019798117,-4.5902184853362149,-5.3310280686911664,-6.0718376520446844,-6.8126472353967467,-7.8500889645650034,-8.9616922349634756,-10.073295505360393,-11.184898775755736,-12.296502046149543,-13.408105316541759,-14.519708586932447,-15.631311857321535,-16.742915127709068,-17.854518398095063,-18.96612166847947,-20.077724938862321,-21.189328209243595,-22.300931479623358,-23.412534750001498,-24.5241380203781,-25.635741290753124,-26.747344561126617,-27.858947831498529,-28.970551101868889,-30.426069174144448,-31.919803614124742,-33.413538054103448,-34.907272494080523,-36.401006934056007,-37.89474137402992,-39.38847581400217,-40.882210253972858,-42.375944693941982,-43.869679133909479,-45.3634135738754,-46.857148013839684,-48.350882453802427,-49.844616893763536,-51.338351333723061,-52.832085773680973,-54.325820213637314,-55.819554653592014,-57.313289093545144,-58.80702353349664,0,0.033420073543330209,0.090491263623151755,0.18392212187241128,0.32196534261926829,0.50540311809939142,0.73446432464646472,1.0089871292296022,1.3283800867640321,1.6914533326174941,1.9610379776566722,2.5872767437813553
DP 242,263.19563861782234,0.0017200885838757592,-28.86310229457472,-28.242488742418697,-27.621875190261775,-27.001261638103976,-26.380648085945332,-25.76003453378576,-25.139420981625324,-24.518807429463983,-23.898193877301793,-23.2775803251387,-22.656966772974744,-22.036353220809879,-21.415739668644168,-20.795126116477547,-20.174512564310056,-19.55389901214167,-18.933285459972417,-18.312671907802276,-17.692058355631264,-17.07144480345935,-16.455883574532692,-15.885793732387585,-15.315703890241602,-14.74561404809473,-14.175524205946973,-13.605434363798329,-13.035344521648812,-12.465254679498385,-11.895164837347075,-11.325074995194887,-10.754985153041819,-10.184895310887855,-9.6148054687330067,-9.0447156265772648,-8.47462578442066,-7.9045359422631467,-7.334446100104751,-6.7643562579454786,-6.1942664157853029,-5.6241765736242613,-5.0744772780410639,-4.6063411324575538,-4.1382049868731459,-3.6700688412878466,-3.2019326957016521,-2.7337965501145658,-2.2656604045265825,-1.7975242589377038,-1.3293881133479335,-0.86125196775726853,-0.39311582216570673,0.075020323426752453,0.54315646902010384,1.0112926146143488,1.4794287602094918,1.9475649058055249,2.4157010514024555,2.8838371970002759,3.3519733425989906,3.8201094881985997,4.2448310564344318,4.5682505762704153,4.8916700961073136,5.2150896159451205,5.5385091357838316,5.861928655623454,6.1853481754639841,6.5087676953054263,6.83218721514777,7.1556067349910295,7.4790262548351842,7.8024457746802671,8.125865294526248,8.4492848143731418,8.7727043342209363,9.0961238540696439,9.4195433739192627,9.742962893769791,10.066382413621225,10.389801933473564,10.641561059140761,10.785827900149203,10.930094741158564,11.074361582168855,11.218628423180052,11.362895264192174,11.507162105205225,11.65142894621918,11.795695787234068,11.939962628249862,12.084229469266598,12.228496310284246,12.3727631513028,12.517029992322302,12.661296833342712,12.805563674364036,12.949830515386273,13.094097356409439,13.238364197433533,13.382631038458541,13.303648713187371,13.243202027878947,13.182755342571459,13.122308657264902,13.061861971959297,13.00141528665459,12.940968601350841,12.880521916048004,12.820075230746118,12.759628545445169,12.699181860145135,12.638735174846058,12.578288489547889,12.517841804250658,12.457395118954366,12.396948433659011,12.336501748364576,12.276055063071089,12.082408101695794,11.799958857867303,11.517509614039755,11.2350603702132,10.952611126387614,10.670161882562994,10.387712638739339,10.105263394916669,9.8228141510949474,9.5403649072742045,9.2579156634544368,8.9754664196356426,8.69301717581781,8.4105679320009532,8.1281186881850651,7.8456694443701434,7.56322020055619,7.2807709567432131,6.9983217129312019,6.7158724691201721,6.270601524580572,5.7555476525570484,5.2404937805344787,4.7254399085128664,4.2103860364922063,3.6953321644725183,3.1802782924537771,2.6652244204359778,2.150170548419156,1.6351166764032723,1.1200628043883567,0.60500893237438991,0.089955060361389019,-0.42509881165067276,-0.94015268366175841,-1.4552065556719027,-1.9702604276810805,-2.4853142996893034,-3.0003681716965755,-3.515422043702888,-4.2210430725534467,-4.9743081422092956,-5.7275732118641267,-6.4808382815179382,-7.2341033511707336,-7.98736842082251,-8.7406334904732752,-9.4938985601230073,-10.247163629771721,-11.000428699419437,-11.753693769066105,-12.506958838711785,-13.260223908356403,-14.013488978000042,-14.766754047642642,-15.520019117284242,-16.273284186924808,-17.026549256564365,-17.779814326202889,-18.53307939584041,-19.503103051021768,-20.497213269975337,-21.491323488927872,-22.485433707879345,-23.479543926829784,-24.4736541457792,-25.467764364727554,-26.461874583674856,-27.455984802621192,-28.45009502156644,-29.444205240510673,-30.438315459453868,-31.432425678396015,-32.426535897337153,-33.420646116277233,-34.414756335216289,-35.408866554154315,-36.402976773091261,-37.397086992027255,-38.3911972109621,0,0.020690626744128419,0.05761939972165394,0.11898148381441068,0.2097667423683833,0.33050483660604607,0.48136370544755391,0.662239352458502,0.87273329493580565,1.1120433891839434,1.2897922881745587,1.7023384738784584
DP 243,169.97038306727777,0.0016324786523950821,-20.788918854570642,-20.380473402265068,-19.9720279499589,-19.563582497652128,-19.155137045344777,-18.746691593036822,-18.338246140728259,-17.929800688419093,-17.521355236109343,-17.112909783798962,-16.704464331488019,-16.296018879176465,-15.887573426864314,-15.479127974551574,-15.070682522238219,-14.662237069924283,-14.253791617609739,-13.8453461652946,-13.436900712978865,-13.028455260662529,-12.623054598506654,-12.245057335606417,-11.867060072705572,-11.489062809804121,-11.111065546902067,-10.733068283999414,-10.355071021096141,-9.9770737581922582,-9.5990764952877861,-9.2210792323826922,-8.8430819694770033,-8.4650847065707016,-8.0870874436638,-7.7090901807562915,-7.3310929178481734,-6.9530956549394531,-6.5750983920301227,-6.1971011291201847,-5.8191038662096428,-5.4411066032984978,-5.0755944908426471,-4.7600235702753526,-4.4444526497074346,-4.1288817291388948,-3.813310808569724,-3.4977398879999337,-3.18216896742951,-2.8665980468584626,-2.55102712628679,-2.23545620571449,-1.9198852851415629,-1.6043143645680071,-1.2887434439938268,-0.97317252341901939,-0.65760160284358615,-0.34203068226752592,-0.026459761690840508,0.28911115888647038,0.60468207946440644,0.92025300004297006,1.2085496580397772,1.4332055106688515,1.6578613632985681,1.882517215928919,2.1071730685599075,2.3318289211915348,2.5564847738237986,2.7811406264567,3.0057964790902387,3.2304523317244183,3.4551081843592324,3.6797640369946842,3.9044198896307756,4.1290757422675011,4.3537315949048692,4.5783874475428723,4.8030433001815114,5.0276991528207935,5.2523550054607115,5.477010858101262,5.6551183611834448,5.7634022399607145,5.8716861187386371,5.9799699975172187,6.0882538762964584,6.196537755076351,6.3048216338569025,6.4131055126381105,6.5213893914199712,6.629673270202499,6.73795714898567,6.8462410277695094,6.9545249065539929,7.06280878533914,7.1710926641249424,7.2793765429114048,7.3876604216985182,7.49594430048629,7.6042281792747133,7.7125120580638011,7.6917936099577684,7.6618491936477966,7.6319047773384971,7.6019603610298621,7.5720159447219046,7.542071528414616,7.5121271121080042,7.4821826958020541,7.4522382794967763,7.42229386319217,7.3923494468882431,7.3624050305849762,7.332460614282386,7.3025161979804736,7.2725717816792166,7.2426273653786453,7.2126829490787427,7.1827385327795055,7.0591310833033241,6.8730801361688325,6.6870291890350542,6.5009782419019713,6.3149272947696007,6.1288763476379389,5.9428254005069867,5.7567744533767344,5.570723506247198,5.3846725591183668,5.1986216119902542,5.012570664862837,4.8265197177361339,4.6404687706101422,4.4544178234848495,4.2683668763602745,4.0823159292364011,3.896264982113236,3.7102140349907828,3.5241630878690411,3.2191375256424148,2.8631212361285687,2.5071049466154225,2.1510886571029766,1.7950723675912232,1.4390560780801811,1.0830397885698348,0.7270234990601756,0.37100720955123007,0.014990920042972212,-0.34102536946457851,-0.69704165897143433,-1.0530579484775844,-1.4090742379830481,-1.765090527487797,-2.1211068169918574,-2.4771231064952133,-2.8331393959978666,-3.1891556854998275,-3.54517197500109,-4.044924584287493,-4.5806129717974446,-5.1163013593066413,-5.651989746815083,-6.1876781343227654,-6.7233665218296865,-7.2590549093358572,-7.794743296841256,-8.330431684345907,-8.8661200718498048,-9.40180845935293,-9.9374968468553089,-10.47318523435691,-11.008873621857783,-11.544562009357865,-12.080250396857215,-12.615938784355791,-13.151627171853621,-13.687315559350692,-14.223003946846996,-14.925660126802796,-15.6468700372643,-16.368079947725047,-17.089289858184987,-17.81049976864416,-18.531709679102573,-19.252919589560186,-19.974129500017028,-20.6953394104731,-21.4165493209284,-22.137759231382898,-22.858969141836667,-23.580179052289648,-24.301388962741857,-25.022598873193235,-25.743808783643878,-26.465018694093786,-27.186228604542826,-27.907438514991163,-28.628648425438687,0,0.016465699473612597,0.044207084005077696,0.089428878738987153,0.15621946419102359,0.24495467335084628,0.35574166023662446,0.4885015385784206,0.64295026531983546,0.81851637385420628,0.94885917038534218,1.2517131474043701
DP 244,160.74886379165795,0.0049968973828516889,-61.393476750731914,-60.203564457371627,-59.013652164009592,-57.823739870645852,-56.633827577280336,-55.443915283913164,-54.254002990544251,-53.064090697173548,-51.874178403801174,-50.684266110427053,-49.494353817051177,-48.304441523673596,-47.114529230294288,-45.924616936913267,-44.73470464353052,-43.544792350146004,-42.354880056759782,-41.164967763371777,-39.975055469982124,-38.785143176590729,-37.604049540959224,-36.502324658758639,-35.400599776556327,-34.298874894352238,-33.197150012146373,-32.095425129938782,-30.993700247729429,-29.891975365518309,-28.790250483305439,-27.6885256010908,-26.586800718874457,-25.485075836656328,-24.383350954436448,-23.2816260722148,-22.179901189991419,-21.078176307766256,-19.976451425539341,-18.874726543310683,-17.773001661080279,-16.6712767788481,-15.605751822526758,-14.685028280712789,-13.764304738897014,-12.843581197079409,-11.922857655259987,-11.002134113438744,-10.081410571615681,-9.16068702979079,-8.23996348796408,-7.3192399461355464,-6.3985164043051874,-5.4777928624730077,-4.5570693206390036,-3.636345778803181,-2.7156222369655385,-1.7948986951260693,-0.8741751532847799,0.046548388558326458,0.96727193040325188,1.8879954722500047,2.7295050687732116,3.3861796303753393,4.0428541919793286,4.6995287535851675,5.3562033151928592,6.0128778768024143,6.6695524384138194,7.3262270000270879,7.982901561642203,8.6395761232591788,9.2962506848780073,9.9529252464986833,10.609599808121223,11.266274369745618,11.922948931371874,12.579623492999993,13.236298054629945,13.892972616261764,14.549647177895446,15.206321739530967,15.727511510974949,16.045470895539118,16.363430280105195,16.681389664673215,16.99934904924314,17.317308433814972,17.63526781838873,17.953227202964388,18.271186587541983,18.589145972121482,18.907105356702921,19.225064741286253,19.54302412587149,19.860983510458659,20.178942895047733,20.496902279638753,20.814861664231668,21.132821048826514,21.450780433423244,21.768739818021917,21.7143253168001,21.628966876950958,21.543608437103781,21.458249997258541,21.372891557415272,21.287533117573993,21.202174677734661,21.116816237897286,21.031457798061869,20.946099358228434,20.860740918396953,20.775382478567426,20.690024038739864,20.60466559891427,20.51930715909063,20.433948719268955,20.348590279449247,20.2632318396315,19.903910585837679,19.361943140128819,18.819975694422048,18.278008248717345,17.736040803014713,17.194073357314167,16.652105911615671,16.110138465919292,15.568171020224961,15.02620357453271,14.484236128842555,13.942268683154456,13.400301237468446,12.85833379178451,12.316366346102651,11.774398900422861,11.23243145474515,10.690464009069514,10.148496563395964,9.6065291177244987,8.7157692316428363,7.6755221613150129,6.6352750909892233,5.5950280206655041,4.5547809503438064,3.5145338800242016,2.4742868097066344,1.4340397393910838,0.39379266907762656,-0.64645440123381515,-1.6867014715431818,-2.7269485418505091,-3.767195612155771,-4.8074426824590129,-5.8476897527601635,-6.8879368230592943,-7.9281838933563584,-8.9684309636513611,-10.008678033944333,-11.048925104235259,-12.511329914301436,-14.07927914720101,-15.647228380098348,-17.215177612993458,-18.783126845886361,-20.351076078777009,-21.919025311665454,-23.486974544551622,-25.054923777435583,-26.622873010317356,-28.19082224319682,-29.758771476074095,-31.326720708949086,-32.894669941821945,-34.4626191746925,-36.030568407560857,-37.598517640426941,-39.16646687329083,-40.734416106152459,-42.302365339011921,-44.361282688776186,-46.474757207882845,-48.5882317269873,-50.7017062460894,-52.815180765189247,-54.928655284286762,-57.042129803382053,-59.155604322474971,-61.269078841565694,-63.382553360654114,-65.496027879740211,-67.609502398824077,-69.72297691790564,-71.836451436984959,-73.949925956061847,-76.063400475136589,-78.176874994208973,-80.290349513279082,-82.403824032346961,-84.5172985514124,0,0.049100729429048418,0.13085477246101573,0.263632358700295,0.45967805438979148,0.72008951668492827,1.0451721309842674,1.4346930179451212,1.8878238741980742,2.4028981639628948,2.7852517153901131,3.6738315985307
DP 245,125.70628023393749,0.0018546996783337054,-19.294369612322722,-18.946160084774831,-18.597950557226451,-18.249741029677619,-17.901531502128304,-17.553321974578527,-17.205112447028281,-16.856902919477537,-16.508693391926325,-16.160483864374665,-15.812274336822524,-15.46406480926991,-15.115855281716822,-14.767645754163258,-14.41943622660923,-14.071226699054726,-13.723017171499745,-13.374807643944294,-13.026598116388366,-12.678388588831988,-12.332719043091958,-12.009909573793017,-11.687100104493599,-11.36429063519369,-11.041481165893288,-10.718671696592413,-10.395862227291051,-10.073052757989206,-9.7502432886868764,-9.427433819384067,-9.1046243500807673,-8.78181488077698,-8.45900541147271,-8.13619594216796,-7.8133864728627245,-7.4905770035570054,-7.1677675342507987,-6.8449580649441133,-6.5221485956369385,-6.1993391263292885,-5.8869834620222967,-5.6164435117807923,-5.3459035615387718,-5.0753636112962317,-4.80482366105318,-4.5342837108096088,-4.2637437605655153,-3.9932038103209062,-3.7226638600757811,-3.452123909830136,-3.1815839595839734,-2.9110440093372931,-2.6405040590900923,-2.369964108842376,-2.0994241585941409,-1.8288842083453885,-1.5583442580961187,-1.2878043078463319,-1.0172643575960285,-0.74672440734520629,-0.49916886721514797,-0.30524434154799779,-0.11131981588031586,0.082604709787892583,0.27652923545662872,0.47045376112589476,0.66437828679568889,0.8583028124660137,1.0522273381368641,1.2461518638082469,1.4400763894801536,1.6340009151525894,1.8279254408255563,2.0218499664990515,2.2157744921730731,2.4096990178476245,2.6036235435227066,2.7975480691983177,2.9914725948744545,3.1853971205511193,3.3397796048384167,3.4348480926378726,3.52991658043789,3.6249850682384586,3.7200535560395878,3.8151220438412765,3.9101905316435164,4.0052590194463118,4.1003275072496645,4.1953959950535742,4.2904644828580452,4.3855329706630668,4.4806014584686444,4.5756699462747807,4.6707384340814695,4.76580692188872,4.8608754096965265,4.9559438975048886,5.0510123853138067,5.1460808731232763,5.13505052033362,5.1116244576512146,5.0881983949693828,5.0647723322881273,5.0413462696074527,5.0179202069273421,4.9944941442478159,4.9710680815688635,4.9476420188904822,4.9242159562126808,4.9007898935354524,4.8773638308587994,4.8539377681827247,4.8305117055072184,4.8070856428322912,4.7836595801579405,4.7602335174841652,4.736807454810962,4.6323524152849185,4.4738767813499045,4.3154011474155132,4.1569255134817373,3.9984498795485779,3.8399742456160393,3.681498611684126,3.52302297775282,3.3645473438221365,3.2060717098920715,3.0475960759626308,2.8891204420338052,2.7306448081055987,2.5721691741780148,2.4136935402510442,2.2552179063246975,2.0967422723989615,1.9382666384738507,1.7797910045493586,1.621315370625487,1.3590437227776158,1.0522866673927376,0.7455296120084689,0.43877255662481746,0.13201550124176847,-0.17474155414065498,-0.48149860952246964,-0.78825566490368415,-1.0950127202842717,-1.4017697756642591,-1.7085268310436279,-2.0152838864223872,-2.3220409418005286,-2.6287979971780682,-2.9355550525549825,-3.2423121079312942,-3.549069163306994,-3.8558262186820751,-4.162583274056546,-4.4693403294304082,-4.902335316264355,-5.36689127749314,-5.8314472387212515,-6.296003199948685,-6.7605591611754434,-7.2251151224015171,-7.6896710836269193,-8.1542270448516341,-8.6187830060756774,-9.0833389672990528,-9.5478949285217318,-10.012450889743736,-10.477006850965052,-10.94156281218571,-11.406118773405675,-11.870674734624977,-12.335230695843588,-12.799786657061524,-13.264342618278782,-13.72889857949537,-14.340735188378451,-14.96893786047205,-15.597140532564937,-16.225343204657115,-16.853545876748591,-17.481748548839377,-18.10995122092946,-18.738153893018843,-19.366356565107537,-19.994559237195514,-20.6227619092828,-21.250964581369409,-21.879167253455289,-22.507369925540488,-23.135572597624957,-23.763775269708759,-24.391977941791872,-25.020180613874246,-25.64838328595598,-26.276585958036932,0,0.016186025272078557,0.041285267391658963,0.0811477556259965,0.13989129840745554,0.21784167848622615,0.31507553650320941,0.43152130745972483,0.56694118350106082,0.72085577091805331,0.83501127050768087,1.1005910997351347
DP 246,203.92817629522887,0.0032472857752461146,-46.368417726485653,-45.420033999513024,-44.471650272538987,-43.52326654556353,-42.574882818586694,-41.626499091608459,-40.6781153646288,-39.729731637647795,-38.781347910665339,-37.83296418368149,-36.884580456696249,-35.936196729709607,-34.987813002721566,-34.03942927573214,-33.091045548741285,-32.14266182174908,-31.194278094755436,-30.24589436776041,-29.297510640763949,-28.349126913766138,-27.408004532940463,-26.532234954049,-25.656465375156177,-24.780695796261909,-23.904926217366231,-23.029156638469136,-22.153387059570651,-21.277617480670706,-20.401847901769404,-19.526078322866674,-18.650308743962519,-17.774539165056957,-16.898769586149978,-16.023000007241588,-15.147230428331818,-14.271460849420581,-13.395691270507973,-12.51992169159394,-11.644152112678487,-10.768382533761624,-9.92224432459174,-9.1946329948337429,-8.4670216650742951,-7.7394103353134049,-7.0117990055510777,-6.2841876757873072,-5.556576346022096,-4.8289650162554434,-4.1013536864873519,-3.3737423567178157,-2.6461310269468381,-1.9185196971744141,-1.1909083674005516,-0.4632970376252461,0.26431429215150065,0.99192562192968958,1.7195369517093182,2.4471482814903873,3.1747596112728953,3.9023709410568448,4.5657549757097531,5.0792732980825566,5.59279162045683,6.1063099428325582,6.6198282652097635,7.133346587588437,7.6468649099685626,8.1603832323501688,8.6739015547332343,9.1874198771177671,9.7009381995037529,10.214456521891222,10.727974844280153,11.241493166670535,11.755011489062408,12.268529811455744,12.782048133850525,13.295566456246798,13.809084778644532,14.322603101043722,14.727598944888415,14.969808506445611,15.212018068004289,15.454227629564469,15.696437191126169,15.938646752689325,16.180856314254008,16.423065875820178,16.665275437387837,16.907484998957,17.149694560527671,17.391904122099834,17.634113683673483,17.876323245248628,18.118532806825293,18.360742368403429,18.602951929983057,18.845161491564202,19.087371053146843,19.329580614730972,19.259688472457341,19.183289100925837,19.106889729395853,19.030490357867411,18.954090986340471,18.877691614815056,18.801292243291179,18.724892871768805,18.648493500247969,18.572094128728651,18.495694757210881,18.4192953856946,18.342896014179864,18.266496642666645,18.190097271154954,18.113697899644784,18.037298528136123,17.960899156629004,17.671125566048048,17.239099134648733,16.807072703251013,16.375046271854906,15.943019840460371,15.510993409067421,15.078966977676089,14.64694054628635,14.214914114898212,13.782887683511662,13.35086125212672,12.918834820743356,12.486808389361595,12.054781957981437,11.622755526602866,11.190729095225889,10.758702663850512,10.326676232476739,9.8946498011045545,9.4626233697339757,8.762493902701344,7.9474595144443994,7.1324251261890117,6.3173907379352112,5.5023563496829615,4.6873219614323229,3.87228757318325,3.0572531849357207,2.2422187966898011,1.4271844084454282,0.61215002020264819,-0.20288436803856685,-1.0179187562781937,-1.8329531445162728,-2.6479875327527478,-3.4630219209876678,-4.2780563092210029,-5.0930906974527588,-5.9081250856829568,-6.7231594739115668,-7.8592595951499113,-9.0756299431052447,-10.2920002910589,-11.508370639010851,-12.724740986961107,-13.941111334909678,-15.157481682856568,-16.373852030801746,-17.590222378745235,-18.80659272668705,-20.022963074627146,-21.239333422565579,-22.455703770502289,-23.67207411843733,-24.888444466370654,-26.104814814302305,-27.321185162232261,-28.537555510160519,-29.753925858087086,-30.970296206011984,-32.557478701322616,-34.185866440767406,-35.814254180210561,-37.442641919651876,-39.071029659091529,-40.699417398529434,-42.327805137965612,-43.956192877400035,-45.584580616832795,-47.212968356263787,-48.841356095693051,-50.4697438351206,-52.098131574546422,-53.726519313970535,-55.354907053392878,-56.983294792813545,-58.611682532232543,-60.240070271649621,-61.8684580110652,-63.496845750478819,0,0.035498140980426571,0.097147704018215014,0.19862537304062897,0.34862891307425481,0.54801674837780212,0.79704826042579024,1.0955489925487722,1.4428705503569363,1.8377077882758159,2.1309192112932367,2.8118319834513859
DP 247,213.46403602674405,0.002253081111596284,-33.1027328358936,-32.419318249551559,-31.735903663208461,-31.052489076864422,-30.369074490519342,-29.685659904173271,-29.002245317826169,-28.318830731478073,-27.635416145128993,-26.952001558778875,-26.268586972427741,-25.585172386075623,-24.901757799722525,-24.218343213368382,-23.534928627013237,-22.851514040657126,-22.168099454299973,-21.484684867941816,-20.801270281582649,-20.117855695222492,-19.439720289834078,-18.809098012210441,-18.178475734585778,-17.547853456960127,-16.917231179333424,-16.28660890170574,-15.65598662407702,-15.025364346447288,-14.394742068816536,-13.764119791184804,-13.133497513552015,-12.502875235918246,-11.872252958283458,-11.241630680647637,-10.611008403010818,-9.9803861253729771,-9.34976384773412,-8.7191415700942514,-8.08851929245337,-7.4578970148114729,-6.8487820696672452,-6.3256974709831866,-5.8026128722980852,-5.2795282736119589,-4.7564436749248049,-4.2333590762366127,-3.7102744775473844,-3.1871898788571276,-2.66410528016584,-2.1410206814735164,-1.6179360827801592,-1.0948514840857662,-0.57176688539034382,-0.048682286693887022,0.47440231200360289,0.99748691070212514,1.52057150940168,2.0436561081022657,2.5667407068038841,3.0898253055065346,3.566411249857163,3.9344988689970841,4.3025864881380658,4.6706741072800906,5.0387617264231661,5.4068493455672932,5.7749369647124711,6.143024583858697,6.5111122030059736,6.8791998221543089,7.2472874413036825,7.6153750604541051,7.9834626796055783,8.3515502987581058,8.71963791791169,9.0877255370663157,9.4558131562220016,9.8239007753787266,10.191988394536516,10.560076013695332,10.849857299189027,11.022177233756155,11.194497168324354,11.366817102893618,11.539137037463954,11.711456972035363,11.883776906607848,12.05609684118139,12.228416775756,12.400736710331687,12.573056644908453,12.745376579486281,12.917696514065188,13.090016448645148,13.262336383226192,13.434656317808304,13.60697625239149,13.779296186975737,13.951616121561056,14.123936056147437,14.068359258923309,14.011664120181306,13.954968981440405,13.898273842700583,13.841578703961865,13.784883565224208,13.728188426487659,13.671493287752197,13.614798149017819,13.558103010284524,13.501407871552324,13.444712732821218,13.388017594091188,13.331322455362258,13.274627316634426,13.217932177907652,13.161237039181984,13.104541900457409,12.895083039112526,12.583779289425213,12.272475539739046,11.961171790054001,11.649868040370096,11.338564290687334,11.027260541005717,10.715956791325226,10.404653041645872,10.093349291967668,9.7820455422906072,9.4707417926146746,9.1594380429398718,8.8481342932662237,8.5368305435936964,8.2255267939223327,7.9142230442520853,7.6029192945829864,7.2916155449150235,6.9803117952482,6.4777768545688366,5.8932831069529312,5.3087893593381379,4.7242956117244814,4.1398018641119281,3.5553081165005218,2.97081436889023,2.3863206212810439,1.801826873673005,1.2173331260660667,0.63283937846026661,0.048345630855581488,-0.53614811674797036,-1.1206418643504186,-1.7051356119517207,-2.2896293595519186,-2.8741231071509823,-3.4586168547489224,-4.043110602345747,-4.6276043499414463,-5.440405167063787,-6.3102854490676794,-7.180165731070371,-8.0500460130718512,-8.9199262950721288,-9.7898065770712019,-10.659686859069083,-11.52956714106573,-12.399447423061192,-13.269327705055465,-14.139207987048495,-15.009088269040364,-15.878968551030978,-16.748848833020457,-17.618729115008666,-18.488609396995674,-19.358489678981496,-20.228369960966134,-21.098250242949536,-21.968130524931738,-23.101162904295887,-24.263437169325027,-25.425711434352959,-26.587985699379626,-27.750259964405089,-28.9125342294293,-30.074808494452288,-31.237082759474049,-32.399357024494613,-33.561631289513919,-34.72390555453201,-35.886179819548865,-37.048454084564483,-38.210728349578908,-39.373002614592053,-40.535276879603991,-41.697551144614721,-42.859825409624158,-44.022099674632493,-45.184373939639435,0,0.025096009117761033,0.068942042904922882,0.14125806533348909,0.24817416650835786,0.39030455862809632,0.56783690182327418,0.780647246886516,1.0282718362963157,1.3097774696061826,1.5188371297671466,2.0042713458690766
DP 248,112.94477300045742,0.0035289129593083922,-33.959543769062783,-33.370143372752686,-32.780742976441836,-32.1913425801302,-31.60194218381783,-31.012541787504691,-30.423141391190804,-29.833740994876134,-29.244340598560726,-28.654940202244561,-28.065539805927589,-27.476139409609917,-26.886739013291489,-26.297338616972272,-25.707938220652306,-25.118537824331582,-24.529137428010081,-23.939737031687841,-23.350336635364837,-22.760936239041076,-22.175819944766189,-21.629260973889121,-21.08270200301126,-20.536143032132614,-19.989584061253172,-19.443025090372981,-18.896466119491961,-18.349907148610185,-17.803348177727617,-17.256789206844282,-16.710230235960136,-16.163671265075227,-15.617112294189516,-15.070553323303034,-14.523994352415771,-13.977435381527718,-13.430876410638865,-12.88431743974925,-12.337758468858834,-11.791199497967641,-11.262282633839972,-10.803935030559195,-10.34558742727755,-9.88723982399505,-9.4288922207117,-8.9705446174274961,-8.512197014142437,-8.05384941085652,-7.595501807569752,-7.1371542042821305,-6.6788066009936484,-6.2204589977043119,-5.7621113944141165,-5.3037637911230693,-4.84541618783117,-4.38706858453841,-3.9287209812447976,-3.4703733779503354,-3.0120257746550139,-2.5536781713588397,-2.1341586708448648,-1.8052393001988176,-1.476319929551893,-1.1474005589040963,-0.81848118825542693,-0.48956181760588113,-0.1606424469554629,0.16827692369583136,0.49719629434799928,0.82611566500104194,1.1550350356549539,1.4839544063097438,1.8128737769654097,2.1417931476219452,2.4707125182793592,2.7996318889376437,3.1285512595968075,3.4574706302568421,3.7863900009177534,4.1153093715795324,4.3773452958874248,4.5390544701658033,4.7007636444451073,4.8624728187253483,5.0241819930065184,5.18589116728862,5.3476003415716571,5.5093095158556205,5.6710186901405093,5.8327278644263378,5.9944370387130945,6.1561462130007865,6.3178553872894057,6.4795645615789592,6.6412737358694436,6.8029829101608561,6.9646920844532039,7.1264012587464789,7.2881104330406892,7.4498196073358223,7.4331407183206082,7.3941269484045149,7.3551131784893879,7.3160994085752247,7.2770856386620375,7.238071868749814,7.19905809883857,7.1600443289282847,7.1210305590189664,7.0820167891106243,7.0430030192032511,7.0039892492968381,6.9649754793913949,6.9259617094869217,6.8869479395834183,6.8479341696808866,6.808920399779316,6.769906629878724,6.5934399958112841,6.3253359535732629,6.0572319113363031,5.78912786910039,5.5210238268655276,5.2529197846317155,4.9848157423989692,4.716711700167262,4.4486076579366092,4.1805036157070088,3.9123995734784676,3.6442955312509797,3.3761914890245364,3.1080874467991539,2.8399834045748156,2.5718793623515355,2.3037753201293003,2.0356712779081234,1.7675672356880032,1.4994631934689346,1.0550490593813109,0.53507107661446418,0.01509309384865512,-0.50488488891610483,-1.0248628716798374,-1.5448408544425061,-2.0648188372041383,-2.5847968199647475,-3.1047748027242923,-3.6247527854828134,-4.1447307682402785,-4.6647087509967085,-5.1846867337520912,-5.7046647165064455,-6.2246426992597375,-6.7446206820120063,-7.2645986647632173,-7.7845766475133864,-8.3045546302625226,-8.8245326130106143,-9.559156701788508,-10.347444853166301,-11.135733004542935,-11.92402115591841,-12.712309307292715,-13.500597458665837,-14.288885610037818,-15.077173761408604,-15.865461912778228,-16.65375006414672,-17.442038215514,-18.230326366880131,-19.01861451824508,-19.806902669608892,-20.595190820971503,-21.38347897233297,-22.171767123693254,-22.960055275052387,-23.748343426410319,-24.536631577767128,-25.575519167394841,-26.642253770952987,-27.708988374509939,-28.77572297806563,-29.842457581620149,-30.90919218517347,-31.975926788725577,-33.042661392276443,-34.109395995826148,-35.176130599374616,-36.2428652029219,-37.309599806467986,-38.376334410012817,-39.443069013556475,-40.5098036170989,-41.576538220640153,-42.6432728241802,-43.710007427719,-44.776742031256632,-45.843476634793006,0,0.029274301778062922,0.072755907660934455,0.14083814962441346,0.24103227736958047,0.37390222633551373,0.5395660304840687,0.73790111406883574,0.96851419261283456,1.2306090611629481,1.4248675426132777,1.8770763255429517
DP 249,69.780875780677036,0.0035993747499679235,-23.419775439884752,-23.113337385128414,-22.806899330371891,-22.500461275615148,-22.194023220858206,-21.887585166101051,-21.581147111343718,-21.274709056586154,-20.968271001828406,-20.66183294707043,-20.355394892312276,-20.048956837553909,-19.742518782795337,-19.436080728036575,-19.1296426732776,-18.823204618518417,-18.516766563759024,-18.210328508999446,-17.903890454239647,-17.597452399479664,-17.293230072860439,-17.008949508949971,-16.724668945039262,-16.440388381128315,-16.156107817217112,-15.8718272533057,-15.587546689394049,-15.303266125482134,-15.018985561570007,-14.73470499765765,-14.450424433745031,-14.166143869832187,-13.8818633059191,-13.597582742005775,-13.313302178092213,-13.029021614178417,-12.744741050264379,-12.460460486350124,-12.176179922435608,-11.891899358520861,-11.616739371332171,-11.378062122099477,-11.139384872866447,-10.900707623633078,-10.662030374399372,-10.423353125165328,-10.184675875930942,-9.9459986266962179,-9.7073213774611613,-9.4686441282257583,-9.2299668789900213,-8.9912896297539415,-8.75261238051752,-8.5139351312807729,-8.27525788204368,-8.0365806328062526,-7.7979033835684826,-7.5592261343303715,-7.3205488850919291,-7.0818716358531439,-6.86330386043588,-6.691658824201097,-6.520013787965957,-6.3483687517304741,-6.1767237154946368,-6.0050786792584487,-5.83343364302191,-5.6617886067850183,-5.4901435705477795,-5.3184985343101836,-5.1468534980722387,-4.9752084618339492,-4.8035634255953017,-4.6319183893563087,-4.4602733531169569,-4.2886283168772605,-4.1169832806372071,-3.9453382443968055,-3.7736932081560561,-3.6020481719149551,-3.4650908866138437,-3.3801660474164175,-3.2952412082185645,-3.2103163690202803,-3.1253915298215724,-3.040466690622436,-2.9555418514228764,-2.8706170122228847,-2.7856921730224715,-2.700767333821628,-2.6158424946203573,-2.5309176554186603,-2.4459928162165365,-2.361067977013986,-2.2761431378110077,-2.1912182986076041,-2.1062934594037723,-2.0213686201995129,-1.9364437809948263,-1.8515189417897142,-1.8575806090982014,-1.8769904410991758,-1.8964002730996838,-1.9158101050997232,-1.9352199370992889,-1.9546297690983885,-1.974039601097012,-1.9934494330951718,-2.0128592650928563,-2.0322690970900754,-2.0516789290868207,-2.071088761083097,-2.0904985930789066,-2.1099084250742415,-2.1293182570691065,-2.1487280890635052,-2.1681379210574279,-2.187547753050882,-2.2785407181816661,-2.417256899770623,-2.555973081359018,-2.6946892629468575,-2.8334054445341392,-2.9721216261208636,-3.11083780770702,-3.2495539892926253,-3.3882701708776684,-3.5269863524621519,-3.6657025340460718,-3.8044187156294389,-3.9431348972122446,-4.0818510787944851,-4.2205672603761739,-4.3592834419573014,-4.497999623537873,-4.63671580511788,-4.7754319866973249,-4.9141481682762178,-5.1448761967207455,-5.4150391162685816,-5.685202035815867,-5.9553649553625867,-6.2255278749087575,-6.4956907944543589,-6.7658537139994053,-7.036016633543908,-7.3061795530878433,-7.5763424726312278,-7.846505392174044,-8.1166683117163121,-8.3868312312580127,-8.6569941507991715,-8.9271570703397529,-9.1973199898797962,-9.4674829094192621,-9.737645828958188,-10.007808748496553,-10.277971668034347,-10.660295311524042,-11.070660461206037,-11.481025610887352,-11.891390760567988,-12.30175591024795,-12.712121059927226,-13.122486209605805,-13.532851359283706,-13.943216508960937,-14.353581658637488,-14.763946808313344,-15.174311957988518,-15.584677107662998,-15.995042257336809,-16.405407407009939,-16.815772556682397,-17.226137706354148,-17.636502856025228,-18.046868005695622,-18.457233155365344,-18.998685766702135,-19.554705028292879,-20.110724289882889,-20.666743551472173,-21.222762813060729,-21.778782074648564,-22.33480133623566,-22.890820597822035,-23.446839859407721,-24.00285912099265,-24.558878382576832,-25.114897644160308,-25.670916905743063,-26.226936167325086,-26.782955428906387,-27.338974690486982,-27.89499395206683,-28.451013213645947,-29.007032475224385,-29.563051736802016,0,0.025098085414662234,0.052778017211729943,0.090630920575035967,0.14509100013794593,0.21671033621240032,0.3055838080986002,0.4116885369557276,0.53490810727742533,0.67493343966776287,0.77758919237454183,1.0174285203381244
DP 250,97.367019382446585,0.0021404070164395216,-18.376886958782549,-18.078153103049132,-17.779419247315396,-17.480685391581297,-17.181951535846871,-16.883217680112068,-16.584483824376946,-16.285749968641461,-15.987016112905623,-15.688282257169448,-15.389548401432931,-15.090814545696057,-14.792080689958855,-14.493346834221281,-14.194612978483384,-13.895879122745125,-13.597145267006518,-13.298411411267578,-12.999677555528288,-12.700943699788633,-12.404374932679627,-12.127292167902581,-11.850209403125156,-11.573126638347377,-11.296043873569239,-11.018961108790727,-10.741878344011862,-10.46479557923262,-10.187712814453024,-9.91063004967307,-9.6335472848927424,-9.356464520112052,-9.0793817553309921,-8.802298990549577,-8.5252162257677941,-8.24813346098565,-7.9710506962031431,-7.6939679314202722,-7.4168851666370372,-7.1398024018534381,-6.8716378039715993,-6.6391462951828517,-6.4066547863936929,-6.17416327760413,-5.9416717688141532,-5.709180260023758,-5.476688751232949,-5.2441972424417305,-5.0117057336501034,-4.7792142248580607,-4.5467227160656014,-4.3142312072727336,-4.0817396984794518,-3.8492481896857558,-3.6167566808916503,-3.3842651720971326,-3.1517736633021971,-2.9192821545068552,-2.6867906457110986,-2.4542991369149303,-2.2414536835100392,-2.0744496450160259,-1.9074456065215866,-1.7404415680267269,-1.5734375295314444,-1.4064334910357388,-1.2394294525396092,-1.0724254140430565,-0.90542137554608193,-0.73841733704868406,-0.57141329855086542,-0.40440926005262312,-0.23740522155395602,-0.070401183054867492,0.096602855444644392,0.26360689394457965,0.4306109324449367,0.59761497094571914,0.76461900944692152,0.93162304794854689,1.0647541034159316,1.1470748838916827,1.2293956643678952,1.3117164448445673,1.3940372253217026,1.476358005799298,1.5586787862773546,1.6409995667558717,1.7233203472348482,1.8056411277142876,1.8879619081941894,1.9702826886745488,2.0526034691553714,2.1349242496366547,2.2172450301184,2.2995658106006047,2.3818865910832709,2.4642073715664026,2.5465281520499912,2.6288489325340376,2.6213618715635225,2.6019026986714811,2.58244352577992,2.5629843528888476,2.5435251799982583,2.5240660071081522,2.5046068342185364,2.4851476613293988,2.4656884884407484,2.4462293155525821,2.4267701426649015,2.4073109697777073,2.3878517968909949,2.3683926240047697,2.348933451119029,2.3294742782337696,2.3100151053489992,2.2905559324647133,2.2013205080166034,2.065566483291057,1.9298124585660521,1.7940584338415779,1.6583044091176413,1.5225503843942405,1.386796359671377,1.2510423349490505,1.1152883102272557,0.97953428550600075,0.84378026078528667,0.70802623606510362,0.57227221134545692,0.43651818662635156,0.30076416190777688,0.1650101371897422,0.029256112472238426,-0.10649791224472388,-0.24225193696114908,-0.37800596167703848,-0.60336094505707094,-0.86711754918526973,-1.1308741533129387,-1.3946307574400711,-1.6583873615666807,-1.922143965692745,-2.1859005698182821,-2.4496571739432964,-2.713413778067769,-2.9771703821917179,-3.2409269863151295,-3.5046835904380096,-3.7684401945603541,-4.0321967986821763,-4.2959534028034572,-4.5597100069242087,-4.8234666110444282,-5.0872232151641192,-5.3509798192832791,-5.6147364234019,-5.9876636385848165,-6.3878847964093408,-6.7881059542332673,-7.1883271120565748,-7.5885482698792828,-7.9887694277013761,-8.3889905855228832,-8.7892117433437527,-9.1894329011640252,-9.5896540589837027,-9.98987521680276,-10.390096374621217,-10.790317532439055,-11.190538690256304,-11.590759848072926,-11.990981005888957,-12.39120216370436,-12.791423321519177,-13.191644479333377,-13.591865637146968,-14.119615421730021,-14.661536393090943,-15.203457364451259,-15.745378335810905,-16.287299307169956,-16.82922027852835,-17.371141249886133,-17.913062221243248,-18.454983192599755,-18.996904163955637,-19.538825135310894,-20.080746106665519,-20.622667078019479,-21.164588049372853,-21.706509020725548,-22.248429992077615,-22.7903509634291,-23.332271934779868,-23.874192906130112,-24.416113877479628,0,0.016631060247397345,0.039567098830847344,0.074531597961509,0.125834721686662,0.19378570778850496,0.27843733713342778,0.37972833398893496,0.497470311794424,0.63127661500930121,0.73030017666697977,0.96104212023836544
DP 251,136.84683632159977,0.0011872105126060212,-13.104829498656734,-12.861820466713555,-12.618811434770036,-12.375802402826192,-12.132793370881984,-11.88978433893746,-11.646775306992591,-11.403766275047373,-11.160757243101818,-10.917748211155933,-10.67473917920969,-10.431730147263121,-10.188721115316209,-9.9457120833689547,-9.7027030514213681,-9.45969401947344,-9.2166849875251611,-8.9736759555765566,-8.7306669236276,-8.48765789167831,-8.2464286772008819,-8.0212179882090187,-7.7960072992168126,-7.5707966102242574,-7.34558592123135,-7.1203752322380938,-6.8951645432444977,-6.66995385425055,-6.4447431652562583,-6.21953247626162,-5.9943217872666343,-5.7691110982712992,-5.5439004092756194,-5.3186897202795933,-5.093479031283219,-4.8682683422864956,-4.6430576532894277,-4.4178469642920115,-4.192636275294249,-3.9674255862961409,-3.749535035880784,-3.5609253857573937,-3.3723157356336406,-3.1837060855095158,-2.9950964353850287,-2.8064867852601769,-2.6178771351349548,-2.4292674850093654,-2.2406578348834136,-2.0520481847570933,-1.8634385346304043,-1.6748288845033512,-1.4862192343759306,-1.297609584248143,-1.1089999341199888,-0.92039028399146927,-0.73178063386258141,-0.54317098373332939,-0.3545613336037105,-0.16595168347372449,0.0065824116147680965,0.14160637177267951,0.27663033193096626,0.41165429208962567,0.5466782522486584,0.68170221240806628,0.81672617256784652,0.95175013272800268,1.0867740928885314,1.2217980530494337,1.3568220132107085,1.4918459733723579,1.6268699335343846,1.7618938936967807,1.8969178538595528,2.0319418140226988,2.1669657741862176,2.3019897343501121,2.4370136945143783,2.5720376546790185,2.6794465359135624,2.7454321461909377,2.811417756468706,2.8774033667468633,2.9433889770254109,3.0093745873043525,3.0753601975836804,3.1413458078634013,3.2073314181435113,3.2733170284240134,3.3393026387049045,3.4052882489861864,3.4712738592678587,3.5372594695499187,3.6032450798323703,3.6692306901152132,3.73521630039845,3.8012019106820731,3.8671875209660889,3.9331731312504918,3.9245871580270788,3.907955490499357,3.8913238229720326,3.8746921554451128,3.8580604879185953,3.8414288203924807,3.8247971528667644,3.8081654853414575,3.7915338178165472,3.7749021502920383,3.7582704827679332,3.7416388152442295,3.7250071477209326,3.7083754801980322,3.6917438126755338,3.6751121451534425,3.65848047763175,3.6418488101104614,3.5688164507209432,3.4581827415657522,3.3475490324109862,3.2369153232566537,3.1262816141027483,3.0156479049492715,2.9050141957962294,2.7943804866436128,2.6837467774914274,2.57311306833967,2.4624793591883454,2.3518456500374492,2.2412119408869828,2.1305782317369464,2.0199445225873394,1.9093108134381627,1.7986771042894136,1.6880433951410958,1.5774096859932112,1.4667759768457531,1.2840049027496425,1.0703168410249295,0.856628779300639,0.64294071757677651,0.42925265585333222,0.21556459413032217,0.0018765324077342411,-0.21181152931443603,-0.42549959103617269,-0.63918765275749145,-0.85287571447838106,-1.0665637761988478,-1.2802518379188865,-1.4939398996385074,-1.7076279613576941,-1.9213160230764617,-2.1350040847948035,-2.3486921465127173,-2.5623802082302114,-2.776068269947277,-3.0773854430327527,-3.4006109293181788,-3.7238364156031416,-4.0470619018876333,-4.3702873881716613,-4.6935128744552186,-5.0167383607383176,-5.3399638470209352,-5.6631893333030892,-5.9864148195847884,-6.3096403058660018,-6.6328657921467622,-6.9560912784270394,-7.2793167647068726,-7.6025422509862182,-7.9257677372651045,-8.24899322354352,-8.5722187098214775,-8.8954441960989588,-9.21866968237597,-9.6440510646479449,-10.08078417491453,-10.517517285180629,-10.954250395446238,-11.390983505711379,-11.827716615976033,-12.2644497262402,-12.701182836503879,-13.1379159467671,-13.574649057029832,-14.011382167292098,-14.44811527755386,-14.884848387815156,-15.321581498075989,-15.75831460833629,-16.19504771859615,-16.631780828855526,-17.068513939114407,-17.50524704937283,-17.941980159630734,0,0.010795807489887706,0.028021383876531622,0.055628233450653139,0.096343818013962149,0.15039375368331745,0.21783502612928826,0.298618484763758,0.3925762550121229,0.49937040008063244,0.57860804313954384,0.76287593209610094
DP 252,257.22850246204229,0.003112893945212252,-51.46438266012408,-50.362579137211931,-49.260775614298282,-48.158972091382978,-47.057168568466089,-45.95536504554763,-44.853561522627665,-43.751757999706022,-42.6499544767829,-41.548150953858205,-40.446347430931851,-39.344543908003942,-38.242740385074491,-37.140936862143441,-36.039133339210828,-34.937329816276673,-33.835526293340877,-32.733722770403588,-31.631919247464662,-30.530115724524176,-29.437221751078557,-28.4245145652685,-27.411807379456825,-26.399100193643573,-25.386393007828769,-24.373685822012366,-23.360978636194382,-22.348271450374792,-21.335564264553639,-20.32285707873093,-19.310149892906594,-18.29744270708068,-17.284735521253193,-16.272028335424114,-15.25932114959347,-14.246613963761229,-13.233906777927418,-12.221199592092026,-11.208492406255035,-10.19578522041647,-9.219079137726121,-8.3863791690956262,-7.5536792004635132,-6.72097923182981,-5.8882792631945167,-5.0555792945576172,-4.2228793259191235,-3.3901793572790209,-2.5574793886373306,-1.7247794199940374,-0.89207945134914268,-0.059379482702642379,0.77332048594545089,1.606020454595144,2.43872042324644,3.2714203918993316,4.1041203605538215,4.9368203292099082,5.7695202978675892,6.6022202665268708,7.3581178396275551,7.9348074032407858,8.5114969668556579,9.08818653047214,9.6648760940902481,10.241565657709975,10.818255221331334,11.394944784954321,11.971634348578922,12.548323912205154,13.125013475833008,13.701703039462485,14.278392603093595,14.855082166726323,15.431771730360676,16.00846129399665,16.585150857634243,17.161840421273482,17.738529984914344,18.315219548556808,18.764810466119588,19.023750411140355,19.282690356162764,19.541630301186846,19.800570246212537,20.059510191239877,20.31845013626889,20.577390081299527,20.836330026331826,21.095269971365738,21.354209916401338,21.613149861438568,21.872089806477444,22.131029751517964,22.389969696560133,22.64890964160395,22.907849586649398,23.166789531696516,23.425729476745268,23.684669421795665,23.550986767467574,23.44572502823144,23.340463288996933,23.235201549764103,23.129939810532928,23.024678071303455,22.919416332075635,22.814154592849498,22.708892853624981,22.60363111440217,22.498369375181028,22.393107635961552,22.287845896743736,22.182584157527621,22.077322418313145,21.972060679100355,21.866798939889222,21.761537200679783,21.418519684009798,20.916994570163617,20.415469456319194,19.913944342476512,19.412419228635571,18.910894114796331,18.409369000958872,17.907843887123114,17.406318773289115,16.904793659456832,16.4032685456263,15.901743431797522,15.400218317970461,14.898693204145138,14.397168090321541,13.89564297649969,13.394117862679566,12.8925927488612,12.391067635044569,11.88954252122968,11.096457019421333,10.178413128642161,9.26036923786469,8.3423253470889485,7.424281456314894,6.5062375655425875,5.5881936747719836,4.67014978400306,3.7521058932358846,2.8340620024703931,1.9160181117066317,0.99797422094457222,0.079930330184240631,-0.83811356057440956,-1.7561574513313127,-2.6742013420865272,-3.5922452328400154,-4.51028912359179,-5.4283330143418631,-6.3463769050902226,-7.60658887225849,-8.9523469013252637,-10.298104930390222,-11.643862959453354,-12.989620988514654,-14.335379017574134,-15.681137046631806,-17.026895075687619,-18.372653104741609,-19.718411133793825,-21.064169162844149,-22.409927191892706,-23.755685220939355,-25.101443249984268,-26.447201279027308,-27.792959308068518,-29.138717337107892,-30.484475366145528,-31.830233395181249,-33.175991424215155,-34.911657917685361,-36.690651668852759,-38.469645420018381,-40.24863917118207,-42.027632922343955,-43.806626673503942,-45.585620424662082,-47.364614175818339,-49.143607926972791,-50.922601678125375,-52.701595429276061,-54.480589180424943,-56.259582931571956,-58.038576682717114,-59.817570433860361,-61.596564185001753,-63.375557936141362,-65.154551687279,-66.933545438415024,-68.712539189548892,0,0.037159144171582212,0.10335363590586732,0.2132675752571096,0.37587403926291751,0.59212020195818837,0.86230551524226906,1.1862435316260449,1.5632213299714488,1.9918036057709887,2.3101319725586213,3.0489875048667132
DP 253,231.18458870938866,0.0022049532347595412,-34.056623765573271,-33.342299272321412,-32.627974779068488,-31.913650285814537,-31.199325792559552,-30.485001299303509,-29.770676806046428,-29.056352312788327,-28.34202781952915,-27.62770332626895,-26.913378833007705,-26.19905433974542,-25.484729846482079,-24.770405353217715,-24.056080859952296,-23.341756366685825,-22.627431873418342,-21.913107380149803,-21.19878288688022,-20.484458393609589,-19.775749893249579,-19.117585859941354,-18.459421826632102,-17.801257793321781,-17.143093760010416,-16.484929726698,-15.826765693384543,-15.168601660070024,-14.510437626754461,-13.85227359343787,-13.194109560120211,-12.535945526801497,-11.877781493481741,-11.219617460160935,-10.561453426839082,-9.9032893935161734,-9.2451253601922172,-8.5869613268672076,-7.9287972935411535,-7.2706332602140558,-6.6352770069346381,-6.0911529517765395,-5.5470288966173769,-5.0029048414571449,-4.4587807862958559,-3.9146567311335008,-3.3705326759700798,-2.8264086208055961,-2.2822845656400448,-1.7381605104734321,-1.194036455305751,-0.64991240013700291,-0.10578834496719232,0.43833571020368284,0.98245976537562274,1.526583820548628,2.0707078757226975,2.6148319308978278,3.1589559860740235,3.7030800412512828,4.1981478114591031,4.5787493710977536,4.9593509307374966,5.3399524903783142,5.7205540500202119,6.1011556096631976,6.4817571693072642,6.8623587289524108,7.2429602885986366,7.6235618482459557,8.00416340789434,8.3847649675438127,8.7653665271943666,9.1459680868460165,9.52656964649874,9.90717120615254,10.287772765807423,10.668374325463395,11.048975885120447,11.429577444778564,11.728116283850543,11.90355910284857,12.07900192184772,12.25444474084795,12.429887559849282,12.605330378851725,12.780773197855252,12.956216016859882,13.131658835865622,13.307101654872461,13.482544473880372,13.657987292889413,13.83343011189956,14.008872930910792,14.184315749923117,14.359758568936542,14.535201387951085,14.710644206966716,14.886087025983441,15.061529845001262,14.992495222313316,14.929792359238784,14.867089496165367,14.804386633093054,14.74168377002187,14.678980906951814,14.616278043882856,14.553575180815022,14.4908723177483,14.428169454682704,14.365466591618219,14.302763728554849,14.240060865492612,14.177358002431474,14.114655139371459,14.051952276312562,13.989249413254784,13.926546550198122,13.706275246885998,13.380955834449228,13.055636422013638,12.7303170095792,12.404997597145913,12.079678184713812,11.754358772282865,11.429039359853093,11.103719947424471,10.77840053499702,10.453081122570755,10.127761710145625,9.80244229772169,9.4771228852989022,9.151803472877285,8.82648406045683,8.5011646480375376,8.175845235619418,7.8505258232024611,7.5252064107866765,7.0041517894417176,6.3992080069490846,5.7942642244576,5.189320441967272,4.58437665947808,3.9794328769900607,3.3744890945031822,2.7695453120174349,2.1646015295328591,1.5596577470494128,0.95471396456712987,0.34977018208598892,-0.25517360039399173,-0.860117382872844,-1.4650611653505232,-2.0700049478270697,-2.6749487303024577,-3.2798925127766942,-3.8848362952497908,-4.4897800777217327,-5.3269299288636951,-6.2221340407405945,-7.1173381526162753,-8.01254226449072,-8.907746376363944,-9.8029504882359362,-10.698154600106706,-11.593358711976219,-12.488562823844514,-13.383766935711622,-14.278971047577437,-15.174175159442052,-16.069379271305412,-16.964583383167614,-17.85978749502851,-18.754991606888211,-19.650195718746666,-20.545399830603913,-21.440603942459919,-22.335808054314679,-23.497536222035077,-24.688880972887926,-25.880225723739535,-27.071570474589858,-28.262915225438935,-29.454259976286767,-30.645604727133357,-31.836949477978639,-33.028294228822709,-34.219638979665568,-35.410983730507148,-36.602328481347456,-37.793673232186521,-38.985017983024321,-40.176362733860906,-41.367707484696226,-42.559052235530267,-43.75039698636305,-44.941741737194654,-46.133086488024915,0,0.025335706035393118,0.070009743039452357,0.14392232308012939,0.25323039784289586,0.39856590987728158,0.58012517719324252,0.79778207420859548,1.051060109452969,1.3390000859193567,1.5528524970037509,2.0493233646469737
DP 254,181.59974036548809,0.0017691960943666493,-23.494471956339304,-23.025770296072977,-22.55706863580594,-22.088366975538232,-21.61966531526981,-21.150963655000709,-20.682261994730908,-20.213560334460428,-19.744858674189263,-19.276157013917388,-18.807455353644837,-18.33875369337159,-17.870052033097657,-17.401350372823021,-16.932648712547696,-16.463947052271692,-15.995245391994994,-15.526543731717604,-15.057842071439529,-14.589140411160761,-14.123961756272774,-13.690490482916985,-13.257019209560521,-12.823547936203347,-12.39007666284548,-11.956605389486915,-11.52313411612764,-11.089662842767673,-10.65619156940701,-10.222720296045658,-9.7892490226835847,-9.3557777493208238,-8.9223064759573649,-8.4888352025932114,-8.0553639292283545,-7.6218926558627986,-7.1884213824965482,-6.7549501091295978,-6.3214788357619431,-5.8880075623935992,-5.468960215341462,-5.1076092552510994,-4.7462582951600156,-4.3849073350682106,-4.0235563749756942,-3.6622054148824583,-3.3008544547885017,-2.939503494693827,-2.5781525345984355,-2.2168015745023246,-1.8554506144054952,-1.4940996543079461,-1.1327486942096787,-0.77139773411069357,-0.41004677401099016,-0.04869581391056782,0.31265514619057161,0.67400610629242785,1.0353570663950022,1.3967080264982954,1.7266246186667578,1.9831933619025031,2.2397621051389796,2.4963308483761844,2.7528995916141206,3.0094683348527904,3.2660370780921881,3.5226058213323177,3.7791745645731805,4.035743307814772,4.2923120510570927,4.548880794300147,4.8054495375439288,5.0620182807884468,5.3185870240336923,5.5751557672796732,5.8317245105263833,6.0882932537738208,6.3448619970219893,6.6014307402708878,6.804516076467845,6.9273750382396644,7.0502340000122432,7.1730929617855672,7.2959519235596471,7.4188108853344712,7.5416698471100414,7.6645288088863683,7.7873877706634458,7.9102467324412631,8.0331056942198451,8.1559646559991688,8.278823617779242,8.4016825795600649,8.52454154134164,8.6474005031239667,8.7702594649070384,8.8931184266908616,9.0159773884754379,9.13883635026076,9.1117441052460357,9.07633511568993,9.0409261261345968,9.0055171365800231,8.97010814702622,8.9346991574731813,8.899290167920908,8.8638811783693985,8.8284721888186546,8.7930631992686727,8.757654209719469,8.7222452201710183,8.6868362306233351,8.651427241076421,8.6160182515302637,8.5806092619848791,8.5452002724402654,8.5097912828964049,8.3675207013176589,8.1540073749156878,7.9404940485145126,7.7269807221141464,7.5134673957145779,7.2999540693158176,7.0864407429178646,6.87292741652072,6.6594140901243675,6.4459007637288348,6.2323874373341095,6.0188741109401853,5.8053607845470605,5.5918474581547537,5.3783341317632365,5.1648208053725391,4.9513074789826339,4.7377941525935432,4.5242808262052572,4.3107674998177776,3.9619603885771966,3.5551683997976649,3.1483764110189281,2.7415844222409915,2.3347924334638366,1.9280004446874957,1.5212084559119414,1.1144164671371715,0.707624478363212,0.30083248959003234,-0.1059594991823426,-0.51275148795392722,-0.91954347672471115,-1.3263354654947124,-1.7331274542639021,-2.1399194430323081,-2.5467114317999169,-2.9535034205667237,-3.3602954093327462,-3.7670873980979698,-4.3368999379330972,-4.9474695416605385,-5.558039145387129,-6.1686087491128534,-6.7791783528377252,-7.3897479565617283,-8.0003175602848877,-8.6108871640071722,-9.22145676772861,-9.83202637144919,-10.442595975168896,-11.053165578887761,-11.663735182605745,-12.274304786322896,-12.884874390039165,-13.49544399375459,-14.106013597469142,-14.716583201182852,-15.327152804895693,-15.93772240860768,-16.737334062501514,-17.557952374036667,-18.378570685570924,-19.199188997104304,-20.019807308636807,-20.840425620168443,-21.661043931699176,-22.481662243229035,-23.302280554758049,-24.122898866286135,-24.943517177813391,-25.764135489339786,-26.584753800865265,-27.405372112389866,-28.225990423913572,-29.046608735436422,-29.867227046958405,-30.687845358479478,-31.508463669999756,-32.329081981519032,0,0.01839172818373069,0.049763425073859155,0.10110319848728552,0.17695488916052959,0.27774802127582637,0.40360800635350208,0.554445853096468,0.72993685442274658,0.9294274858716417,1.0775492967665219,1.4216397045873084
DP 255,245.84496902727889,0.0020789650940475669,-33.386919860616445,-32.678270375326861,-31.969620890036211,-31.260971404744538,-30.552321919451831,-29.843672434158108,-29.135022948863398,-28.426373463567625,-27.717723978270843,-27.00907449297306,-26.300425007674235,-25.591775522374363,-24.883126037073506,-24.174476551771608,-23.465827066468663,-22.757177581164747,-22.04852809585979,-21.339878610553775,-20.631229125246787,-19.922579639938736,-19.219588865074712,-18.567527019100712,-17.915465173125657,-17.263403327149582,-16.611341481172474,-15.959279635194353,-15.307217789215184,-14.655155943234984,-14.003094097253749,-13.351032251271514,-12.69897040528822,-12.046908559303917,-11.394846713318572,-10.742784867332208,-10.090723021344818,-9.438661175356394,-8.7865993293669344,-8.1345374833764552,-7.4824756373849359,-6.830413791392405,-6.2012695900615533,-5.6637970505003716,-5.126324510938149,-4.5888519713748819,-4.0513794318105756,-3.5139068922452292,-2.9764343526788397,-2.43896181311141,-1.9014892735429394,-1.3640167339734279,-0.8265441944028713,-0.2890716548312714,0.24840088474136623,0.7858734243150467,1.3233459638897671,1.8608185034655333,2.3982910430423359,2.9357635826201789,3.47323612219906,4.0107086617789882,4.49911171776016,4.8730177659546214,5.2469238141501426,5.6208298623467208,5.9947359105443514,6.3686419587430523,6.7425480069428012,7.1164540551436133,7.490360103345477,7.8642661515484065,8.2381721997523911,8.6120782479574274,8.9859842961635312,9.3598903443706849,9.7337963925789115,10.107702440788177,10.481608488998512,10.855514537209903,11.229420585422357,11.603326633635856,11.895635608838081,12.065547046332222,12.235458483827443,12.405369921323736,12.575281358821103,12.74519279631955,12.915104233819063,13.085015671319647,13.254927108821303,13.424838546324056,13.59474998382785,13.764661421332745,13.934572858838699,14.104484296345722,14.274395733853838,14.444307171363015,14.614218608873255,14.784130046384579,14.954041483896988,15.123952921410455,15.045810124152384,14.980570273211319,14.915330422271351,14.850090571332453,14.784850720394674,14.719610869457954,14.654371018522342,14.589131167587821,14.52389131665438,14.458651465722033,14.393411614790777,14.328171763860603,14.262931912931531,14.19769206200354,14.132452211076624,14.067212360150821,14.0019725092261,13.936732658302466,13.717047104083113,13.394395314573625,13.071743525065274,12.749091735558052,12.426439946051957,12.103788156546988,11.781136367043178,11.458484577540487,11.135832788038936,10.813180998538515,10.490529209039241,10.167877419541101,9.8452256300440837,9.5225738405482048,9.19992205105346,8.8772702615598558,8.55461847206738,8.2319666825760383,7.909314893085833,7.5866631035967682,7.0735014666524183,6.4786901797507257,5.883878892850138,5.2890676059506863,4.6942563190523359,4.099445032155125,3.5046337452590293,2.9098224583640344,2.315011171470176,1.7201998845774213,1.1253885976857954,0.5305773107952827,-0.064233976094101489,-0.65904526298238753,-1.2538565498695311,-1.8486678367555727,-2.4434791236404845,-3.0382904105242785,-3.6331016974069636,-4.2279129842885235,-5.0474071397023277,-5.9230746669283194,-6.79874219415311,-7.6744097213767066,-8.55007724859912,-9.4257447758203234,-10.30141230304036,-11.177079830259164,-12.052747357476793,-12.928414884693247,-13.804082411908475,-14.67974993912253,-15.55541746633536,-16.431084993547042,-17.306752520757492,-18.182420047966769,-19.058087575174834,-19.933755102381728,-20.809422629587406,-21.685090156791894,-22.817638298780953,-23.978731429169517,-25.139824559556878,-26.300917689943002,-27.462010820327922,-28.623103950711638,-29.784197081094121,-30.945290211475395,-32.106383341855462,-33.267476472234321,-34.42856960261193,-35.589662732988359,-36.750755863363544,-37.91184899373755,-39.0729421241103,-40.23403525448186,-41.395128384852192,-42.556221515221274,-43.717314645589262,-44.878407775955878,0,0.024431085258715766,0.067775599526091829,0.13964303808850473,0.24594840520770953,0.38730906053193787,0.56391877708729476,0.77565541764920476,1.0220539246649998,1.3021781878167349,1.5102345308132534,1.9931863475851226
DP 256,199.43809359464689,0.0037667117823617009,-53.043504745306912,-51.963616197120622,-50.883727648932776,-49.803839100743332,-48.72395055255226,-47.644062004359611,-46.564173456165371,-45.484284907969574,-44.404396359772115,-43.324507811573106,-42.244619263372513,-41.164730715170286,-40.0848421669665,-39.004953618761093,-37.925065070554091,-36.845176522345483,-35.765287974135326,-34.685399425923514,-33.605510877710159,-32.5256223294952,-31.453969308970365,-30.456436816127177,-29.458904323282379,-28.461371830435962,-27.463839337587974,-26.466306844738366,-25.468774351887138,-24.471241859034276,-23.473709366179818,-22.476176873323773,-21.478644380466093,-20.481111887606822,-19.483579394745938,-18.486046901883416,-17.488514409019331,-16.490981916153615,-15.493449423286286,-14.495916930417355,-13.498384437546793,-12.500851944674645,-11.53694966235304,-10.707569811648996,-9.8781899609433275,-9.0488101102359924,-8.2194302595270337,-7.3900504088164158,-6.5606705581041567,-5.73129070739025,-4.9019108566746992,-4.0725310059575053,-3.2431511552386638,-2.4137713045181681,-1.5843914537960357,-0.75501160307225457,0.074368247653171488,0.9037480983802435,1.7331279491089584,2.5625077998393175,3.3918876505713129,4.2212675013049639,4.9776675613322858,5.5637791436346733,6.14989072593874,6.73600230824447,7.3221138905518766,7.9082254728609511,8.4943370551717035,9.0804486374841282,9.66656021979823,10.252671802114008,10.838783384431443,11.424894966750575,12.011006549071348,12.59711813139382,13.183229713717958,13.769341296043772,14.355452878371265,14.94156446070043,15.527676043031258,16.113787625363759,16.576401416658165,16.853765603063394,17.131129789470322,17.408493975878965,17.685858162289342,17.963222348701407,18.240586535115177,18.517950721530674,18.79531490794788,19.072679094366787,19.350043280787403,19.627407467209743,19.904771653633762,20.182135840059516,20.459500026486978,20.736864212916149,21.014228399347026,21.291592585779611,21.568956772213898,21.846320958649915,21.770437273747131,21.684610275914348,21.598783278083314,21.512956280254009,21.427129282426467,21.341302284600644,21.25547528677658,21.169648288954242,21.083821291133667,20.997994293314807,20.912167295497703,20.826340297682346,20.740513299868713,20.654686302056845,20.568859304246693,20.4830323064383,20.397205308631616,20.311378310826729,19.981886049975859,19.489946441795592,18.998006833617133,18.506067225440486,18.014127617265672,17.522188009092677,17.030248400921522,16.538308792752186,16.04636918458467,15.554429576418976,15.062489968255132,14.57055036009309,14.078610751932889,13.58667114377451,13.094731535617953,12.602791927463224,12.110852319310315,11.618912711159238,11.126973103009989,10.635033494862574,9.8364220353369518,8.9063756413380624,7.9763292473409608,7.0462828533456685,6.1162364593521534,5.186190065360484,4.2561436713706016,3.3260972773824862,2.3960508833962129,1.4660044894117075,0.53595809542902628,-0.39408829855186539,-1.3241346925309405,-2.2541810865082463,-3.1842274804837145,-4.1142738744574077,-5.0443202684292849,-5.9743666623993619,-6.9044130563676429,-7.8344594503341227,-9.1322547527633748,-10.521991627345189,-11.911728501925088,-13.301465376503042,-14.69120225107905,-16.080939125653135,-17.470676000225282,-18.860412874795472,-20.250149749363736,-21.639886623930085,-23.029623498494455,-24.419360373056929,-25.809097247617398,-27.198834122176017,-28.588570996732628,-29.97830787128736,-31.368044745840095,-32.757781620390944,-34.147518494939824,-35.537255369486758,-37.352100418656278,-39.2141841741148,-41.076267929571323,-42.93835168502585,-44.800435440478459,-46.662519195929043,-48.524602951377659,-50.386686706824243,-52.248770462268908,-54.1108542177116,-55.972937973152341,-57.835021728591023,-59.697105484027816,-61.559189239462604,-63.421272994895382,-65.2833567503262,-67.145440505755019,-69.007524261181842,-70.869608016606762,-72.731691772029649,0,0.040792537937452626,0.11141563009123831,0.22754484662274002,0.39919057968938365,0.62733320419005234,0.91226719491985608,1.2537927733878758,1.6511688806024889,2.1029049097376311,2.4383617670676525,3.2174253134259554
DP 257,67.954769267556017,0.0023797781913798958,-15.135126260852354,-14.94155941121592,-14.747992561579343,-14.554425711942645,-14.360858862305845,-14.167292012668931,-13.973725163031894,-13.780158313394733,-13.586591463757465,-13.393024614120073,-13.19945776448256,-13.005890914844946,-12.812324065207198,-12.618757215569323,-12.425190365931371,-12.231623516293276,-12.038056666655073,-11.844489817016735,-11.650922967378293,-11.457356117739737,-11.265188847404842,-11.085617923098114,-10.906046998791265,-10.726476074484268,-10.546905150177142,-10.367334225869863,-10.187763301562439,-10.008192377254884,-9.8286214529471927,-9.649050528639366,-9.4694796043313847,-9.28990868002328,-9.1103377557150278,-8.93076683140663,-8.7511959070980989,-8.571624982789432,-8.392054058480614,-8.2124831341716646,-8.0329122098625731,-7.853341285553344,-7.6795303928920484,-7.5287598990499411,-7.3779894052076438,-7.22721891136513,-7.0764484175224132,-6.9256779236794852,-6.7749074298363512,-6.6241369359930129,-6.4733664421494632,-6.322595948305703,-6.1718254544617421,-6.0210549606175654,-5.8702844667731906,-5.7195139729286044,-5.568743479083806,-5.4179729852388085,-5.2672024913936,-5.1164319975481813,-4.9656615037025569,-4.8148910098567264,-4.6768212918353091,-4.568387117573681,-4.4599529433118335,-4.3515187690497763,-4.2430845947874953,-4.1346504205250056,-4.0262162462623,-3.9177820719993739,-3.8093478977362403,-3.7009137234728797,-3.5924795492093118,-3.4840453749455254,-3.3756112006815258,-3.267177026417309,-3.1587428521528764,-3.0503086778882262,-2.9418745036233638,-2.8334403293582859,-2.72500615509299,-2.61657198082748,-2.5300445270966141,-2.4763776718374926,-2.4227108165781073,-2.3690439613184546,-2.3153771060585351,-2.2617102507983482,-2.2080433955378989,-2.1543765402771795,-2.1007096850161964,-2.0470428297549441,-1.9933759744934267,-1.9397091192316456,-1.8860422639695946,-1.8323754087072806,-1.7787085534446978,-1.72504169818185,-1.6713748429187341,-1.6177079876553531,-1.5640411323917063,-1.5103742771277928,-1.5141150318247025,-1.5263448293287361,-1.5385746268324751,-1.5508044243359191,-1.5630342218390685,-1.5752640193419227,-1.5874938168444797,-1.5997236143467453,-1.6119534118487142,-1.6241832093503887,-1.6364130068517682,-1.6486428043528512,-1.6608726018536413,-1.6731023993541352,-1.6853321968543329,-1.6975619943542393,-1.7097917918538483,-1.72202158935316,-1.77946262088357,-1.8670451873460678,-1.9546277538082106,-2.0422103202699988,-2.1297928867314364,-2.2173754531925196,-2.3049580196532458,-2.3925405861136197,-2.4801231525736416,-2.5677057190333068,-2.6552882854926154,-2.742870851951575,-2.8304534184101779,-2.9180359848684265,-3.0056185513263238,-3.0932011177838636,-3.1807836842410522,-3.2683662506978841,-3.3559488171543639,-3.4435313836104875,-3.5892284300948489,-3.7598324670321381,-3.9304365039690738,-4.1010405409056565,-4.2716445778418866,-4.4422486147777605,-4.6128526517132817,-4.7834566886484557,-4.9540607255832683,-5.1246647625177362,-5.2952687994518488,-5.4658728363856044,-5.6364768733190074,-5.8070809102520675,-5.9776849471847617,-6.1482889841171069,-6.318893021049103,-6.4894970579807429,-6.6601010949120312,-6.8307051318429677,-7.072150903543716,-7.3313079459480495,-7.5904649883519495,-7.849622030755409,-8.1087790731584413,-8.3679361155610312,-8.6270931579631931,-8.8862502003649091,-9.145407242766197,-9.40456428516705,-9.6637213275674654,-9.922878369967437,-10.182035412366979,-10.441192454766091,-10.700349497164755,-10.959506539562993,-11.218663581960787,-11.477820624358159,-11.736977666755079,-11.996134709151571,-12.338090813474176,-12.689247683156747,-13.040404552838879,-13.391561422520516,-13.742718292201697,-14.093875161882409,-14.445032031562661,-14.796188901242438,-15.147345770921772,-15.498502640600638,-15.849659510279027,-16.200816379956972,-16.551973249634436,-16.903130119311452,-17.254286988987985,-17.605443858664056,-17.956600728339673,-18.307757598014817,-18.658914467689513,-19.010071337363716,0,0.016499293050942481,0.034337216197671688,0.05842914493678613,0.092982698065717267,0.13837036156281293,0.19465988260787423,0.26184275141153185,0.339853553249255,0.42850496194419252,0.49340186085648458,0.645050171927594
DP 258,269.41779825117135,0.0027060982269562681,-46.105511345908447,-45.109788755160373,-44.114066164410893,-43.118343573660006,-42.12262098290774,-41.126898392154061,-40.131175801398953,-39.135453210642467,-38.1397306198846,-37.144008029125274,-36.148285438364539,-35.152562847602439,-34.1568402568389,-33.16111766607397,-32.165395075307636,-31.169672484539916,-30.173949893770764,-29.17822730300021,-28.182504712228237,-27.186782121454907,-26.19922315864363,-25.285137619163738,-24.371052079682435,-23.456966540199733,-22.542881000715628,-21.628795461230105,-20.714709921743147,-19.800624382254782,-18.886538842765027,-17.972453303273859,-17.058367763781273,-16.144282224287267,-15.230196684791844,-14.316111145295025,-13.40202560579678,-12.487940066297131,-11.573854526796074,-10.659768987293596,-9.7456834477897125,-8.8315979082844152,-7.9504180167078085,-7.2008622720169493,-6.4513065273246628,-5.70175078263095,-4.9521950379358186,-4.2026392932392609,-3.4530835485412794,-2.7035278038418711,-1.9539720591410432,-1.2044163144387889,-0.45486056973510824,0.29469517497000297,1.0442509196765322,1.7938066643844877,2.5433624090938691,3.2929181538046732,4.042473898516902,4.7920296432305509,5.5415853879456245,6.29114113266212,6.9707794529289364,7.4872749132239678,8.0037703735204531,8.5202658338183763,9.0367612941177526,9.5532567544185767,10.069752214720847,10.586247675024561,11.102743135329725,11.619238595636334,12.135734055944388,12.652229516253888,13.168724976564839,13.685220436877231,14.201715897191072,14.718211357506362,15.2347068178231,15.751202278141275,16.267697738460914,16.784193198781981,17.185599261792781,17.414368509201964,17.643137756612596,17.871907004024703,18.100676251438269,18.329445498853286,18.558214746269783,18.786983993687741,19.01575324110717,19.244522488528062,19.473291735950411,19.702060983374224,19.930830230799508,20.159599478226252,20.388368725654463,20.617137973084137,20.845907220515262,21.074676467947878,21.303445715381958,21.532214962817481,21.399247844283089,21.300306527870973,21.20136521146032,21.102423895051146,21.003482578643467,20.90454126223726,20.805599945832558,20.706658629429313,20.607717313027571,20.508775996627307,20.409834680228535,20.310893363831244,20.211952047435432,20.113010731041108,20.014069414648272,19.9151280982569,19.816186781867042,19.717245465478651,19.405820990197508,18.952737728256228,18.499654466316503,18.046571204378317,17.59348794244168,17.140404680506549,16.68732141857301,16.23423815664097,15.781154894710484,15.328071632781551,14.874988370854156,14.421905108928319,13.968821847004008,13.515738585081243,13.062655323160001,12.609572061240335,12.156488799322185,11.703405537405581,11.250322275490531,10.797239013577013,10.085308930363659,9.2624409999260919,8.43957306949004,7.6167051390555178,6.7938372086224881,5.9709692781910162,5.1481013477610524,4.3252334173325808,3.5023654869056688,2.6794975564802463,1.8566296260563595,1.0337616956339859,0.21089376521314662,-0.61197416520620107,-1.434842095623996,-2.2577100260402929,-3.0805779564550564,-3.9034458868682993,-4.7263138172800332,-5.5491817476902368,-6.67412512072792,-7.8745909235124127,-9.0750567262952977,-10.27552252907655,-11.475988331856199,-12.676454134634223,-13.876919937410648,-15.077385740185424,-16.27785154295858,-17.478317345730169,-18.67878314850007,-19.879248951268394,-21.079714754035063,-22.280180556800165,-23.4806463595636,-24.681112162325437,-25.881577965085661,-27.082043767844276,-28.282509570601253,-29.482975373356616,-31.026356979419742,-32.607843942851417,-34.189330906281477,-35.770817869709845,-37.352304833136621,-38.933791796561692,-40.515278759985172,-42.096765723406925,-43.678252686827129,-45.259739650245621,-46.841226613662506,-48.422713577077772,-50.004200540491325,-51.585687503903273,-53.1671744673136,-54.74866143072223,-56.330148394129232,-57.911635357534543,-59.493122320938333,-61.074609284340326,0,0.032799063107158313,0.091448697423868672,0.18897007292986145,0.33326308233343904,0.525170755048523,0.76496123510454894,1.0524694279841507,1.3870614089157467,1.7674605722825016,2.0500075163404694,2.7057560254728008
DP 259,255.77990129397531,0.0031854481458551171,-52.472414286493311,-51.350231555551964,-50.228048824608948,-49.105866093664396,-47.983683362718189,-46.861500631770447,-45.739317900821078,-44.617135169870075,-43.494952438917437,-42.372769707963279,-41.250586977007451,-40.128404246050046,-39.006221515091042,-37.884038784130425,-36.76185605316816,-35.639673322204324,-34.517490591238889,-33.395307860271835,-32.273125129303175,-31.150942398332948,-30.03781910395908,-29.006231595302758,-27.97464408664478,-26.943056577985235,-25.911469069324088,-24.879881560661282,-23.848294051996881,-22.816706543330863,-21.785119034663222,-20.753531525993992,-19.721944017323118,-18.690356508650641,-17.658768999976562,-16.627181491300853,-15.595593982623543,-14.564006473944598,-13.532418965264071,-12.500831456581894,-11.469243947898121,-10.437656439212734,-9.4426879590304065,-8.5941973235314588,-7.7457066880308716,-6.8972160525286492,-6.0487254170248095,-5.2002347815193328,-4.3517441460122184,-3.5032535105034768,-2.6547628749931049,-1.8062722394811037,-0.95778160396746681,-0.10929096845219188,0.73919966706470708,1.58769030258324,2.4361809381034045,3.2846715736252006,4.1331622091486251,4.9816528446736825,5.8301434802003627,6.6786341157286788,7.44896929958373,8.03693930038573,8.6249093011893851,9.212879301994688,9.8008493028016517,10.388819303610273,10.976789304420544,11.564759305232492,12.152729306046078,12.740699306861332,13.32866930767824,13.916639308496801,14.504609309317013,15.092579310138905,15.680549310962459,16.268519311787639,16.8564893126145,17.444459313443005,18.032429314273166,18.620399315104983,19.078950203146587,19.343369363746234,19.607788524347555,19.872207684950563,20.136626845555277,20.401046006161632,20.665465166769668,20.929884327379419,21.194303487990823,21.458722648603931,21.723141809218685,21.987560969835144,22.251980130453273,22.516399291073075,22.780818451694564,23.045237612317734,23.309656772942581,23.574075933569095,23.838495094197331,24.102914254827205,23.968361572404387,23.861655965726893,23.754950359051083,23.648244752376975,23.541539145704583,23.434833539033875,23.328127932364886,23.2214223256976,23.114716719032021,23.008011112368131,22.901305505705952,22.79459989904548,22.687894292386712,22.581188685729643,22.474483079074275,22.36777747242061,22.261071865768645,22.154366259118412,21.805193763248656,21.2943728548126,20.783551946378314,20.272731037945796,19.761910129515055,19.251089221086072,18.74026831265888,18.229447404233444,17.718626495809787,17.207805587387913,16.696984678967805,16.18616377054947,15.675342862132878,15.164521953718106,14.653701045305073,14.142880136893826,13.632059228484348,13.12123832007665,12.610417411670726,12.099596503266579,11.291212150899831,10.355296590229811,9.4193810295615314,8.4834654688949982,7.547549908230204,6.6116343475671906,5.6757187869059109,4.7398032262463419,3.8038876655885616,2.8679721049325,1.9320565442782063,0.99614098362565007,0.06022542297485485,-0.87569013767422366,-1.811605698321519,-2.7475212589670921,-3.6834368196109044,-4.6193523802529617,-5.5552679408932892,-6.4911835015318653,-7.7765389086169581,-9.1492584060248117,-10.521977903430813,-11.89469740083495,-13.267416898237226,-14.640136395637635,-16.01285589303621,-17.385575390432852,-18.758294887827695,-20.131014385220677,-21.503733882611741,-22.876453380000978,-24.249172877388332,-25.621892374773875,-26.994611872157481,-28.367331369539258,-29.74005086691918,-31.112770364297234,-32.485489861673408,-33.858209359047734,-35.629295346944893,-37.44464846204535,-39.260001577143917,-41.075354692240552,-42.8907078073353,-44.706060922428165,-46.521414037519129,-48.336767152608139,-50.152120267695366,-51.967473382780632,-53.782826497864029,-55.598179612945522,-57.413532728025125,-59.228885843102844,-61.044238958178632,-62.859592073252543,-64.674945188324585,-66.490298303394567,-68.305651418462958,-70.12100453352916,0,0.037952534929657278,0.10552742537823331,0.21771369574894534,0.38367894058835861,0.60438955638366432,0.880150832215968,1.210772263969851,1.59552662978371,2.0329492789707468,2.3578428520727579,3.1119446634250325
DP 260,261.43165481043764,0.0024045490042114591,-40.17262290212993,-39.309926206769852,-38.44722951140858,-37.58453281604605,-36.721836120682262,-35.859139425317338,-34.996442729951127,-34.133746034583694,-33.271049339215011,-32.408352643845141,-31.545655948474025,-30.682959253101696,-29.820262557728096,-28.957565862353309,-28.094869166977304,-27.232172471600023,-26.36947577622157,-25.506779080841834,-24.644082385460912,-23.781385690078753,-22.9256981758698,-22.133093954767663,-21.3404897336643,-20.547885512559692,-19.755281291453858,-18.962677070346771,-18.170072849238498,-17.377468628128945,-16.584864407018181,-15.792260185906164,-14.999655964792922,-14.207051743678447,-13.414447522562735,-12.621843301445798,-11.829239080327625,-11.036634859208213,-10.244030638087565,-9.4514264169656848,-8.6588221958425677,-7.8662179747182224,-7.1019116122195953,-6.4507980216237764,-5.7996844310266971,-5.1485708404283734,-4.4974572498288055,-3.8463436592279963,-3.1952300686259383,-2.5441164780226337,-1.8930028874180842,-1.2418892968122883,-0.59077570620524444,0.060337884403049352,0.7114514750125851,1.3625650656233694,2.0136786562353981,2.6647922468486782,3.3159058374631929,3.96701942807896,4.618133018695965,5.2692466093142221,5.8600744894486079,6.310233812335885,6.7603931352244464,7.2105524581142593,7.6607117810053369,8.1108711038976846,8.5610304267912927,9.0111897496861726,9.46134907258231,9.911508395479725,10.361667718378389,10.811827041278333,11.261986364179542,11.712145687082009,12.162305009985749,12.612464332890756,13.062623655797029,13.512782978704559,13.962942301613358,14.413101624523415,14.763676898206041,14.964873744812587,15.166070591420411,15.367267438029527,15.568464284639923,15.769661131251603,15.970857977864556,16.172054824478785,16.373251671094312,16.574448517711126,16.775645364329204,16.976842210948579,17.178039057569215,17.379235904191148,17.580432750814374,17.781629597438879,17.982826444064649,18.184023290691698,18.385220137320044,18.586416983949665,18.478147267678303,18.394599473556287,18.311051679435586,18.227503885316182,18.143956091198067,18.060408297081267,17.976860502965746,17.893312708851528,17.80976491473864,17.726217120627041,17.642669326516721,17.559121532407723,17.475573738300017,17.392025944193612,17.3084781500885,17.224930355984686,17.141382561882178,17.057834767780964,16.788831109791694,16.396187287592266,16.003543465394177,15.610899643197447,15.21825582100206,14.825611998808025,14.432968176615351,14.040324354424017,13.647680532234039,13.255036710045408,12.862392887858164,12.469749065672236,12.07710524348766,11.684461421304441,11.291817599122565,10.899173776942057,10.506529954762895,10.113886132585083,9.721242310408627,9.3285984882335331,8.7090412437259381,7.9922323256090984,7.2754234074935926,6.5586144893794156,5.8418055712665637,5.1249966531550672,4.408187735044895,3.6913788169360324,2.9745698988285354,2.2577609807223422,1.5409520626174982,0.82414314451397885,0.10733422641180432,-0.609474691689062,-1.3262836097885675,-2.04309252788676,-2.7599014459836093,-3.4767103640791226,-4.1935192821733134,-4.9103282002661688,-5.8929339347790908,-6.9419920138467726,-7.9910500929130412,-9.0401081719778791,-10.089166251041314,-11.138224330103327,-12.187282409163917,-13.236340488223071,-14.285398567280815,-15.334456646337159,-16.383514725392047,-17.432572804445545,-18.481630883497594,-19.530688962548261,-20.579747041597489,-21.628805120645296,-22.677863199691661,-23.726921278736643,-24.775979357780177,-25.825037436822306,-27.176587604666498,-28.56175118149849,-29.946914758329079,-31.332078335158176,-32.717241911985873,-34.102405488812067,-35.487569065636848,-36.872732642460186,-38.257896219282081,-39.643059796102506,-41.028223372921566,-42.413386949739142,-43.798550526555225,-45.183714103369951,-46.568877680183128,-47.954041256994941,-49.339204833805283,-50.724368410614083,-52.109531987421647,-53.494695564227627,0,0.028859676125822725,0.080340052432846032,0.16586420933838808,0.29239470851577271,0.46066945891612493,0.67092215284785572,0.92300784511130929,1.2163712786710914,1.549894844526468,1.797620754625902,2.3725867238329514
DP 261,104.62934559395606,0.0032959275950397221,-29.932794852536485,-29.429589643902261,-28.9263844352674,-28.423179226631937,-27.919974017995855,-27.416768809359144,-26.913563600721798,-26.410358392083857,-25.907153183445313,-25.403947974806151,-24.900742766166339,-24.397537557525933,-23.89433234888488,-23.391127140243245,-22.887921931600996,-22.384716722958093,-21.881511514314603,-21.378306305670485,-20.875101097025752,-20.37189588838039,-19.87234188346849,-19.405649057290088,-18.93895623111105,-18.472263404931383,-18.005570578751051,-17.538877752570077,-17.072184926388474,-16.605492100206213,-16.138799274023324,-15.672106447839798,-15.205413621655621,-14.738720795470803,-14.272027969285325,-13.805335143099228,-13.338642316912473,-12.871949490725097,-12.40525666453706,-11.938563838348381,-11.471871012159053,-11.005178185969095,-10.553524522027566,-10.162028217853402,-9.7705319136785231,-9.37903560950293,-8.9875393053266261,-8.5960430011496118,-8.2045466969718781,-7.8130503927934347,-7.4215540886142746,-7.0300577844344048,-6.6385614802538164,-6.2470651760725167,-5.8555688718905,-5.4640725677077784,-5.0725762635243345,-4.6810799593401828,-4.2895836551553117,-3.8980873509697331,-3.5065910467834414,-3.1150947425964337,-2.7567151467692534,-2.4756089138727169,-2.1945026809754467,-1.913396448077449,-1.6322902151787235,-1.3511839822792651,-1.0700777493790772,-0.78897151647815666,-0.507865283576508,-0.22675905067412774,0.054347182228978927,0.33545341513281812,0.61655964803739,0.89766588094268962,1.1787721138487206,1.4598783467554812,1.7409845796629735,2.0220908125711978,2.3031970454801494,2.5843032783898305,2.8083311438668086,2.9467401093963579,3.0851490749266959,3.2235580404578195,3.36196700598973,3.5003759715224243,3.6387849370559082,3.7771939025901808,3.9156028681252328,4.054011833661078,4.1924207991977038,4.3308297647351148,4.4692387302733207,4.60764769581231,4.7460566613520827,4.8844656268926423,5.02287459243399,5.1612835579761285,5.2996925235190488,5.4381014890627561,5.424780993202142,5.391770677694443,5.3587603621875619,5.3257500466815069,5.2927397311762769,5.2597294156718588,5.2267191001682773,5.193708784665513,5.1606984691635693,5.1276881536624463,5.0946778381621458,5.0616675226626695,5.0286572071640174,4.995646891666186,4.9626365761691762,4.9296262606729861,4.8966159451776221,4.86360562968308,4.7131280077415711,4.4843369976227763,4.2555459875048829,4.0267549773878875,3.7979639672717913,3.5691729571565958,3.3403819470423066,3.1115909369289154,2.8827999268164217,2.6540089167048304,2.4252179065941508,2.1964268964843625,1.9676358863754766,1.7388448762674962,1.5100538661604113,1.2812628560542323,1.0524718459489464,0.82368083584456875,0.59488982574109173,0.36609881563851909,-0.013463250993983544,-0.45764352058975016,-0.90182379018462722,-1.3460040597786054,-1.7901843293717017,-2.2343645989638903,-2.6785448685551869,-3.1227251381456056,-3.5669054077351161,-4.0110856773237469,-4.4552659469114779,-4.8994462164983181,-5.3436264860842613,-5.78780675566932,-6.2319870252534768,-6.6761672948367377,-7.1203475644191112,-7.5645278340005921,-8.0087081035811778,-8.4528883731608726,-9.08071404385291,-9.7544532346351218,-10.428192425416333,-11.101931616196529,-11.775670806975716,-12.449409997753888,-13.123149188531059,-13.7968883793072,-14.470627570082353,-15.144366760856514,-15.818105951629628,-16.491845142401761,-17.165584333172834,-17.839323523942959,-18.513062714712035,-19.186801905480102,-19.860541096247175,-20.534280287013253,-21.208019477778297,-21.881758668542343,-22.769972801975246,-23.682019737099314,-24.59406667222234,-25.506113607344293,-26.418160542465213,-27.330207477585088,-28.242254412703918,-29.154301347821683,-30.066348282938414,-30.978395218054096,-31.890442153168735,-32.802489088282343,-33.714536023394849,-34.62658295850639,-35.538629893616793,-36.4506768287262,-37.362723763834559,-38.274770698941836,-39.186817634048104,-40.098864569153278,0,0.026410512439130635,0.064249315769385876,0.12275500099544152,0.20874185885826171,0.32270669286929893,0.46474348554461364,0.63474764517478544,0.83239146573336487,1.0570083468183951,1.2233762358519744,1.6108476581066382
DP 262,102.55495214578191,0.0014711210217261633,-13.155204651087201,-12.936027187443502,-12.716849723799553,-12.497672260155305,-12.278494796510822,-12.059317332866058,-11.840139869221044,-11.620962405575751,-11.401784941930194,-11.182607478284375,-10.963430014638293,-10.744252550991948,-10.525075087345334,-10.305897623698453,-10.086720160051309,-9.8675426964038984,-9.648365232756225,-9.4291877691082853,-9.2100103054600826,-8.9908328418116081,-8.7732450953767156,-8.5699649541330327,-8.3666848128890727,-8.1634046716448374,-7.9601245304003143,-7.7568443891555283,-7.5535642479104643,-7.3502841066651161,-7.1470039654194961,-6.9437238241736,-6.740443682927431,-6.5371635416809815,-6.3338834004342566,-6.1306032591872475,-5.9273231179399755,-5.7240429766924157,-5.5207628354445832,-5.3174826941964763,-5.1142025529480923,-4.9109224116994294,-4.71419057772161,-4.54365228231009,-4.3731139868982556,-4.2025756914861141,-4.0320373960736671,-3.861499100660907,-3.6909608052478431,-3.5204225098344724,-3.349884214420789,-3.1793459190067965,-3.0088076235924945,-2.8382693281778826,-2.667731032762966,-2.4971927373477381,-2.3266544419322024,-2.1561161465163585,-1.9855778511002056,-1.8150395556837435,-1.6445012602669749,-1.473962964849896,-1.3178459449917435,-1.1953790224826233,-1.0729120999731847,-0.95044517746343149,-0.82797825495336286,-0.70551133244297737,-0.58304440993227613,-0.46057748742125787,-0.33811056490992458,-0.21564364239827485,-0.093176719886309961,0.029290202625971162,0.1517571251385692,0.27422404765148245,0.39669097016471194,0.5191578926782584,0.64162481519212,0.76409173770629846,0.88655866022079288,1.0090255827356018,1.106633586235616,1.1669526237812642,1.2272716613272527,1.2875906988735846,1.3479097364202575,1.4082287739672723,1.4685478115146262,1.5288668490623238,1.5891858866103623,1.6495049241587398,1.7098239617074618,1.770142999256523,1.8304620368059266,1.89078107435567,1.9511001119057583,2.0114191494561888,2.0717381870069551,2.1320572245580673,2.1923762621095193,2.2526952996613141,2.2469855265907119,2.2326376687001983,2.2182898108100431,2.2039419529202431,2.1895940950308019,2.1752462371417192,2.1608983792529948,2.1465505213646257,2.1322026634766149,2.1178548055889621,2.1035069477016668,2.0891590898147272,2.0748112319281455,2.060463374041924,2.0461155161560582,2.0317676582705491,2.0174198003853983,2.0030719425006067,1.9375497377861195,1.8379104956659773,1.7382712535462266,1.6386320114268693,1.5389927693079033,1.439353527189329,1.3397142850711512,1.2400750429533645,1.1404358008359685,1.0407965587189669,0.941157316602361,0.84151807448614513,0.741878832370323,0.64223959025489508,0.54260034813985558,0.44296110602521277,0.34332186391095931,0.24368262179710098,0.14404337968363695,0.044404137570565189,-0.12092754211637592,-0.31441401067326985,-0.50790047922977544,-0.70138694778588961,-0.89487341634161954,-1.0883598848969525,-1.2818463534518982,-1.4753328220064614,-1.6688192905606272,-1.8623057591144112,-2.0557922276678013,-2.2492786962208027,-2.4427651647734119,-2.6362516333256378,-2.8297381018774685,-3.0232245704289129,-3.2167110389799682,-3.4101975075306337,-3.6036839760809092,-3.7971704446307957,-4.07068048410308,-4.3641973618026171,-4.6577142395017095,-4.951231117200364,-5.2447479948985771,-5.5382648725963435,-5.8317817502936817,-6.125298627990559,-6.4188155056870038,-6.7123323833830169,-7.0058492610785743,-7.2993661387736983,-7.5928830164683729,-7.8863998941626221,-8.1799167718564139,-8.473433649549774,-8.7669505272426882,-9.0604674049351619,-9.3539842826271968,-9.6475011603187841,-10.034483139887751,-10.431851112386092,-10.829219084883981,-11.2265870573814,-11.623955029878369,-12.021323002374869,-12.418690974870911,-12.816058947366487,-13.213426919861638,-13.610794892356289,-14.00816286485051,-14.405530837344271,-14.80289880983757,-15.200266782330399,-15.597634754822781,-15.995002727314699,-16.392370699806172,-16.789738672297155,-17.187106644787733,-17.584474617277795,0,0.01168527797935856,0.028257048717018014,0.053785455457547655,0.091289493785864109,0.1409879863342523,0.20292117257319187,0.27704360481049511,0.3632136693958522,0.46114271582900235,0.53366087066312839,0.702578796499896
DP 263,125.36149404511031,0.0018476980523987633,-19.183997384674225,-18.838102544124386,-18.492207703574064,-18.146312863023269,-17.800418022472009,-17.45452318192029,-17.108628341368092,-16.762733500815425,-16.416838660262297,-16.070943819708706,-15.72504897915463,-15.379154138600097,-15.033259298045088,-14.687364457489602,-14.34146961693366,-13.995574776377262,-13.649679935820375,-13.303785095263029,-12.957890254705209,-12.611995414146925,-12.268623233462352,-11.947955230097582,-11.627287226732346,-11.306619223366623,-10.985951220000423,-10.665283216633734,-10.344615213266568,-10.023947209898923,-9.7032792065307909,-9.3826112031621882,-9.0619431997931024,-8.741275196423528,-8.4206071930534918,-8.0999391896829511,-7.7792711863119468,-7.4586031829404575,-7.1379351795684887,-6.8172671761960366,-6.4965991728231058,-6.1759311694496963,-5.8656466619772747,-5.5968966288486994,-5.3281465957196126,-5.0593965625900106,-4.7906465294599005,-4.5218964963292683,-4.2531464631981262,-3.9843964300664667,-3.7156463969342988,-3.4468963638016161,-3.1781463306684143,-2.9093962975347019,-2.6406462644004729,-2.3718962312657319,-2.1031461981304762,-1.8343961649947045,-1.5656461318584198,-1.296896098721624,-1.028146065584314,-0.75939603244648879,-0.5134765163484124,-0.32082892600875673,-0.12818133566857329,0.064466254672132364,0.25711384501336237,0.44976143535511859,0.64240902569739955,0.83505661604020609,1.0277042063835362,1.2203517967273911,1.4129993870717692,1.6056469774166731,1.7982945677621043,1.990942158108058,2.1835897484545392,2.3762373388015403,2.5688849291490685,2.7615325194971243,2.9541801098457023,3.146827700194804,3.3001974407292982,3.394649478381115,3.4891015160334882,3.58355355368641,3.6780055913398844,3.7724576289939127,3.866909666648493,3.9613617043036258,4.0558137419593114,4.1502657796155482,4.2447178172723383,4.3391698549296818,4.4336218925875777,4.5280739302460207,4.6225259679050259,4.7169780055645756,4.811430043224683,4.9058820808853376,5.0003341185465509,5.094786156208313,5.0838643921953945,5.0606050565337659,5.0373457208727075,5.0140863852122157,4.9908270495522968,4.9675677138929526,4.9443083782341768,4.9210490425759721,4.89778970691834,4.8745303712612795,4.8512710356047917,4.8280116999488705,4.8047523642935248,4.7814930286387485,4.7582336929845468,4.7349743573309091,4.7117150216778487,4.6884556860253621,4.5846998923011562,4.4272785250778872,4.269857157855232,4.112435790633187,3.9550144234117588,3.7975930561909403,3.64017168897074,3.4827503217511593,3.325328954532186,3.1679075873138296,3.0104862200960962,2.8530648528789651,2.6956434856624552,2.5382221184465612,2.3808007512312797,2.2233793840166149,2.0659580168025595,1.9085366495891234,1.7511152823763039,1.5936939151640974,1.3331551445876584,1.0284218087346106,0.7236884728821682,0.41895513703033804,0.11422180117910906,-0.19051153467150078,-0.49524487052150518,-0.79997820637091233,-1.1047115422196987,-1.4094448780678868,-1.7141782139154604,-2.0189115497624286,-2.3236448856087852,-2.62837822145454,-2.9331115572996782,-3.2378448931442141,-3.54257822898814,-3.8473115648314549,-4.1520449006741647,-4.4567782365162651,-4.8869289130638807,-5.3484354066222322,-5.8099419001799113,-6.2714483937369092,-6.7329548872932365,-7.1944613808488853,-7.6559678744038724,-8.117474367958172,-8.5789808615118055,-9.0404873550647711,-9.50199384861704,-9.9635003421686612,-10.425006835719577,-10.886513329269858,-11.34801982281942,-11.809526316368343,-12.271032809916573,-12.73253930346414,-13.194045797011032,-13.655552290557244,-14.263384695138221,-14.887477071054672,-15.511569446970428,-16.135661822885485,-16.75975419879985,-17.383846574713505,-18.007938950626485,-18.632031326538744,-19.256123702450346,-19.880216078361229,-20.504308454271428,-21.128400830180926,-21.752493206089724,-22.376585581997833,-23.00067795790525,-23.62477033381197,-24.248862709718011,-24.872955085623296,-25.497047461527977,-26.121139837431897,0,0.016103618468025847,0.041050047190347626,0.080657045416273443,0.13902237457023323,0.21646979411674783,0.31307519793422212,0.42876753951994745,0.563310673760275,0.71622855638796146,0.82964317613385175,1.0935031974325402
DP 264,86.361273382965777,0.0016618021001440263,-12.948306082079039,-12.751095931084341,-12.553885780089461,-12.35667562909436,-12.159465478099058,-11.962255327103554,-11.765045176107865,-11.56783502511195,-11.37062487411584,-11.173414723119535,-10.976204572123034,-10.778994421126312,-10.581784270129406,-10.384574119132283,-10.187363968134962,-9.99015381713745,-9.7929436661397258,-9.59573351514181,-9.3985233641436832,-9.20131321314535,-9.0055304280227766,-8.8225940707043478,-8.6396577133857,-8.4567213560668311,-8.27378499874775,-8.0908486414284617,-7.9079122841089458,-7.7249759267892166,-7.5420395694692743,-7.3591032121491171,-7.1761668548287378,-6.9932304975081534,-6.8102941401873434,-6.6273577828663148,-6.4444214255450785,-6.2614850682236236,-6.078548710901952,-5.8956123535800691,-5.7126759962579614,-5.5297396389356406,-5.3526829585069446,-5.1991452635350637,-5.045607568562926,-4.8920698735905317,-4.7385321786178833,-4.584994483644973,-4.431456788671805,-4.2779190936983813,-4.1243813987247018,-3.9708437037507673,-3.8173060087765682,-3.6637683138021169,-3.5102306188274053,-3.3566929238524397,-3.2031552288772138,-3.0496175339017313,-2.8960798389259943,-2.7425421439499993,-2.5890044489737458,-2.435466753997237,-2.2948862842060311,-2.1845397480968396,-2.0741932119873794,-1.9638466758776569,-1.85350013976767,-1.7431536036574189,-1.6328070675469015,-1.522460531436121,-1.4121139953250754,-1.3017674592137658,-1.1914209231021926,-1.0810743869903552,-0.97072785087825175,-0.860381314765884,-0.75003477865325308,-0.63968824254035639,-0.52934170642719514,-0.41899517031376937,-0.30864863420007954,-0.19830209808612584,-0.1103049149549325,-0.055832289427384454,-0.00135966389954127,0.0531129616285986,0.10758558715703505,0.16205821268576684,0.21653083821479535,0.27100346374412027,0.32547608927374039,0.37994871480365822,0.4344213403338707,0.48889396586437955,0.54336659139518506,0.59783921692628594,0.65231184245768459,0.70678446798937888,0.76125709352136894,0.81572971905365588,0.87020234458623769,0.924674970119116,0.92012369116368287,0.90740852746167522,0.89469336375998165,0.8819782000586035,0.86926303635754165,0.856547872656794,0.84383270895636453,0.83111754525624526,0.81840238155644562,0.805687217856958,0.7929720541577876,0.78025689045893187,0.76754172676039023,0.75482656306216467,0.74211139936425519,0.72939623566665968,0.71668107196938047,0.70396590827241745,0.64516609257259183,0.55564244953324837,0.46611880649426218,0.37659516345562843,0.28707152041735162,0.19754787737942939,0.10802423434186509,0.018500591304655655,-0.071023051732199319,-0.16054669476869809,-0.25007033780483789,-0.33959398084062531,-0.42911762387605668,-0.51864126691113,-0.60816490994585048,-0.69768855298021326,-0.78721219601422276,-0.87673583904787511,-0.96625948208116952,-1.0557831251141108,-1.2045133321534536,-1.3786185803829047,-1.5527238286120053,-1.7268290768407495,-1.9009343250691451,-2.075039573297182,-2.2491448215248644,-2.4232500697522013,-2.5973553179791775,-2.7714605662058065,-2.945565814432078,-3.1196710626579982,-3.2937763108835618,-3.4678815591087808,-3.6419868073336366,-3.8160920555581428,-3.9901973037822933,-4.1643025520060934,-4.3384078002295441,-4.5125130484526341,-4.7587797199655411,-5.0230875999044784,-5.2873954798430081,-5.55170335978112,-5.8160112397188293,-6.0803191196561217,-6.3446269995930056,-6.608934879529472,-6.8732427594655272,-7.1375506394011827,-7.4018585193364164,-7.666166399271237,-7.9304742792056393,-8.19478215913965,-8.4590900390732369,-8.723397919006409,-8.9877057989391727,-9.2520136788715277,-9.51632155880347,-9.7806294387350068,-10.129254664247462,-10.487249369249444,-10.84524407425101,-11.203238779252116,-11.561233484252806,-11.919228189253067,-12.277222894252894,-12.63521759925227,-12.993212304251248,-13.351207009249784,-13.709201714247881,-14.067196419245564,-14.425191124242799,-14.783185829239619,-15.141180534235982,-15.499175239231937,-15.857169944227467,-16.215164649222544,-16.573159354217196,-16.931154059211408,0,0.012328878606966501,0.02814184039064779,0.051537491003187212,0.085724397201346933,0.13093541269216014,0.18720513063752448,0.25449602498732216,0.33269394693118315,0.42155730806907543,0.48718596679227144,0.64025410537442273
DP 265,306.13815382244979,0.0037955147601999367,-70.436940683624911,-68.879218562387052,-67.321496441147147,-65.763774319905039,-64.206052198660913,-62.648330077414656,-61.090607956166345,-59.532885834915824,-57.975163713663271,-56.417441592408643,-54.859719471151834,-53.301997349892964,-51.744275228631977,-50.1865531073689,-48.628830986103708,-47.07110886483644,-45.513386743567047,-43.955664622295565,-42.397942501021944,-40.840220379746256,-39.295826933426937,-37.87139282161538,-36.44695870980172,-35.022524597985971,-33.59809048616809,-32.173656374348091,-30.749222262525997,-29.324788150701803,-27.900354038875488,-26.475919927047059,-25.051485815216513,-23.627051703383888,-22.202617591549121,-20.778183479712233,-19.353749367873277,-17.929315256032172,-16.504881144188957,-15.080447032343663,-13.656012920496233,-12.231578808646708,-10.860463830909472,-9.7026279095642369,-8.54479198821688,-7.3869560668673948,-6.2291201455158118,-5.0712842241620946,-3.9134483028062554,-2.755612381448294,-1.5977764600882218,-0.43994053872602623,0.717895382638295,1.8757313040047434,3.033567225373305,4.1914031467439932,5.3492390681167974,6.5070749894917279,7.6649109108687732,8.8227468322479261,9.9805827536292142,11.138418675012604,12.184366986555593,12.969240683173465,13.754114379793482,14.538988076415654,15.323861773039967,16.108735469666463,16.893609166295068,17.678482862925861,18.463356559558793,19.248230256193889,20.033103952831109,20.81797764947051,21.602851346112068,22.387725042755775,23.172598739401614,23.9574724360496,24.742346132699758,25.527219829352092,26.312093526006542,27.096967222663149,27.700718189031161,28.032780779920103,28.364843370811219,28.6969059617045,29.028968552599942,29.361031143497566,29.693093734397394,30.025156325299371,30.357218916203511,30.68928150710985,31.021344098018361,31.35340668892901,31.685469279841865,32.017531870756883,32.349594461674066,32.681657052593415,33.013719643514996,33.345782234438722,33.677844825364581,34.009907416292648,33.742407425519637,33.568993955461572,33.395580485405723,33.222167015352042,33.048753545300606,32.87534007525133,32.701926605204306,32.528513135159436,32.355099665116775,32.18168619507631,32.008272725038054,31.834859255001998,31.661445784968127,31.488032314936454,31.314618844906985,31.141205374879728,30.967791904854618,30.79437843483181,30.30035376086812,29.592583233460985,28.884812706056127,28.177042178653522,27.469271651253223,26.761501123855165,26.0537305964594,25.345960069065928,24.638189541674734,23.930419014285789,23.222648486899153,22.514877959514795,21.807107432132721,21.099336904752914,20.391566377375387,19.683795850000131,18.976025322627148,18.26825479525645,17.560484267888057,16.852713740521942,15.762806368705423,14.509120903515038,13.255435438326892,12.00174997314099,10.748064507957308,9.4943790427759289,8.24069357759677,6.9870081124198258,5.7333226472451768,4.4796371820727332,3.2259517169025567,1.9722662517346154,0.71858078656894153,-0.53510467859452882,-1.7887901437557041,-3.0424756089146685,-4.2961610740713665,-5.5498465392258129,-6.8035320043780363,-8.0572174695279966,-9.7485247831564941,-11.549242729506082,-13.349960675853309,-15.150678622198138,-16.951396568540595,-18.752114514880667,-20.552832461218372,-22.353550407553644,-24.154268353886536,-25.954986300217122,-27.755704246545267,-29.556422192871047,-31.357140139194382,-33.15785808551545,-34.958576031834021,-36.759293978150247,-38.560011924464092,-40.360729870775586,-42.161447817084671,-43.962165763391347,-46.253287350183591,-48.598903380787746,-50.944519411389486,-53.29013544198866,-55.63575147258549,-57.981367503179939,-60.32698353377188,-62.672599564361356,-65.018215594948572,-67.3638316255333,-69.709447656115572,-72.055063686695476,-74.40067971727288,-76.746295747848,-79.091911778420567,-81.437527808990751,-83.783143839558562,-86.128759870123844,-88.474375900686852,-90.819991931247216,0,0.047772321222662506,0.13395520557756682,0.27774242739732841,0.4905657867185334,0.77367748108942969,1.1274817947655364,1.551736546908177,2.0455014053745995,2.6068841638363653,3.023877399997756,3.9914529093387228
DP 266,244.89713695267372,0.001365357558020484,-21.872859772502665,-21.408943683086218,-20.945027593669103,-20.481111504251334,-20.017195414832891,-19.553279325413765,-19.089363235993972,-18.6254471465735,-18.161531057152363,-17.697614967730583,-17.233698878308111,-16.769782788884964,-16.305866699461156,-15.841950610036674,-15.37803452061153,-14.914118431185711,-14.450202341759207,-13.986286252332048,-13.52237016290422,-13.058454073475707,-12.59823873222893,-12.17133047443364,-11.744422216637677,-11.317513958841053,-10.89060570104373,-10.463697443245753,-10.036789185447091,-9.6098809276477564,-9.1829726698477554,-8.75606441204707,-8.32915615424572,-7.9022478964436935,-7.4753396386409907,-7.048431380837612,-6.6215231230335627,-6.1946148652288384,-5.7677066074234338,-5.3407983496173594,-4.9138900918106092,-4.4869818340031937,-4.0750636210816307,-3.7231062961559234,-3.3711489712295308,-3.0191916463024557,-2.6672343213746994,-2.3152769964462632,-1.9633196715171424,-1.611362346587339,-1.259405021656856,-0.90744769672568815,-0.555490371793838,-0.20353304686130239,0.14842427807191294,0.50038160300581114,0.85233892794039212,1.2042962528756549,1.5562535778116018,1.9082109027482261,2.2601682276855328,2.6121255526235259,2.9319770460630554,3.1769139210986621,3.421850796134962,3.666787671171956,3.9117245462096393,4.15666142124802,4.4015982962870943,4.6465351713268621,4.89147204636732,5.1364089214084725,5.3813457964503151,5.6262826714928575,5.8712195465360875,6.1161564215800155,6.3610932966246345,6.6060301716699508,6.8509670467159545,7.0959039217626572,7.3408407968100429,7.5857776718581267,7.7773050591771113,7.8887169528019951,8.0001288464275859,8.1115407400538864,8.2229526336808778,8.3343645273085762,8.4457764209369781,8.5571883145660852,8.6686002081959046,8.7800121018264186,8.8914239954576342,9.0028358890895515,9.1142477827221811,9.2256596763555052,9.3370715699895346,9.4484834636242763,9.5598953572597143,9.6713072508958629,9.7827191445327,9.8941310381702561,9.843393892895838,9.80081636495359,9.7582388370120583,9.7156613090712369,9.67308378113113,9.6305062531917383,9.5879287252530485,9.5453511973150942,9.5027736693778486,9.4601961414413047,9.4176186135054927,9.375041085570377,9.3324635576359789,9.2898860297023074,9.2473085017693464,9.2047309738370835,9.1621534459055454,9.1195759179747284,8.9758093433116084,8.764581810057301,8.553354276803729,8.3421267435508977,8.1308992102988125,7.9196716770474662,7.7084441437968731,7.4972166105470182,7.2859890772979075,7.0747615440495322,6.86353401080192,6.6523064775550447,6.4410789443089049,6.229851411063521,6.0186238778188681,5.8073963445749728,5.5961688113318049,5.384941278089391,5.1737137448477224,4.9624862116067954,4.6263825779794692,4.2367589293986958,3.8471352808186503,3.457511632239338,3.0678879836607531,2.6782643350829187,2.2886406865058095,1.8990170379294213,1.509393389353783,1.1197697407788643,0.73014609220468729,0.34052244363123924,-0.04910120494146885,-0.43872485351345708,-0.82834850208469679,-1.2179721506552132,-1.6075957992249916,-1.9972194477940337,-2.386843096362349,-2.77646674492993,-3.3134256929894792,-3.8872202067220454,-4.46101472045383,-5.0348092341848334,-5.608603747915053,-6.1823982616444857,-6.7561927753731483,-7.32998728910101,-7.9037818028280915,-8.477576316554412,-9.0513708302799216,-9.62516534400467,-10.19895985772861,-10.772754371451793,-11.346548885174183,-11.920343398895785,-12.494137912616623,-13.067932426336659,-13.641726940055912,-14.215521453774398,-14.95780838729825,-15.718818470378515,-16.479828553457995,-17.240838636536658,-18.001848719614529,-18.762858802691625,-19.523868885767882,-20.284878968843348,-21.04588905191806,-21.80689913499193,-22.56790921806504,-23.328919301137322,-24.089929384208851,-24.850939467279524,-25.611949550349408,-26.372959633418539,-27.133969716486838,-27.894979799554349,-28.655989882621096,-29.416999965686969,0,0.016023080195868303,0.044440145961988343,0.0915510215598391,0.16123593637324207,0.253899458489276,0.36966851368129205,0.50846298281142843,0.669978177772014,0.85360045886025959,0.98998167798430392,1.3065598616123124
DP 267,110.24529067754791,0.0040894832169973017,-38.647504739406415,-37.983214975374722,-37.318925211342226,-36.654635447308856,-35.990345683274647,-35.326055919239614,-34.661766155203722,-33.997476391166991,-33.333186627129429,-32.668896863090978,-32.004607099051753,-31.340317335011612,-30.676027570970653,-30.011737806928878,-29.347448042886242,-28.683158278842743,-28.018868514798445,-27.354578750753262,-26.690288986707262,-26.025999222660403,-25.366534652172806,-24.750497279823254,-24.134459907472852,-23.518422535121566,-22.9023851627694,-22.286347790416386,-21.670310418062485,-21.054273045707689,-20.43823567335204,-19.822198300995542,-19.20616092863812,-18.590123556279867,-17.974086183920718,-17.358048811560703,-16.742011439199818,-16.125974066838062,-15.509936694475421,-14.893899322111915,-14.277861949747534,-13.661824577382284,-13.065660411036172,-12.548990008004571,-12.032319604972018,-11.515649201938505,-10.998978798904043,-10.482308395868609,-9.9656379928322263,-9.4489675897948935,-8.9322971867565926,-8.4156267837173324,-7.8989563806771246,-7.3822859776359451,-6.8656155745938188,-6.3489451715507386,-5.8322747685066956,-5.3156043654616907,-4.7989339624157328,-4.2822635593688183,-3.7655931563209495,-3.2489227532721237,-2.7759997760119006,-2.4051555039634063,-2.0343112319139212,-1.6634669598634644,-1.2926226878120295,-0.92177841575961272,-0.55093414370621707,-0.18008987165184098,0.19075440040351141,0.56159867245984418,0.93244294451715237,1.3032872165754414,1.6741314886347103,2.0449757606949581,2.4158200327561845,2.7866643048183906,3.1575085768815763,3.5283528489457421,3.899197121010888,4.2700413930770038,4.5655153260076791,4.7479319691857942,4.9303486123649467,5.1127652555451517,5.2951818987264092,5.4775985419087059,5.660015185092047,5.8424318282764363,6.02484847146187,6.2072651146483571,6.3896817578358851,6.5720984010244647,6.7545150442140862,6.9369316874047477,7.1193483305964618,7.3017649737892274,7.484181616983034,7.6665982601778868,7.8490149033737886,8.03143154657073,8.0130435862987159,7.9692046458320869,7.9253657053665494,7.8815267649020928,7.837687824438734,7.7938488839764632,7.7500099435152743,7.7061710030551822,7.6623320625961853,7.6184931221382719,7.5746541816814466,7.53081524122572,7.4869763007710723,7.4431373603175253,7.3992984198650511,7.3554594794136889,7.3116205389634077,7.2677815985142207,7.0689700676831437,6.7668410352040933,6.4647120027262472,6.1625829702495665,5.86045393777409,5.5583249052997905,5.2561958728266882,4.9540668403547645,4.6519378078840283,4.3498087754144814,4.0476797429461335,3.7455507104789567,3.4434216780129714,3.1412926455481807,2.8391636130845677,2.5370345806221479,2.2349055481609086,1.9327765157008636,1.6306474832420064,1.3285184507843364,0.827561318360978,0.24138945829635688,-0.34478240176709263,-0.93095426182935881,-1.5171261218904646,-2.1032979819503708,-2.6894698420091072,-3.2756417020666886,-3.8618135621230727,-4.4479854221782986,-5.0341572822323331,-5.6203291422852013,-6.2065010023368812,-6.79267286238741,-7.3788447224367362,-7.9650165824848953,-8.551188442531874,-9.1373603025776777,-9.7235321626223179,-10.309704022665777,-11.137979335817267,-12.026783372753012,-12.915587409687436,-13.804391446620533,-14.693195483552332,-15.581999520482785,-16.470803557411958,-17.359607594339767,-18.248411631266247,-19.137215668191462,-20.026019705115296,-20.914823742037857,-21.803627778959044,-22.692431815878962,-23.581235852797537,-24.470039889714805,-25.358843926630723,-26.247647963545337,-27.136452000458618,-28.025256037370582,-29.196749492225912,-30.399655851331008,-31.602562210434741,-32.805468569537112,-34.008374928638084,-35.211281287737727,-36.414187646835991,-37.61709400593287,-38.820000365028363,-40.022906724122535,-41.225813083215286,-42.428719442306743,-43.6316258013968,-44.834532160485509,-46.037438519572795,-47.240344878658718,-48.443251237743347,-49.646157596826505,-50.849063955908427,-52.051970314988864,0,0.033548798671316257,0.082838573071128963,0.15972724249034617,0.2728385437746132,0.42281331550151885,0.60978164789823275,0.83360523836607148,1.0938438481428721,1.3896051768651931,1.6087739049272,2.1190464660021009
DP 268,94.747632609529418,0.0015637777032079913,-13.137829772624855,-12.9271779058049,-12.716526038984707,-12.505874172164281,-12.295222305343591,-12.084570438522698,-11.873918571701553,-11.663266704880174,-11.452614838058549,-11.241962971236687,-11.031311104414588,-10.820659237592238,-10.610007370769667,-10.399355503946856,-10.1887036371238,-9.9780517703004925,-9.7673999034769547,-9.55674803665319,-9.34609616982918,-9.1354443030049346,-8.9263185231421112,-8.730927670186416,-8.535536817230458,-8.3401459642742566,-8.1447551113178047,-7.9493642583610979,-7.7539734054041487,-7.5585825524469357,-7.3631916994894775,-7.1678008465317706,-6.97240999357381,-6.7770191406155948,-6.581628287657125,-6.3862374346984119,-6.1908465817394527,-5.99545572878023,-5.8000648758207607,-5.6046740228610394,-5.40928316990107,-5.2138923169408429,-5.0247880361938657,-4.8608303414127167,-4.6968726466312818,-4.5329149518495528,-4.3689572570675432,-4.204999562285245,-4.0410418675026589,-3.8770841727197856,-3.713126477936624,-3.5491687831531769,-3.3852110883694375,-3.22125339358541,-3.0572956988011017,-2.8933380040165004,-2.72938030923161,-2.5654226144464367,-2.4014649196609739,-2.2375072248752224,-2.0735495300891853,-1.9095918353028598,-1.7594841112332158,-1.6416934218803072,-1.5239027325271026,-1.4061120431736032,-1.2883213538198104,-1.170530664465721,-1.0527399751113378,-0.93494928575665748,-0.81715859640168387,-0.69936790704641449,-0.58157721769085136,-0.46378652833499318,-0.3459958389788389,-0.22820514962238983,-0.11041446026564626,0.0073762290913927057,0.12516691844872715,0.2429576078063565,0.36074829716428064,0.47853898652249827,0.57244706824900027,0.63053067416662389,0.68861428008457026,0.74669788600284082,0.80478149192143322,0.86286509784035015,0.92094870375959015,0.97903230967915245,1.0371159155990395,1.0951995215192498,1.153283127439783,1.211366733360639,1.2694503392818186,1.3275339452033215,1.3856175511251492,1.4437011570472991,1.5017847629697723,1.5598683688925679,1.6179519748156894,1.6760355807391309,1.67085794606509,1.657170035332354,1.6434821245999578,1.629794213867904,1.6161063031361906,1.6024183924048163,1.5887304816737879,1.575042570943094,1.5613546602127433,1.5476667494827343,1.5339788387530662,1.5202909280237389,1.5066030172947511,1.4929151065661044,1.4792271958377987,1.4655392851098323,1.4518513743822097,1.4381634636549272,1.3752647640230864,1.27955809653567,1.1838514290486348,1.0881447615619764,0.99243809407569739,0.89673142658979355,0.801024759104273,0.70531809161912828,0.60961142413436109,0.51390475664997459,0.41819808916596846,0.32249142168233874,0.22678475419908731,0.13107808671621715,0.035371419233722189,-0.060335248248391718,-0.1560419157301301,-0.25174858321148746,-0.34745525069246491,-0.44316191817306444,-0.60206822197609666,-0.78806093759502482,-0.97405365321357884,-1.1600463688317537,-1.3460390844495587,-1.5320318000669815,-1.7180245156840306,-1.9040172313007093,-2.0900099469170046,-2.276002662532933,-2.4619953781484805,-2.647988093763654,-2.8339808093784504,-3.0199735249928739,-3.2059662406069176,-3.3919589562205879,-3.5779516718338846,-3.7639443874467995,-3.9499371030593466,-4.1359298186715145,-4.3989357028988341,-4.6811957892080045,-4.9634558755167406,-5.245715961825046,-5.5279760481329241,-5.8102361344403688,-6.0924962207473916,-6.3747563070539686,-6.6570163933601236,-6.9392764796658479,-7.2215365659711335,-7.5037966522760033,-7.7860567385804229,-8.06831682488443,-8.3505769111879982,-8.6328369974911343,-8.9150970837938424,-9.1973571700961188,-9.4796172563979688,-9.76187734269939,-10.134104696050827,-10.516329357281773,-10.898554018512268,-11.2807786797423,-11.663003340971894,-12.045228002201034,-12.42745266342973,-12.809677324657969,-13.19190198588576,-13.574126647113106,-13.956351308340011,-14.338575969566458,-14.720800630792459,-15.103025292018005,-15.485249953243107,-15.867474614467753,-16.249699275691967,-16.631923936915715,-17.014148598139037,-17.39637325936188,0,0.012016238472658557,0.028332569228752567,0.053055637319087842,0.089303922482550716,0.13730068694935893,0.197082640565396,0.26860693682266917,0.35174280111347977,0.44622047997341913,0.516111823952808,0.67900368839103931
DP 269,261.40303406877524,0.0045179041105073738,-75.474913888797062,-73.85414556853425,-72.233377248269065,-70.6126089280016,-68.9918406077318,-67.371072287459782,-65.750303967185332,-64.129535646908693,-62.508767326629659,-60.887999006348338,-59.267230686064693,-57.646462365778774,-56.025694045490575,-54.404925725200066,-52.784157404907191,-51.1633890846121,-49.542620764314606,-47.92185244401486,-46.301084123712783,-44.680315803408405,-43.0727148536682,-41.583621483660345,-40.094528113650149,-38.605434743637659,-37.116341373622816,-35.627248003605715,-34.138154633586289,-32.6490612635645,-31.159967893540415,-29.670874523513991,-28.181781153485261,-26.692687783454218,-25.20359441342087,-23.71450104338517,-22.225407673347185,-20.736314303306838,-19.247220933264217,-17.758127563219254,-16.269034193171986,-14.779940823122404,-13.344010440154184,-12.120734518075141,-10.89745859599376,-9.6741826739100549,-8.4509067518239931,-7.2276308297356007,-6.0043549076448635,-4.7810789855517841,-3.557803063456368,-2.33452714135861,-1.1112512192585065,0.11202470284394615,1.3353006249487291,2.558576547055861,3.781852469165329,5.00512839127714,6.2284043133912954,7.4516802355077765,8.6749561576266014,9.8982320797477712,11.008249324591478,11.853992753957824,12.699736183326563,13.545479612697653,14.391223042071129,15.236966471446985,16.082709900825218,16.928453330205844,17.774196759588836,18.619940188974198,19.465683618361954,20.311427047752087,21.157170477144589,22.002913906539455,22.848657335936711,23.694400765336358,24.540144194738385,25.385887624142779,26.231631053549552,27.077374482958675,27.736027677085364,28.114041097226092,28.492054517369223,28.870067937514772,29.248081357662727,29.626094777813123,30.004108197965884,30.382121618121076,30.760135038278673,31.138148458438671,31.516161878601103,31.894175298765912,32.272188718933151,32.650202139102781,33.028215559274834,33.406228979449288,33.784242399626159,34.162255819805459,34.540269239987147,34.918282660171215,34.714919839800743,34.557971016311321,34.401022192824385,34.24407336933988,34.087124545857783,33.930175722378152,33.773226898900965,33.616278075426216,33.459329251953875,33.302380428484021,33.145431605016626,32.9884827815516,32.8315339580891,32.674585134628991,32.517636311171337,32.360687487716092,32.203738664263319,32.046789840813,31.541411323389656,30.803740854256898,30.066070385126679,29.328399915998972,28.59072944687383,27.853058977751186,27.115388508631128,26.377718039513592,25.640047570398565,24.90237710128611,24.16470663217622,23.427036163068827,22.689365693963985,21.951695224861698,21.214024755761923,20.476354286664719,19.738683817570031,19.001013348477876,18.263342879388304,17.525672410301244,16.361675104377465,15.014960540211653,13.668245976048347,12.321531411887547,10.974816847729217,9.6281022835734511,8.2813877194201737,6.9346731552693441,5.5879585911210832,4.2412440269752842,2.8945294628320042,1.5478148986912237,0.20110033455296597,-1.1456142295828333,-2.4923287937160752,-3.8390433578468532,-5.1857579219751058,-6.53247248610085,-7.87918705022411,-9.2259016143448562,-11.072002121541066,-13.042955014864459,-15.013907908185189,-16.984860801503256,-18.955813694818662,-20.926766588131382,-22.897719481441467,-24.868672374748837,-26.839625268053545,-28.81057816135564,-30.781531054655,-32.752483947951774,-34.723436841245778,-36.694389734537225,-38.665342627825886,-40.636295521111961,-42.6072484143953,-44.578201307676032,-46.54915420095405,-48.520107094229473,-51.059396269169376,-53.661839888755637,-56.264283508339211,-58.866727127920008,-61.469170747498168,-64.0716143670736,-66.674057986646233,-69.2765016062162,-71.8789452257835,-74.48138884534805,-77.083832464909889,-79.686276084469085,-82.288719704025411,-84.8911633235792,-87.493606943130146,-90.0960505626784,-92.69849418222401,-95.300937801766736,-97.903381421306932,-100.50582504084434,0,0.054222440410074353,0.15094446158248079,0.31162787491736776,0.54935422839181169,0.865509823407294,1.260533810084705,1.7341538559950962,2.285326881984024,2.9119528159760684,3.3773814505802613,4.457631024997629
DP 270,85.716441233203483,0.0048281642845911,-37.387588231071767,-36.82070982628904,-36.253831421505723,-35.686953016721787,-35.120074611937262,-34.553196207152247,-33.986317802366614,-33.419439397580405,-32.852560992793592,-32.285682588006217,-31.718804183218317,-31.151925778429813,-30.585047373640734,-30.018168968851075,-29.451290564060812,-28.884412159270017,-28.317533754478593,-27.750655349686657,-27.183776944894124,-26.616898540101012,-26.054122975776256,-25.528273363489255,-25.002423751201643,-24.4765741389134,-23.950724526624569,-23.424874914335124,-22.89902530204504,-22.373175689754358,-21.847326077463045,-21.321476465171145,-20.795626852878609,-20.269777240585437,-19.743927628291665,-19.2180780159973,-18.692228403702313,-18.166378791406689,-17.640529179110466,-17.114679566813621,-16.588829954516147,-16.062980342218076,-15.554030126450462,-15.112678295495451,-14.671326464539696,-14.229974633583195,-13.788622802625971,-13.347270971668006,-12.905919140709308,-12.46456730974988,-12.023215478789709,-11.581863647828797,-11.14051181686715,-10.699159985904771,-10.257808154941658,-9.8164563239778087,-9.375104493013211,-8.9337526620478833,-8.4924008310818184,-8.05104900011502,-7.6096971691474886,-7.1683453381792264,-6.7642376351405966,-6.447034070740103,-6.1298305063388483,-5.8126269419368386,-5.4954233775340642,-5.178219813130541,-4.8610162487262594,-4.5438126843212157,-4.2266091199154214,-3.9094055555088647,-3.5922019911015521,-3.2749984266934882,-2.9577948622846604,-2.6405912978750781,-2.3233877334647395,-2.0061841690536384,-1.6889806046417855,-1.37177704022917,-1.054573475815801,-0.7373699114016774,-0.4844062012366907,-0.32780379047424973,-0.17120137971096269,-0.014598968946823537,0.14200344181816738,0.29860585258400679,0.45520826335069348,0.61181067411823253,0.76841308488661708,0.925015495655857,1.0816179064259421,1.2382203171968784,1.3948227279686651,1.5514251387413,1.70802754951479,1.8646299602891205,2.0212323710643054,2.177834781840343,2.3344371926172256,2.4910396033949582,2.4780177551214178,2.4414881685555261,2.4049585819905355,2.3684289954264504,2.3318994088632694,2.2953698223009966,2.2588402357396329,2.222310649179164,2.1857810626196055,2.1492514760609494,2.1127218895032023,2.0761923029463603,2.0396627163904211,2.0031331298353914,1.966603543281263,1.9300739567280378,1.8935443701757237,1.8570147836243105,1.6880161909381677,1.4307028406171369,1.1733894902971356,0.91607613997814918,0.65876278966018709,0.40144943934324129,0.1441360890273313,-0.11317726128756388,-0.370490611601439,-0.62780396191428978,-0.88511731222610746,-1.1424306625369105,-1.3997440128466927,-1.6570573631554437,-1.914370713463184,-2.1716840637698906,-2.4289974140755826,-2.6863107643802517,-2.9436241146838871,-3.2009374649865032,-3.628446880374105,-4.1288997646895567,-4.6293526490039918,-5.12980553331741,-5.6302584176298236,-6.1307113019411954,-6.6311641862515636,-7.1316170705609272,-7.6320699548692614,-8.1325228391765965,-8.6329757234829039,-9.1334286077881917,-9.63388149209247,-10.134334376395737,-10.634787260697967,-11.1352401449992,-11.635693029299418,-12.136145913598602,-12.636598797896783,-13.13705168219396,-13.844940130641413,-14.604689921024695,-15.364439711406771,-16.124189501787686,-16.88393929216738,-17.643689082545908,-18.403438872923271,-19.163188663299408,-19.922938453674394,-20.682688244048204,-21.442438034420768,-22.202187824792205,-22.961937615162409,-23.72168740553149,-24.481437195899343,-25.241186986266012,-26.0009367766315,-26.760686566995812,-27.520436357358918,-28.280186147720848,-29.282322171554547,-30.311392544749037,-31.340462917942347,-32.36953329113436,-33.398603664325115,-34.42767403751467,-35.456744410702981,-36.485814783889992,-37.514885157075831,-38.543955530260412,-39.573025903443714,-40.602096276625844,-41.631166649806666,-42.660237022986308,-43.6893073961646,-44.718377769341757,-45.747448142517641,-46.776518515692267,-47.805588888865678,-48.834659262037782,0,0.035725548511505091,0.081323743691222514,0.14864099198926289,0.24697536192250838,0.377003405772124,0.538825177294479,0.73233372673840147,0.9572032030267642,1.212742322970678,1.4014357843845966,1.8415596372491527
DP 271,78.351687953630645,0.003041121141758021,-21.844202347770274,-21.531779585153259,-21.219356822535932,-20.906934059918349,-20.59451129730051,-20.282088534682376,-19.969665772063976,-19.657243009445285,-19.344820246826337,-19.032397484207095,-18.71997472158759,-18.407551958967815,-18.09512919634777,-17.782706433727423,-17.470283671106827,-17.157860908485944,-16.84543814586479,-16.533015383243342,-16.220592620621641,-15.908169857999662,-15.59800667397611,-15.308179910925832,-15.018353147875239,-14.728526384824354,-14.438699621773162,-14.148872858721662,-13.859046095669878,-13.569219332617765,-13.279392569565374,-12.98956580651268,-12.699739043459665,-12.409912280406353,-12.120085517352747,-11.830258754298839,-11.540431991244619,-11.250605228190102,-10.960778465135281,-10.670951702080155,-10.381124939024733,-10.091298175969003,-9.8107791048599235,-9.5674912414327711,-9.3242033780052331,-9.0809155145773239,-8.8376276511490151,-8.5943397877203331,-8.3510519242912657,-8.10776406086182,-7.864476197431987,-7.6211883340017765,-7.3779004705711753,-7.1346126071401921,-6.8913247437088279,-6.6480368802770862,-6.4047490168449572,-6.16146115341244,-5.9181732899795456,-5.6748854265462692,-5.4315975631126081,-5.1883096996785714,-4.9655359933710113,-4.7906293000414619,-4.6157226067115147,-4.4408159133811758,-4.2659092200504443,-4.0910025267193113,-3.9160958333877884,-3.74118914005587,-3.5662824467235543,-3.3913757533908448,-3.2164690600577455,-3.0415623667242504,-2.8666556733903539,-2.6917489800560688,-2.5168422867213844,-2.341935593386308,-2.1670289000508358,-1.9921222067149669,-1.8172155133787058,-1.6423088200420504,-1.5027919275682455,-1.416360572672325,-1.3299292177759523,-1.2434978628791205,-1.1570665079818345,-1.0706351530840912,-0.98420379818589376,-0.897772443287239,-0.81134108838813157,-0.7249097334885648,-0.6384783785885445,-0.55204702368806868,-0.46561566878713617,-0.37918431388574847,-0.2927529589839048,-0.20632160408160541,-0.11989024917884972,-0.0334588942756373,0.052972460628029155,0.13940381553215092,0.13264952473514988,0.11266133625769355,0.092673147780729187,0.072684959304253671,0.052696770828271622,0.032708582352780333,0.012720393877783467,-0.0072677945967293857,-0.027255983070744321,-0.047244171544270727,-0.067232360017304788,-0.087220548489845881,-0.10720873696189813,-0.12719692543345931,-0.14718511390452624,-0.16717330237510483,-0.18716149084519013,-0.20714967931478262,-0.30014417572260987,-0.44181069420950775,-0.58347721269583774,-0.72514373118160491,-0.86681024966680609,-1.0084767681514437,-1.15014328663551,-1.2918098051190121,-1.43347632360195,-1.5751428420843203,-1.7168093605661203,-1.85847587904736,-2.0001423975280321,-2.1418089160081322,-2.2834754344876753,-2.425141952966646,-2.5668084714450541,-2.7084749899228946,-2.8501415084001662,-2.9918080268768743,-3.2272952320140429,-3.502992569734416,-3.77868990745423,-4.0543872451734719,-4.3300845828921615,-4.6057819206102746,-4.8814792583278317,-5.15717659604483,-5.4328739337612575,-5.7085712714771333,-5.9842686091924424,-6.2599659469071831,-6.5356632846213607,-6.8113606223349841,-7.0870579600480355,-7.3627552977605255,-7.638452635472448,-7.9141499731838181,-8.18984731089462,-8.46554464860485,-8.8556057276856386,-9.2742590933425664,-9.6929124589988334,-10.111565824654432,-10.530219190309355,-10.948872555963622,-11.36752592161721,-11.786179287270119,-12.204832652922368,-12.623486018573963,-13.042139384224868,-13.460792749875104,-13.879446115524669,-14.298099481173587,-14.716752846821811,-15.135406212469389,-15.554059578116277,-15.972712943762481,-16.391366309408049,-16.810019675052949,-17.362319947418467,-17.929471279702092,-18.496622611985021,-19.0637739442672,-19.6309252765487,-20.198076608829496,-20.765227941109583,-21.332379273388945,-21.899530605667632,-22.46668193794558,-23.033833270222864,-23.600984602499437,-24.168135934775293,-24.735287267050456,-25.302438599324887,-25.869589931598615,-26.436741263871646,-27.003892596143952,-27.571043928415637,-28.138195260686498,0,0.021856298328026436,0.048093456372465392,0.085711845517937313,0.14038849481319063,0.2125582395380477,0.30228492261703216,0.40951897157346895,0.534100470706817,0.67567152085996818,0.77995832370257023,1.0233865306991166
DP 272,111.81322843037094,0.0028519015128610574,-27.238973092741556,-26.76809914551124,-26.297225198280284,-25.826351251048717,-25.355477303816581,-24.884603356583831,-24.413729409350466,-23.942855462116526,-23.47198151488195,-23.001107567646805,-22.530233620411039,-22.059359673174669,-21.58848572593768,-21.117611778700116,-20.646737831461955,-20.175863884223173,-19.7049899369838,-19.2341159897438,-18.763242042503229,-18.292368095262027,-17.824915816620649,-17.388258878813058,-16.951601941004842,-16.514945003196004,-16.078288065386548,-15.641631127576458,-15.204974189765762,-14.768317251954421,-14.331660314142475,-13.895003376329907,-13.458346438516706,-13.021689500702887,-12.585032562888436,-12.14837562507336,-11.711718687257672,-11.275061749441358,-10.838404811624413,-10.401747873806858,-9.9650909359886661,-9.5284339981698611,-9.1058681680143145,-8.7396674344790135,-8.3734667009430375,-8.0072659674063758,-7.6410652338690364,-7.2748645003310122,-6.908663766792305,-6.5424630332529219,-6.1762622997128576,-5.8100615661721156,-5.44386083263068,-5.0776600990885692,-4.7114593655457773,-4.3452586320023032,-3.97905789845815,-3.6128571649133145,-3.2466564313677955,-2.8804556978215974,-2.5142549642747225,-2.1480542307271624,-1.8128687517866822,-1.5500531774755932,-1.2872376031638031,-1.02442202885132,-0.76160645453814046,-0.49879088022426332,-0.23597530590968954,0.026840268405580913,0.2896558427215481,0.55247141703821123,0.81528699135556937,1.0781025656736247,1.3409181399923782,1.6037337143118269,1.8665492886319719,2.1293648629528166,2.3921804372743534,2.6549960115965923,2.9178115859195239,3.1806271602431537,3.390011394458976,3.5192473558962942,3.6484833173343567,3.77771927877316,3.9069552402127146,4.0361912016530077,4.1654271630940407,4.2946631245358242,4.4238990859783422,4.55313504742161,4.6823710088656139,4.811606970310363,4.9408429317558582,5.0700788932020933,5.1993148546490735,5.3285508160967927,5.45778677754526,5.5870227389944711,5.7162587004444259,5.8454946618951178,5.8322964335465821,5.8011696467638316,5.7700428599818618,5.73891607320065,5.7077892864202227,5.6766624996405612,5.6455357128616841,5.6144089260835672,5.5832821393062257,5.5521553525296614,5.5210285657538716,5.4899017789788571,5.4587749922046118,5.42764820543114,5.396521418658442,5.365394631886522,5.3342678451153693,5.3031410583449929,5.1621847449753586,4.9480070169836141,4.733829288992724,4.5196515610026644,4.305473833013445,4.0912961050250622,3.877118377037529,3.6629406490508356,3.44876292106498,3.2345851930799641,3.0204074650957984,2.8062297371124685,2.5920520091299788,2.3778742811483351,2.1636965531675236,1.9495188251875628,1.7353410972084344,1.5211633692301518,1.3069856412527128,1.0928079132761159,0.73774087905076868,0.32229081113136315,-0.093159256787211514,-0.50860932470494791,-0.9240593926218631,-1.3395094605379272,-1.7549595284531647,-2.1704095963675827,-2.5858596642811511,-3.0013097321939,-3.4167598001058073,-3.8322098680168848,-4.2476599359271248,-4.6631100038365432,-5.0785600717451134,-5.4940101396528629,-5.909460207559774,-6.3249102754658466,-6.7403603433710959,-7.1558104112755068,-7.7427984284095466,-8.3726729596107958,-9.0025474908111178,-9.6324220220105,-10.262296553208955,-10.892171084406465,-11.522045615603048,-12.151920146798687,-12.781794677993398,-13.411669209187188,-14.041543740380023,-14.671418271571952,-15.301292802762903,-15.931167333952956,-16.561041865142073,-17.190916396330234,-17.820790927517464,-18.450665458703781,-19.080539989889154,-19.710414521073584,-20.540568936604288,-21.392978776041208,-22.245388615477154,-23.09779845491212,-23.95020829434613,-24.802618133779177,-25.655027973211229,-26.507437812642312,-27.359847652072478,-28.212257491501624,-29.064667330929836,-29.917077170357071,-30.769487009783354,-31.621896849208667,-32.474306688632986,-33.326716528056345,-34.179126367478766,-35.031536206900192,-35.8839460463207,-36.736355885740153,0,0.0235482681460468,0.058368300903019664,0.11280519250056902,0.19290561894018324,0.29912158897683844,0.43154650241318065,0.5900824436487031,0.77441601329824528,0.98391256234520463,1.1391742765976554,1.5006255598285736
DP 273,61.31479939517228,0.0035091453510790994,-20.428333535211276,-20.191554501376459,-19.954775467541541,-19.717996433706571,-19.481217399871507,-19.244438366036356,-19.007659332201143,-18.770880298365842,-18.534101264530467,-18.297322230695002,-18.060543196859463,-17.823764163023856,-17.586985129188154,-17.350206095352377,-17.113427061516514,-16.8766480276806,-16.639868993844566,-16.403089960008479,-16.166310926172297,-15.929531892336044,-15.694464247052265,-15.474799260509224,-15.25513427396608,-15.035469287422805,-14.815804300879417,-14.596139314335922,-14.376474327792318,-14.156809341248593,-13.937144354704749,-13.717479368160797,-13.497814381616722,-13.278149395072552,-13.058484408528249,-12.83881942198385,-12.619154435439329,-12.399489448894675,-12.179824462349941,-11.96015947580506,-11.740494489260092,-11.520829502714994,-11.3082052460314,-11.123744241548749,-10.939283237065874,-10.754822232582796,-10.570361228099484,-10.385900223615963,-10.201439219132219,-10.016978214648262,-9.83251721016408,-9.6480562056796835,-9.4635952011950657,-9.2791341967102277,-9.0946731922251729,-8.9102121877399068,-8.7257511832544115,-8.5412901787686941,-8.3568291742827743,-8.1723681697966164,-7.9879071653102578,-7.8034461608236665,-7.6345111600793727,-7.5018039905856861,-7.3690968210917633,-7.23638965159761,-7.1036824821032329,-6.9709753126086307,-6.8382681431137939,-6.7055609736187183,-6.5728538041234241,-6.4401466346279017,-6.3074394651321448,-6.1747322956361641,-6.0420251261399542,-5.90931795664351,-5.7766107871468408,-5.6439036176499426,-5.5111964481528082,-5.3784892786554508,-5.2457821091578634,-5.1130749396600468,-5.0071458676715093,-4.9413845747303924,-4.8756232817889682,-4.809861988847242,-4.7441006959052032,-4.6783394029628607,-4.6125781100202072,-4.54681681707725,-4.4810555241339856,-4.4152942311904129,-4.3495329382465382,-4.2837716453023518,-4.2180103523578607,-4.15224905941306,-4.0864877664679566,-4.0207264735225454,-3.9549651805768242,-3.8892038876307984,-3.8234425946844657,-3.757681301737827,-3.7617893601581955,-3.7765849944022833,-3.7913806286460168,-3.8061762628894069,-3.8209718971324391,-3.8357675313751249,-3.8505631656174577,-3.865358799859449,-3.8801544341010872,-3.8949500683423741,-3.909745702583308,-3.9245413368238946,-3.9393369710641322,-3.9541326053040189,-3.9689282395435574,-3.9837238737827447,-3.9985195080215825,-4.0133151422600717,-4.0833788599669978,-4.1902888373302671,-4.2971988146930915,-4.4041087920554869,-4.5110187694174408,-4.617928746778964,-4.7248387241400387,-4.8317487015006861,-4.93865867886089,-5.0455686562206594,-5.1524786335799861,-5.2593886109388794,-5.3662985882973393,-5.4732085656553542,-5.580118543012933,-5.6870285203700783,-5.7939384977267858,-5.9008484750830572,-6.0077584524388845,-6.1146684297942775,-6.292630599234748,-6.5010446675662052,-6.7094587358972309,-6.9178728042278141,-7.1262868725579658,-7.3347009408876707,-7.5431150092169457,-7.7515290775457881,-7.9599431458741812,-8.168357214202155,-8.37677128252968,-8.585185350856765,-8.79359941918342,-9.0020134875096378,-9.2104275558354072,-9.41884162416076,-9.627255692485658,-9.8356697608101218,-10.044083829134152,-10.252497897457744,-10.54752113188956,-10.864197681155318,-11.18087423042051,-11.497550779685143,-11.814227328949222,-12.130903878212733,-12.447580427475698,-12.764256976738091,-13.080933525999928,-13.397610075261214,-13.714286624521943,-14.030963173782117,-14.347639723041716,-14.664316272300772,-14.980992821559257,-15.297669370817189,-15.614345920074554,-15.931022469331388,-16.247699018587642,-16.564375567843335,-16.982285401655375,-17.411444441390191,-17.840603481124397,-18.269762520858002,-18.698921560591021,-19.128080600323425,-19.557239640055215,-19.986398679786415,-20.415557719517029,-20.844716759247035,-21.273875798976434,-21.703034838705239,-22.132193878433441,-22.561352918161067,-22.99051195788806,-23.419670997614453,-23.848830037340264,-24.277989077065438,-24.707148116790066,-25.136307156514047,0,0.0238944031134805,0.047809100776803309,0.078416023600137746,0.12162557930419474,0.17803105743375433,0.24777139153862512,0.33087923334285008,0.42732884459854803,0.53693959055301954,0.61657116911591592,0.80272344815335483
DP 274,230.0318622079609,0.0036007351626465931,-55.440331582412128,-54.278627324863216,-53.11692306731269,-51.955218809760375,-50.7935145522064,-49.631810294650791,-48.470106037093366,-47.308401779534336,-46.146697521973543,-44.984993264411074,-43.823289006846927,-42.66158474928109,-41.499880491713562,-40.338176234144321,-39.17647197657341,-38.014767719000751,-36.853063461426423,-35.6913592038504,-34.529654946272665,-33.367950688693277,-32.215368878753289,-31.144889959874753,-30.074411040994487,-29.003932122112541,-27.933453203228879,-26.862974284343505,-25.792495365456436,-24.722016446567622,-23.651537527677142,-22.581058608784954,-21.510579689891021,-20.440100770995393,-19.369621852098074,-18.29914293319904,-17.228664014298296,-16.158185095395847,-15.087706176491686,-14.017227257585827,-12.946748338678244,-11.876269419768969,-10.84284657133821,-9.9576497561481023,-9.0724529409562642,-8.1872561257626941,-7.3020593105673957,-6.4168624953703706,-5.5316656801716011,-4.646468864971097,-3.7612720497688676,-2.8760752345649045,-1.990878419359202,-1.1056816041517623,-0.22048478894259449,0.66471202626830828,1.5499088414809441,2.4351056566953142,3.3203024719114151,4.2054992871292436,5.0906961023488053,5.9758929175701061,6.781359689060853,7.4007871797533529,8.020214670447622,8.6396421611436409,9.2590696518414255,9.8784971425409687,10.497924633242279,11.117352123945352,11.736779614650178,12.356207105356779,12.975634596065117,13.595062086775238,14.214489577487116,14.833917068200746,15.453344558916152,16.072772049633308,16.692199540352224,17.311627031072931,17.931054521795367,18.550482012519584,19.036474689304153,19.322311992029125,19.608149294755869,19.89398659748441,20.179823900214739,20.465661202946876,20.751498505680782,21.037335808416497,21.323173111153995,21.609010413893262,21.894847716634342,22.1806850193772,22.466522322121861,22.752359624868323,23.038196927616561,23.324034230366607,23.609871533118419,23.895708835872021,24.181546138627439,24.46738344138463,24.356319552693158,24.254725804257038,24.153132055822724,24.051538307390231,23.949944558959569,23.848350810530722,23.746757062103693,23.645163313678466,23.54356956525508,23.441975816833519,23.340382068413749,23.238788319995827,23.1371945715797,23.035600823165421,22.934007074752934,22.832413326342277,22.730819577933431,22.629225829526426,22.271146103294942,21.7420716845745,21.212997265855961,20.6839228471393,20.154848428424561,19.625774009711705,19.09669959100075,18.5676251722917,18.038550753584531,17.509476334879267,16.980401916175929,16.451327497474463,15.922253078774885,15.393178660077234,14.864104241381463,14.335029822687588,13.805955403995618,13.276880985305548,12.747806566617374,12.218732147931114,11.370876441657497,10.386395879020144,9.4019153163846543,8.4174347537510581,7.4329541911192987,6.4484736284894471,5.4639930658614588,4.4795125032353154,3.4950319406110748,2.5105513779886763,1.5260708153681717,0.5415902527495291,-0.44289030986722755,-1.4273708724821441,-2.4118514350951505,-3.3963319977063136,-4.3808125603155892,-5.365293122922985,-6.3497736855285343,-7.33425424813219,-8.69707965264439,-10.154495737863948,-11.611911823081513,-13.069327908297087,-14.526743993510653,-15.984160078722189,-17.441576163931764,-18.898992249139312,-20.356408334344845,-21.813824419548425,-23.271240504749954,-24.728656589949505,-26.18607267514702,-27.643488760342578,-29.100904845536093,-30.558320930727657,-32.015737015917161,-33.473153101104693,-34.930569186290207,-36.387985271473738,-38.279787818224655,-40.219860089480669,-42.159932360734651,-44.100004631986593,-46.040076903236489,-47.98014917448436,-49.920221445730135,-51.8602937169739,-53.800365988215624,-55.740438259455338,-57.68051053069302,-59.620582801928656,-61.560655073162231,-63.5007273443938,-65.44079961562322,-67.3808718868507,-69.320944158076131,-71.261016429299474,-73.201088700520856,-75.141160971740064,0,0.041295782078138284,0.11407308532297686,0.23445993301767168,0.41249491593236032,0.64920697777424241,0.94491536460864356,1.29941467258738,1.7119289502069046,2.1808967109229953,2.5291966288563241,3.3378039462718561
DP 275,116.95141110903234,0.0013232449499344984,-13.066342901368184,-12.836509211283248,-12.606675521197994,-12.376841831112451,-12.147008141026603,-11.91717445094045,-11.687340760853996,-11.45750707076725,-11.227673380680198,-10.997839690592835,-10.768006000505183,-10.538172310417222,-10.308338620328966,-10.078504930240406,-9.8486712401515426,-9.6188375500623788,-9.3890038599729078,-9.1591701698831471,-8.92933647979308,-8.6995027897026969,-8.471341328749844,-8.2582300881032644,-8.0451188474563722,-7.8320076068091629,-7.6188963661616462,-7.4057851255138267,-7.19267388486569,-6.9795626442172471,-6.7664514035684959,-6.553340162919425,-6.3402289222700476,-6.1271176816203585,-5.914006440970363,-5.7008952003200513,-5.4877839596694313,-5.2746727190185041,-5.06156147836726,-4.8484502377157117,-4.6353389970638483,-4.422227756411675,-4.216001610188469,-4.0373161670811877,-3.85863072397357,-3.6799452808656197,-3.501259837757329,-3.322574394648703,-3.1438889515397443,-2.9652035084304464,-2.7865180653208141,-2.6078326222108417,-2.4291471791005357,-2.25046173598989,-2.0717762928789103,-1.8930908497675929,-1.7144054066559404,-1.5357199635439502,-1.3570345204316245,-1.1783490773189629,-0.99966363420596538,-0.82097819109263037,-0.65744247460421834,-0.52925659757051624,-0.40107072053646825,-0.27288484350207737,-0.1446989664673439,-0.016513089432265048,0.11167278760315645,0.23985866463892302,0.36804454167503231,0.49623041871148538,0.62441629574828261,0.7526021727854223,0.8807880498229077,1.0089739268607356,1.137159803898907,1.2653456809374231,1.393531557976283,1.5217174350154872,1.6499033120550342,1.778089189094924,1.8801889296456917,1.9431588490306548,2.0061287684159819,2.0690986878016737,2.1320686071877315,2.195038526574153,2.2580084459609382,2.3209783653480898,2.3839482847356059,2.4469182041234854,2.5098881235117307,2.5728580429003429,2.6358279622893157,2.698797881678654,2.7617678010683595,2.8247377204584265,2.8877076398488595,2.9506775592396575,3.0136474786308205,3.0766173980223464,3.069888544102136,3.0546028707196839,3.0393171973376183,3.0240315239559283,3.0087458505746123,2.9934601771936795,2.9781745038131224,2.9628888304329455,2.9476031570531456,2.9323174836737227,2.9170318102946839,2.90174613691602,2.8864604635377344,2.8711747901598321,2.8558891167823028,2.8406034434051497,2.8253177700283816,2.8100320966519892,2.7411790221603263,2.636613503039797,2.5320479839196794,2.4274824647999695,2.32291694568067,2.21835142656178,2.1137859074433019,2.0092203883252324,1.9046548692075711,1.8000893500903206,1.6955238309734837,1.5909583118570521,1.4863927927410308,1.3818272736254231,1.2772617545102196,1.1726962353954296,1.0681307162810456,0.96356519716707578,0.85899967805351551,0.754434158940365,0.58118426577707571,0.37849728485354039,0.17581030393040845,-0.02687667699231518,-0.2295636579146387,-0.43225063883654796,-0.63493761975805429,-0.837624600679162,-1.0403115815998552,-1.2429985625201505,-1.4456855434400351,-1.6483725243595166,-1.8510595052785883,-2.053746486197261,-2.2564334671155222,-2.4591204480333797,-2.6618074289508331,-2.8644944098678775,-3.0671813907845173,-3.2698683717007535,-3.5561513920833594,-3.8633344100387408,-4.1705174279936728,-4.4777004459481491,-4.7848834639021725,-5.0920664818557437,-5.3992494998088674,-5.7064325177615247,-6.0136155357137433,-6.3207985536655142,-6.6279815716168162,-6.9351645895676759,-7.2423476075180684,-7.5495306254680248,-7.85671364341752,-8.1638966613665556,-8.4710796793151566,-8.7782626972633,-9.0854457152109731,-9.3926287331582152,-9.7973915798850975,-10.212997654633975,-10.6286037293824,-11.044209804130334,-11.459815878877825,-11.87542195362483,-12.291028028371358,-12.706634103117429,-13.122240177863056,-13.537846252608183,-13.953452327352856,-14.369058402097064,-14.78466447684079,-15.200270551584071,-15.61587662632685,-16.031482701069198,-16.447088775811064,-16.862694850552455,-17.2783009252934,-17.693907000033832,0,0.011157330859731711,0.027978981603489626,0.054450469615524577,0.093426802825441635,0.14512580815083934,0.2095949992559038,0.28678673834554291,0.37654626641401284,0.47856092959719354,0.55419070592081665,0.73021106435046756
DP 276,272.44527300476824,0.002484665482266217,-42.644108202186011,-41.721210506188989,-40.798312810190708,-39.875415114191092,-38.952517418190183,-38.029619722188009,-37.1067220261845,-36.183824330179711,-35.260926634173622,-34.338028938166225,-33.41513124215755,-32.492233546147567,-31.569335850136259,-30.646438154123654,-29.723540458109781,-28.800642762094597,-27.877745066078106,-26.954847370060318,-26.031949674041272,-25.109051978020869,-24.193746952250127,-23.34677667642827,-22.49980640060507,-21.6528361247806,-20.805865848954813,-19.958895573127709,-19.111925297299308,-18.264955021469614,-17.417984745638623,-16.571014469806293,-15.724044193972682,-14.877073918137761,-14.030103642301544,-13.183133366464013,-12.336163090625185,-11.489192814785048,-10.642222538943601,-9.7952522631008669,-8.9482819872568058,-8.1013117114114621,-7.2849280399500165,-6.590892231593636,-5.8968564232359357,-5.2028206148769183,-4.5087848065165916,-3.8147489981549518,-3.1207131897919909,-2.4266773814277141,-1.7326415730621294,-1.0386057646952254,-0.34456995632700455,0.34946585204253594,1.0435016604133873,1.7375374687855576,2.4315732771590404,3.125609085533835,3.8196448939099525,4.5136807022873731,5.2077165106661143,5.9017523190461745,6.5308651523648553,7.00848899831375,7.4861128442639675,7.9637366902155309,8.4413605361684247,8.9189843821226589,9.3966082280782217,9.8742320740351275,10.351855919993364,10.829479765952939,11.307103611913844,11.784727457876102,12.26235130383966,12.739975149804598,13.217598995770844,13.695222841738437,14.172846687707363,14.65047053367762,15.128094379649218,15.60571822562215,15.976617547529797,16.187427561370612,16.398237575212779,16.609047589056306,16.819857602901173,17.03066761674739,17.241477630594964,17.452287644443878,17.66309765829417,17.873907672145805,18.084717685998779,18.295527699853125,18.506337713708795,18.717147727565834,18.92795774142424,19.138767755283968,19.349577769145078,19.560387783007528,19.77119779687132,19.982007810736469,19.855921669665211,19.763324636896293,19.670727604128743,19.578130571362571,19.485533538597771,19.392936505834324,19.300339473072267,19.207742440311563,19.115145407552227,19.022548374794287,18.929951342037693,18.837354309282485,18.744757276528652,18.652160243776166,18.55956321102504,18.466966178275335,18.374369145526959,18.281772112779944,17.992791938127521,17.572886575108193,17.152981212090303,16.73307584907381,16.313170486058741,15.893265123045088,15.473359760032865,15.053454397022072,14.633549034012702,14.213643671004739,13.793738307998222,13.373832944993106,12.95392758198944,12.534022218987182,12.114116855986339,11.694211492986936,11.274306129988927,10.854400766992374,10.434495403997229,10.014590041003515,9.3558557463561538,8.5947629703511268,7.833670194347496,7.0725774183452783,6.3114846423444346,5.5503918663450289,4.7892990903470247,4.0282063143503892,3.2671135383551917,2.5060207623613655,1.7449279863689642,0.98383521037795585,0.2227424343883623,-0.53835034159985362,-1.2994431175866372,-2.0605358935720388,-2.8216286695560289,-3.5827214455386085,-4.3438142215198,-5.1049069974995795,-6.14430979883408,-7.25329339480341,-8.3622769907712531,-9.4712605867375874,-10.58024418270244,-11.689227778665805,-12.798211374627682,-13.90719497058805,-15.016178566546914,-16.125162162504328,-17.234145758460198,-18.343129354414611,-19.452112950367489,-20.561096546318932,-21.670080142268834,-22.779063738217282,-23.888047334164174,-24.997030930109656,-26.106014526053603,-27.214998121996047,-28.639609193790612,-30.099293299976367,-31.558977406160622,-33.018661512343321,-34.478345618524486,-35.938029724704151,-37.397713830882338,-38.857397937058956,-40.317082043234066,-41.776766149407663,-43.236450255579705,-44.696134361750339,-46.155818467919353,-47.615502574086889,-49.075186680252877,-50.534870786417393,-51.994554892580425,-53.454238998741843,-54.913923104901833,-56.373607211060168,0,0.030222441747912103,0.084311447030673253,0.17427838492134362,0.30739817271419156,0.48444907322945846,0.70567902967208651,0.97093581601717127,1.2796341877502078,1.63059595120721,1.8912789090428854,2.4962729436621474
DP 277,300.73436515150917,0.0016570297484080423,-30.379696561805012,-29.710047368401558,-29.04039817499719,-28.370748981591866,-27.70109978818568,-27.031450594778587,-26.361801401370549,-25.692152207961609,-25.022503014551777,-24.352853821141018,-23.683204627729335,-23.013555434316764,-22.343906240903291,-21.674257047488886,-21.004607854073562,-20.334958660657335,-19.66530946724022,-18.995660273822182,-18.326011080403209,-17.656361886983351,-16.992406324008062,-16.37969397322783,-15.766981622446693,-15.154269271664631,-14.541556920881657,-13.928844570097766,-13.316132219312978,-12.703419868527252,-12.090707517740626,-11.477995166953093,-10.865282816164617,-10.252570465375241,-9.6398581145849676,-9.0271457637937669,-8.41443341300166,-7.8017210622086264,-7.1890087114146812,-6.5762963606198293,-5.9635840098240589,-5.350871659027379,-4.7609614287472022,-4.262260758195719,-3.76356008764332,-3.2648594170900025,-2.7661587465357691,-2.2674580759806164,-1.7687574054245421,-1.27005673486755,-0.77135606430964077,-0.27265539375081349,0.22604527680893541,0.7247459473696054,1.223446617931192,1.7221472884936972,2.2208479590571213,2.7195486296214666,3.2182493001867281,3.7169499707529039,4.2156506413199972,4.7143513118880147,5.1651140457514249,5.5040200835667994,5.8429261213831074,6.1818321592003516,6.5207381970185212,6.8596442348376332,7.1985502726576689,7.537456310478639,7.876362348300554,8.2152683861233875,8.5541744239471562,8.8930804617718469,9.2319864995974861,9.570892537424065,9.9097985752515676,10.248704613079997,10.587610650909374,10.926516688739669,11.265422726570895,11.604328764403064,11.865439274509331,12.00985465466861,12.154270034828805,12.298685414989956,12.443100795152048,12.587516175315089,12.73193155547907,12.87634693564398,13.020762315809838,13.165177695976643,13.309593076144388,13.454008456313074,13.598423836482702,13.742839216653264,13.887254596824787,14.031669976997241,14.176085357170642,14.320500737344965,14.464916117520264,14.609331497696472,14.498151171101494,14.424795552749101,14.351439934397673,14.2780843160472,14.204728697697684,14.131373079349105,14.058017461001491,13.984661842654805,13.911306224309108,13.837950605964336,13.764594987620539,13.69123936927768,13.617883750935764,13.544528132594838,13.471172514254839,13.397816895915806,13.324461277577724,13.251105659240585,13.039159461375872,12.734817360510135,12.430475259645386,12.126133158781624,11.821791057918857,11.517448957057065,11.213106856196271,10.908764755336472,10.60442265447764,10.300080553619802,9.9957384527629749,9.691396351907116,9.38705425105226,9.0827121501983754,8.7783700493454866,8.474027948493589,8.1696858476426684,7.8653437467927452,7.56100164594381,7.2566595450958715,6.7865735716382263,6.245452271860592,5.7043309720839384,5.1632096723082634,4.6220883725335442,4.0809670727598233,3.5398457729870727,2.9987244732152725,2.4576031734444741,1.916481873674631,1.3753605739057702,0.83423927413787935,0.29311797437097065,-0.24800332539498135,-0.78912462515993909,-1.3302459249239365,-1.8713672246869524,-2.4124885244489911,-2.9536098242100657,-3.4947311239701611,-4.2262208238701353,-5.0053048730509433,-5.7843889222307219,-6.5634729714094622,-7.3425570205871757,-8.1216410697638537,-8.9007251189395067,-9.6798091681141027,-10.458893217287669,-11.237977266460225,-12.017061315631706,-12.796145364802179,-13.575229413971613,-14.354313463140031,-15.133397512307386,-15.912481561473713,-16.691565610639017,-17.470649659803286,-18.249733708966509,-19.0288177581287,-20.021666024180234,-21.038268114927526,-22.054870205673765,-23.071472296418943,-24.088074387163079,-25.104676477906153,-26.121278568648183,-27.137880659389143,-28.154482750129066,-29.171084840867945,-30.187686931605775,-31.204289022342575,-32.220891113078281,-33.23749320381296,-34.254095294546573,-35.270697385279149,-36.287299476010695,-37.303901566741139,-38.320503657470589,-39.337105748198937,0,0.020754859121179792,0.058155991267909338,0.1205288870666808,0.21284437548821847,0.3356451380552995,0.48910607148680996,0.673122043203174,0.88728546008401166,1.1307759513218325,1.3116391468281807,1.7313185239951105
DP 278,125.96317011531856,0.0019409155197820484,-20.220563523661074,-19.85538811009949,-19.490212696537419,-19.125037282974862,-18.75986186941179,-18.394686455848227,-18.029511042284167,-17.664335628719609,-17.299160215154579,-16.933984801589034,-16.568809388022995,-16.203633974456455,-15.838458560889423,-15.473283147321894,-15.108107733753892,-14.742932320185371,-14.377756906616353,-14.012581493046843,-13.647406079476841,-13.282230665906349,-12.919719053223433,-12.581181900326616,-12.242644747429294,-11.904107594531471,-11.565570441633135,-11.227033288734292,-10.888496135834938,-10.549958982935092,-10.211421830034713,-9.8728846771338414,-9.5343475242324587,-9.1958103713305626,-8.85727321842816,-8.5187360655252569,-8.1801989126218366,-7.8416617597179119,-7.5031246068134765,-7.16458745390854,-6.826050301003086,-6.4875131480971344,-6.1599400802605606,-5.8762238708809642,-5.5925076615008242,-5.3087914521201363,-5.0250752427389127,-4.7413590333571465,-4.4576428239748331,-4.1739266145919762,-3.8902104052085771,-3.6064941958246339,-3.32277798644015,-3.0390617770551183,-2.7553455676695457,-2.4716293582834288,-2.1879131488967687,-1.9041969395095644,-1.6204807301218191,-1.3367645207335315,-1.0530483113447007,-0.76933210195532664,-0.50972150557489337,-0.306358099056073,-0.10299469253669477,0.10036871398323549,0.30373212050371989,0.50709552702476035,0.71045893354635392,0.91382234006850371,1.1171857465912076,1.3205491531144655,1.5239125596382757,1.7272759661626418,1.9306393726875639,2.1340027792130423,2.3373661857390715,2.5407295922656576,2.7440929987927967,2.9474564053204921,3.1508198118487405,3.3541832183775417,3.5160779467724512,3.6157686780350731,3.7154594092982793,3.8151501405620727,3.9148408718264447,4.0145316030914016,4.1142223343569411,4.2139130656230668,4.3136037968897751,4.4132945281570679,4.5129852594249451,4.6126759906934005,4.712366721962443,4.8120574532320681,4.9117481845022768,5.0114389157730708,5.1111296470444438,5.2108203783164084,5.3105111095889512,5.4102018408620767,5.3986067205821353,5.3740302912982267,5.3494538620149115,5.3248774327322019,5.3003010034500955,5.275724574168593,5.2511481448876944,5.2265717156073963,5.201995286327703,5.1774188570486155,5.1528424277701328,5.1282659984922487,5.1036895692149677,5.0791131399382907,5.0545367106622194,5.0299602813867494,5.0053838521118807,4.9808074228376187,4.8712576705383226,4.7050576975771685,4.5388577246166646,4.3726577516568073,4.2064577786975974,4.0402578057390368,3.8740578327811321,3.70785785982387,3.5416578868672555,3.3754579139112915,3.2092579409559834,3.0430579680013174,2.8768579950473003,2.7106580220939378,2.5444580491412165,2.3782580761891512,2.2120581032377253,2.0458581302869558,1.8796581573368369,1.7134581843873657,1.4384147580805433,1.1167226677519717,0.79503057742404148,0.47333848709675641,0.15164639677010522,-0.17004569355589136,-0.49173778388124945,-0.81342987420597768,-1.135121964530049,-1.4568140548534909,-1.7785061451762829,-2.1001982354984365,-2.4218903258199433,-2.7435824161408164,-3.0652745064610381,-3.3869665967806268,-3.7086586870995668,-4.0303507774178682,-4.3520428677355287,-4.6737349580525427,-5.12780228391176,-5.6149649826999877,-6.1021276814875041,-6.5892903802743144,-7.0764530790604079,-7.5636157778457882,-8.0507784766304749,-8.53794117541443,-9.0251038741976828,-9.5122665729802325,-9.9994292717620468,-10.486591970543177,-10.973754669323567,-11.460917368103276,-11.94808006688225,-12.435242765660526,-12.922405464438084,-13.409568163214942,-13.896730861991072,-14.383893560766513,-15.025493906045696,-15.684255611794189,-16.343017317541971,-17.001779023288993,-17.660540729035297,-18.319302434780852,-18.978064140525696,-19.636825846269783,-20.295587552013153,-20.954349257755798,-21.613110963497675,-22.271872669238871,-22.930634374979302,-23.589396080719013,-24.248157786457966,-24.906919492196192,-25.565681197933731,-26.224442903670472,-26.883204609406537,-27.541966315141803,0,0.016955093802308308,0.043266425817110744,0.08506392152986933,0.14666033034654452,0.22839723996676115,0.33035510482122726,0.45245896592661533,0.59445930665569346,0.75585319277869589,0.87555725283855346,1.1540427648265308
DP 279,78.75117749209457,0.0025975436104454337,-18.738378993707702,-18.469426147810005,-18.200473301912066,-17.931520456013871,-17.66256761011546,-17.393614764216807,-17.1246619183179,-16.855709072418772,-16.586756226519388,-16.317803380619782,-16.048850534719914,-15.77989768881983,-15.510944842919502,-15.241991997018935,-14.97303915111813,-14.704086305217073,-14.435133459315784,-14.16618061341426,-13.897227767512495,-13.62827492161049,-13.361267519516248,-13.111769295585399,-12.862271071654304,-12.612772847722946,-12.363274623791314,-12.113776399859423,-11.864278175927284,-11.614779951994862,-11.365281728062188,-11.11578350412926,-10.866285280196058,-10.616787056262597,-10.367288832328871,-10.117790608394879,-9.8682923844606378,-9.6187941605261269,-9.3692959365913566,-9.1197977126563181,-8.8702994887210149,-8.62080126478546,-8.3793157628061952,-8.16988152734522,-7.9604472918839146,-7.7510130564222735,-7.5415788209603161,-7.33214458549802,-7.1227103500353968,-6.91327611457244,-6.70384187910915,-6.4944076436455367,-6.2849734081815845,-6.0755391727173071,-5.86610493725269,-5.6566707017877507,-5.4472364663224822,-5.2378022308568752,-5.0283679953909415,-4.8189337599246773,-4.6094995244580836,-4.4000652889911605,-4.2082916320690877,-4.0577265481921314,-3.9071614643148287,-3.756596380437188,-3.6060312965592063,-3.4554662126808853,-3.304901128802221,-3.1543360449232143,-3.0037709610438674,-2.8532058771641804,-2.7026407932841514,-2.5520757094037831,-2.401510625523072,-2.2509455416420203,-2.1003804577606271,-1.9498153738788941,-1.7992502899968179,-1.6486852061144002,-1.4981201222316445,-1.3475550383485475,-1.2274556787977615,-1.1530556256699787,-1.0786555725418057,-1.0042555194132377,-0.92985546628427629,-0.85545541315492224,-0.78105536002517639,-0.70665530689503564,-0.63225525376450376,-0.55785520063357663,-0.48345514750225865,-0.40905509437054777,-0.33465504123844236,-0.26025498810594577,-0.18585493497305419,-0.1114548818397714,-0.0370548287060942,0.037345224427976963,0.1117452775624399,0.18614533069729414,0.18031051783881188,0.16309640887903354,0.14588229991967769,0.1286681909607448,0.11145408200223662,0.094239973044151423,0.077025864086491286,0.059811755129249973,0.042597646172436492,0.025383537216043396,0.0081694282600759515,-0.0090446806954674816,-0.026258789650590749,-0.043472898605287635,-0.06068700755956187,-0.077901116513413041,-0.09511522546684012,-0.11232933441984276,-0.19239194204575677,-0.314354538884006,-0.43631713572176523,-0.55827973255904162,-0.680242329395829,-0.80220492623213213,-0.92416752306794359,-1.0461301199032695,-1.1680927167381103,-1.2900553135724617,-1.4120179104063231,-1.5339805072397024,-1.655943104072592,-1.7779057009049934,-1.8998682977369103,-2.0218308945683363,-2.14379349139928,-2.2657560882297321,-2.387718685059697,-2.5096812818891752,-2.7124096201161567,-2.9497529381026375,-3.1870962560886325,-3.4244395740741402,-3.6617828920591715,-3.8991262100437107,-4.1364695280277619,-4.3738128460113437,-4.6111561639944263,-4.8484994819770346,-5.0858427999591544,-5.3231861179407911,-5.5605294359219357,-5.7978727539026051,-6.0352160718827834,-6.272559389862483,-6.5099027078416931,-6.7472460258204228,-6.984589343798663,-7.22193266177642,-7.5577262742586786,-7.9181336235795987,-8.2785409728999451,-8.63894832221971,-8.9993556715389111,-9.3597630208575264,-9.7201703701755715,-10.080577719493039,-10.440985068809926,-10.801392418126255,-11.161799767441989,-11.522207116757162,-11.882614466071743,-12.243021815385777,-12.603429164699204,-12.963836514012069,-13.324243863324352,-13.684651212636073,-14.045058561947219,-14.405465911257771,-14.880922053416366,-15.369162603070903,-15.857403152724849,-16.34564370237818,-16.8338842520309,-17.322124801683032,-17.810365351334511,-18.298605900985425,-18.786846450635728,-19.275087000285403,-19.76332754993448,-20.251568099582979,-20.739808649230842,-21.228049198878121,-21.716289748524765,-22.204530298170827,-22.692770847816288,-23.181011397461109,-23.669251947105348,-24.157492496748958,0,0.018696744823724496,0.041221887760765824,0.073576909459227291,0.12061947255052725,0.18272022772577956,0.259933447579213,0.3522158569703745,0.459428576366619,0.58126225919750485,0.6710242560977564,0.88053940942322639
DP 280,94.359359092266786,0.0016324435543066769,-13.669707628639612,-13.450992299218619,-13.232276969797361,-13.013561640375862,-12.794846310954117,-12.576130981532131,-12.357415652109882,-12.138700322687395,-11.919984993264668,-11.701269663841691,-11.482554334418467,-11.263839004994985,-11.045123675571279,-10.826408346147309,-10.607693016723097,-10.388977687298636,-10.17026235787392,-9.9515470284489691,-9.7328316990237678,-9.5141163695983231,-9.2969853452270446,-9.0941132161006273,-8.8912410869739347,-8.6883689578469934,-8.4854968287197909,-8.2826246995923256,-8.0797525704646027,-7.8768804413366178,-7.6740083122083753,-7.4711361830798717,-7.2682640539511008,-7.06539192482208,-6.8625197956927915,-6.6596476665632514,-6.4567755374334483,-6.2539034083033878,-6.0510312791730643,-5.8481591500424814,-5.645287020911633,-5.44241489178053,-5.2460700301740717,-5.0758345471546988,-4.9055990641350204,-4.73536358111505,-4.5651280980947782,-4.39489261507421,-4.2246571320533448,-4.0544216490321805,-3.8841861660107213,-3.7139506829889597,-3.5437151999668988,-3.3734797169445421,-3.2032442339218878,-3.0330087508989352,-2.8627732678756854,-2.6925377848521324,-2.5223023018282844,-2.3520668188041403,-2.1818313357796963,-2.0115958527549562,-1.8557396756979063,-1.7334356656213146,-1.6111316555444137,-1.4888276454672082,-1.3665236353896977,-1.2442196253118811,-1.1219156152337582,-0.99961160515532932,-0.8773075950765955,-0.75500358499755471,-0.63269957491821038,-0.51039556483855952,-0.38809155475860163,-0.2657875446783392,-0.14348353459777022,-0.021179524516895597,0.10112448556428501,0.22342849564577144,0.34573250572756348,0.46803651580966038,0.5655437974850136,0.62585540058769,0.68616700369070016,0.74647860679404732,0.80679020989772854,0.86710181300174627,0.92741341610610006,0.9877250192107877,1.0480366223158109,1.1083482254211705,1.1686598285268643,1.2289714316328948,1.2892830347392592,1.3495946378459591,1.4099062409529965,1.4702178440603677,1.5305294471680753,1.5908410502761181,1.6511526533844945,1.7114642564932083,1.7061041950814877,1.6918977090244465,1.677691222967759,1.6634847369114223,1.6492782508554411,1.6350717647998136,1.620865278744543,1.6066587926896205,1.5924523066350555,1.5782458205808436,1.5640393345269836,1.5498328484734785,1.5356263624203281,1.5214198763675288,1.5072133903150855,1.4930069042629952,1.4788004182112577,1.4645939321598764,1.3992919082641324,1.2999253875278203,1.200558866791904,1.1011923460563793,1.0018258253212473,0.90245930458650769,0.803092783852164,0.70372626311821218,0.60435974238465084,0.50499322165148464,0.40562670091871489,0.30626018018633444,0.20689365945434787,0.10752713872275686,0.0081606179915549477,-0.091205902739250611,-0.19057242346966657,-0.28993894419968608,-0.38930546492931245,-0.48867198565854575,-0.65366079756137119,-0.84677433464397889,-1.0398878717261975,-1.2330014088080234,-1.4261149458894642,-1.6192284829705086,-1.8123420200511628,-2.0054555571314352,-2.1985690942113107,-2.3916826312908013,-2.5847961683698979,-2.7779097054486068,-2.9710232425269218,-3.1641367796048536,-3.3572503166823893,-3.5503638537595377,-3.7434773908362926,-3.9365909279126576,-4.1297044649886354,-4.3228180020642233,-4.5958957713416808,-4.88896554346515,-5.182035315588168,-5.4751050877107428,-5.7681748598328655,-6.0612446319545406,-6.3543144040757769,-6.6473841761965575,-6.9404539483168888,-7.2335237204367866,-7.52659349255622,-7.8196632646752189,-8.1127330367937542,-8.4058028089118562,-8.6988725810295016,-8.9919423531467046,-9.28501212526345,-9.57808189737976,-9.87115166949562,-10.164221441611037,-10.550708320126502,-10.947575858236439,-11.344443396345923,-11.741310934454939,-12.138178472563469,-12.53504601067155,-12.931913548779171,-13.328781086886293,-13.725648624992987,-14.12251616309919,-14.519383701204953,-14.916251239310229,-15.313118777415042,-15.70998631551938,-16.106853853623264,-16.503721391726671,-16.900588929829631,-17.297456467932093,-17.694324006034108,-18.091191544135636,0,0.012523247636160067,0.02948744856620136,0.055167865538060024,0.092815174090150915,0.14266206254336819,0.20474661227506366,0.2790243910255904,0.36535997922628732,0.46347370161216145,0.53605041735888981,0.70520616124552271
DP 281,166.03613618915236,0.00523426487317462,-65.665048884250865,-64.382141986249664,-63.099235088246566,-61.816328190241634,-60.533421292234777,-59.250514394226109,-57.967607496215535,-56.684700598203094,-55.401793700188847,-54.118886802172639,-52.835979904154577,-51.5530730061346,-50.270166108112804,-48.987259210089114,-47.70435231206357,-46.421445414036107,-45.138538516006832,-43.855631617975696,-42.572724719942649,-41.289817821907718,-40.016450425806461,-38.828939448837772,-37.6414284718672,-36.453917494894746,-35.266406517920345,-34.07889554094411,-32.891384563965907,-31.703873586985821,-30.516362610003846,-29.328851633019994,-28.141340656034235,-26.953829679046557,-25.766318702057006,-24.578807725065513,-23.391296748072165,-22.203785771076895,-21.016274794079738,-19.828763817080677,-18.641252840079709,-17.453741863076853,-16.305362872850349,-15.313513679167103,-14.321664485481891,-13.329815291794725,-12.337966098105584,-11.346116904414485,-10.354267710721407,-9.3624185170263647,-8.3705693233293648,-7.3787201296304037,-6.3868709359294611,-5.395021742226545,-4.4031725485216731,-3.4113233548148343,-2.4194741611060269,-1.4276249673952504,-0.43577577368251097,0.55607342003219,1.5479226137488571,2.5397718074674898,3.4460688922436944,4.152741693955079,4.8594144956684762,5.5660872973838664,6.2727600991012622,6.9794329008206653,7.6861057025420711,8.3927785042654737,9.0994513059908844,9.8061241077182864,10.5127969094477,11.219469711179109,11.926142512912531,12.632815314647937,13.339488116385363,14.046160918124798,14.752833719866212,15.459506521609645,16.166179323355077,16.872852125102508,17.433377622460988,17.774678709681549,18.11597979690417,18.457280884128849,18.798581971355613,19.139883058584406,19.481184145815291,19.822485233048219,20.163786320283229,20.505087407520289,20.846388494759417,21.187689582000626,21.528990669243878,21.870291756489188,22.2115928437366,22.552893930986009,22.894195018237554,23.235496105491119,23.57679719274676,23.918098280004461,23.855842251952232,23.762678801958707,23.669515351967295,23.576351901977944,23.483188451990731,23.390025002005647,23.296861552022651,23.203698102041773,23.110534652063048,23.017371202086387,22.92420775211183,22.831044302139443,22.737880852169113,22.644717402200911,22.551553952234816,22.458390502270841,22.365227052308967,22.27206360234922,21.88418845792479,21.299834207720988,20.715479957519474,20.131125707320155,19.546771457123064,18.962417206928215,18.3780629567356,17.793708706545214,17.209354456357048,16.625000206171116,16.040645955987443,15.456291705805963,14.871937455626735,14.28758320544974,13.703228955274962,13.118874705102433,12.534520454932101,11.950166204764029,11.365811954598181,10.78145770443458,9.8223678278632729,8.7026719084472965,7.5829759890335238,6.4632800696219652,5.3435841502125783,4.2238882308054393,3.1041923114004892,1.984496391997707,0.86480047259717141,-0.25489544680119958,-1.3745913661973397,-2.4942872855912932,-3.6139832049830232,-4.7336791243725873,-5.8533750437599057,-6.9730709631450543,-8.0927668825279788,-9.212462801908698,-10.332158721287239,-11.451854640663555,-13.024640813951191,-14.710704904080904,-16.396768994208252,-18.082833084333171,-19.768897174455745,-21.454961264575903,-23.141025354693678,-24.827089444809047,-26.513153534922012,-28.199217625032649,-29.885281715140806,-31.571345805246651,-33.257409895350015,-34.943473985451078,-36.629538075549718,-38.315602165645963,-40.001666255739792,-41.68773034583127,-43.373794435920317,-45.059858526007012,-47.27252359940487,-49.543705423755021,-51.814887248102764,-54.086069072447948,-56.357250896790781,-58.628432721131041,-60.899614545468964,-63.170796369804343,-65.441978194137334,-67.713160018467846,-69.984341842796027,-72.2555236671217,-74.526705491444829,-76.797887315765578,-79.069069140083869,-81.340250964399686,-83.611432788713074,-85.882614613023975,-88.15379643733263,-90.424978261638557,0,0.052222087265423024,0.1397851612375694,0.28230917579097781,0.49278419336538742,0.77239204829760066,1.121466320152346,1.5397579413481581,2.0263740289573762,2.5795187778168311,2.9901619025730968,3.9443762058044891
DP 282,149.24427751988091,0.0013006970376082581,-15.222053879220796,-14.932685565118023,-14.643317251014826,-14.353948936911236,-14.064580622807213,-13.775212308702784,-13.485843994597948,-13.196475680492677,-12.907107366387024,-12.617739052280921,-12.32837073817443,-12.039002424067521,-11.749634109960185,-11.460265795852438,-11.170897481744278,-10.881529167635712,-10.592160853526726,-10.302792539417331,-10.013424225307519,-9.7240559111972811,-9.4368188137048445,-9.1687628672275476,-8.9007069207498262,-8.6326509742716926,-8.3645950277931327,-8.0965390813141429,-7.8284831348347446,-7.5604271883549217,-7.2923712418746724,-7.0243152953940093,-6.756259348912919,-6.4882034024314112,-6.2201474559494754,-5.9520915094671212,-5.6840355629843486,-5.4159796165011516,-5.1479236700175361,-4.8798677235334953,-4.6118117770490317,-4.3437558305641515,-4.0844572237165409,-3.8601883893033495,-3.6359195548897136,-3.4116507204756323,-3.1873818860611207,-2.9631130516461623,-2.7388442172307639,-2.5145753828149222,-2.2903065483986422,-2.0660377139819222,-1.841768879564758,-1.617500045147156,-1.3932312107291107,-1.1689623763106254,-0.94469354189169952,-0.72042470747233189,-0.496155873052524,-0.27188703863227642,-0.047618204211588806,0.17665063020954092,0.38171964001305558,0.54198845410380037,0.70225726819499368,0.86252608228663707,1.0227948963787283,1.18306371047127,1.3433325245642609,1.5036013386577012,1.6638701527515896,1.8241389668459298,1.9844077809407139,2.1446765950359512,2.3049454091316384,2.4652142232277745,2.6254830373243583,2.7857518514213919,2.946020665518875,3.1062894796168079,3.2665582937151907,3.4268271078140202,3.5541817104618016,3.6321642181490925,3.7101467258368466,3.7881292335250647,3.866111741213754,3.9440942489029056,4.0220767565925248,4.100059264282609,4.1780417719731613,4.256024279664179,4.33400678735566,4.4119892950476114,4.4899718027400279,4.5679543104329072,4.6459368181262555,4.7239193258200691,4.8019018335143508,4.8798843412090953,4.95786684890431,5.0358493565999876,5.0241966650841094,5.0039389012231,4.9836811373625771,4.9634233735025228,4.94316560964295,4.922907845783854,4.9026500819252412,4.8823923180671009,4.8621345542094483,4.8418767903522655,4.8216190264955685,4.8013612626393449,4.7811034987835992,4.7608457349283348,4.7405879710735519,4.7203302072192388,4.7000724433654089,4.67981467951206,4.59264727123214,4.4608723792593112,4.3290974872869965,4.1973225953151854,4.0655477033438814,3.9337728113730881,3.8019979194028042,3.6702230274330288,3.5384481354637587,3.406673243494998,3.2748983515267476,3.1431234595590056,3.0113485675917739,2.8795736756250476,2.7477987836588311,2.6160238916931253,2.48424899972792,2.3524741077632312,2.2206992157990491,2.0889243238353772,1.8717551343587928,1.6179872357161693,1.3642193370740483,1.1104514384324315,0.85668353979131173,0.602915641150704,0.34914774251059494,0.095379843870980446,-0.15838805476812137,-0.41215595340672928,-0.665923852044829,-0.919691750682429,-1.1734596493195224,-1.4272275479561221,-1.6809954465922106,-1.9347633452278012,-2.1885312438628861,-2.4422991424974692,-2.6960670411315513,-2.9498349397651311,-3.3071590866966178,-3.6903735192431744,-4.07358795178918,-4.456802384334634,-4.8400168168795448,-5.2232312494239022,-5.6064456819677178,-5.989660114510972,-6.3728745470536854,-6.7560889795958552,-7.1393034121374566,-7.5225178446785286,-7.9057322772190339,-8.2889467097590064,-8.6721611422984211,-9.0553755748372868,-9.4385900073756019,-9.8218044399133735,-10.205018872450591,-10.588233304987265,-11.092037768958042,-11.609242391797453,-12.126447014636323,-12.643651637474607,-13.160856260312345,-13.678060883149506,-14.195265505986089,-14.712470128822114,-15.229674751657607,-15.746879374492508,-16.26408399732685,-16.781288620160641,-17.298493242993857,-17.815697865826532,-18.332902488658604,-18.850107111490143,-19.367311734321103,-19.884516357151494,-20.401720979981345,-20.9189256028106,0,0.012335356939013187,0.03250865611978463,0.065089698813701857,0.11317294453423167,0.17702599308121175,0.2567204640239148,0.35219880737550713,0.46325989003052737,0.58949903069671561,0.68319175012446032,0.900993326651238
DP 283,72.679155859373367,0.0050462661862903085,-34.000755676647216,-33.5408596722429,-33.080963667838276,-32.621067663433273,-32.161171659027943,-31.701275654622254,-31.241379650216224,-30.781483645809864,-30.321587641403156,-29.861691636996117,-29.401795632588723,-28.94189962818097,-28.482003623772904,-28.022107619364451,-27.562211614955689,-27.102315610546572,-26.642419606137118,-26.182523601727308,-25.722627597317167,-25.262731592906675,-24.806161145487167,-24.379521025335379,-23.952880905183154,-23.526240785030566,-23.099600664877606,-22.672960544724212,-22.246320424570477,-21.819680304416316,-21.393040184261775,-20.96640006410685,-20.53975994395152,-20.113119823795824,-19.686479703639716,-19.259839583483231,-18.833199463326348,-18.406559343169068,-17.9799192230114,-17.553279102853363,-17.12663898269491,-16.699998862536066,-16.287050957738568,-15.928872561500503,-15.570694165261939,-15.212515769022833,-14.854337372783217,-14.49615897654304,-14.137980580302353,-13.779802184061142,-13.421623787819392,-13.063445391577112,-12.7052669953343,-12.347088599090972,-11.988910202847103,-11.630731806602711,-11.272553410357791,-10.914375014112331,-10.55619661786635,-10.198018221619835,-9.8398398253727972,-9.4816614291252375,-9.1536699087186459,-8.8961153830535835,-8.6385608573879722,-8.38100633172181,-8.1234518060551046,-7.865897280387852,-7.6083427547200486,-7.3507882290516964,-7.0932337033828041,-6.8356791777133576,-6.5781246520433685,-6.3205701263728287,-6.0630156007017328,-5.8054610750301059,-5.5479065493579185,-5.2903520236851893,-5.0327974980119095,-4.7752429723380834,-4.5176884466637075,-4.260133920988789,-4.05465022061181,-3.927273988648591,-3.7998977566847247,-3.6725215247202052,-3.5451452927550298,-3.4177690607892033,-3.2903928288227267,-3.1630165968555932,-3.0356403648878154,-2.9082641329193772,-2.7808879009502903,-2.6535116689805518,-2.5261354370101605,-2.3987592050391155,-2.2713829730674173,-2.1440067410950725,-2.0166305091220718,-1.8892542771484149,-1.7618780451741112,-1.6345018131991549,-1.6439112966194089,-1.6731506324520118,-1.7023899682839028,-1.7316293041150856,-1.7608686399455502,-1.7901079757753067,-1.8193473116043428,-1.8485866474326773,-1.8778259832602935,-1.9070653190872018,-1.936304654913392,-1.9655439907388694,-1.9947833265636385,-2.0240226623876945,-2.0532619982110383,-2.0825013340336693,-2.1117406698555872,-2.1409800056767909,-2.2776656685457453,-2.4859839087915354,-2.6943021490364876,-2.9026203892806066,-3.110938629523889,-3.3192568697663343,-3.5275751100079376,-3.7358933502487055,-3.9442115904886408,-4.1525298307277385,-4.3608480709659938,-4.5691663112034151,-4.7774845514400024,-4.9858027916757433,-5.1941210319106554,-5.4024392721447256,-5.6107575123779645,-5.8190757526103685,-6.027393992841926,-6.2357122330726433,-6.5821314036504823,-6.9877385520270563,-7.3933457004027945,-7.7989528487776907,-8.2045599971517671,-8.6101671455249971,-9.01577429389739,-9.4213814422689683,-9.8269885906397025,-10.232595739009607,-10.638202887378684,-11.043810035746912,-11.449417184114314,-11.855024332480882,-12.260631480846602,-12.666238629211511,-13.071845777575582,-13.477452925938817,-13.883060074301209,-14.288667222662777,-14.862622403828867,-15.478666582266213,-16.094710760702551,-16.710754939137882,-17.3267991175722,-17.942843296005524,-18.558887474437832,-19.174931652869123,-19.790975831299413,-20.407020009728683,-21.023064188156955,-21.639108366584214,-22.255152545010436,-22.871196723435688,-23.487240901859924,-24.103285080283115,-24.719329258705336,-25.335373437126577,-25.951417615546738,-26.567461793965908,-27.380249726084266,-28.214900141565558,-29.049550557045777,-29.884200972524912,-30.718851388002992,-31.553501803480007,-32.388152218955909,-33.222802634430764,-34.057453049904609,-34.892103465377311,-35.72675388084896,-36.561404296319573,-37.396054711789127,-38.230705127257544,-39.065355542724909,-39.900005958191237,-40.734656373656492,-41.56930678912061,-42.403957204583755,-43.238607620045769,0,0.035528324157157239,0.075916518800699537,0.13214712096163764,0.21338570022056358,0.32038420248603233,0.45326255501571966,0.611969257201458,0.7963041790879023,1.0057784007831412,1.1596490314580881,1.5190359778375864
DP 284,127.54980706455871,0.0047798619513251739,-50.240351572311965,-49.3292289066046,-48.418106240895973,-47.506983575186084,-46.595860909474979,-45.684738243762609,-44.773615578049018,-43.862492912334162,-42.951370246618062,-42.040247580900754,-41.129124915182182,-40.218002249462323,-39.3068795837413,-38.395756918018982,-37.48463425229545,-36.573511586570667,-35.662388920844627,-34.751266255117372,-33.840143589388845,-32.929020923659095,-32.024547648835792,-31.179919520709543,-30.335291392581976,-29.490663264453175,-28.646035136323086,-27.801407008191724,-26.95677888005909,-26.112150751925174,-25.267522623790011,-24.422894495653537,-23.578266367515816,-22.733638239376809,-21.889010111236537,-21.04438198309499,-20.199753854952164,-19.355125726808069,-18.510497598662695,-17.665869470516061,-16.821241342368143,-15.976613214218956,-15.159353239798911,-14.451567173756214,-13.743781107712165,-13.035995041666753,-12.32820897561998,-11.620422909571856,-10.912636843522371,-10.204850777471533,-9.4970647114193287,-8.7892786453657745,-8.0814925793108525,-7.3737065132545689,-6.6659204471969336,-5.9581343811379366,-5.25034831507758,-4.5425622490158624,-3.8347761829527904,-3.1269901168883614,-2.4192040508225769,-1.7114179847554312,-1.0637928091792233,-0.55654494026733448,-0.049297071354050245,0.45795079756061474,0.96519866647666663,1.472446535394107,1.9796944043129321,2.4869422732331437,2.9941901421547463,3.5014380110777306,4.0086858800021012,4.515933748927857,5.0231816178550028,5.5304294867835315,6.037677355713452,6.544925224644766,7.0521730935774549,7.5594209625115338,8.0666688314470054,8.5739167003838581,8.9776887772087814,9.2262447206665179,9.4748006641257181,9.7233566075863767,9.97191255104848,10.22046849451206,10.469024437977085,10.717580381443572,10.966136324911504,11.214692268380906,11.46324821185177,11.711804155324081,11.96036009879786,12.20891604227308,12.457471985749773,12.706027929227917,12.954583872707518,13.203139816188584,13.451695759671104,13.700251703155061,13.670879357339102,13.609418644253768,13.547957931169941,13.48649721808761,13.425036505006789,13.363575791927465,13.302115078849672,13.240654365773368,13.179193652698572,13.117732939625272,13.056272226553482,12.99481151348321,12.933350800414436,12.871890087347165,12.810429374281409,12.748968661217143,12.687507948154398,12.626047235093157,12.352648337917309,11.937953979185469,11.523259620455288,11.108565261726689,10.693870902999739,10.279176544274376,9.8644821855506564,9.44978782682854,9.03509346810804,8.6203991093891723,8.2057047506719165,7.7910103919562621,7.3763160332422508,6.9616216745298516,6.5469273158190591,6.1322329571099,5.717538598402335,5.3028442396964079,4.8881498809920965,4.4734555222894095,3.7873336467164558,2.9848820273676679,2.1824304080204775,1.3799787886748973,0.57752716933089421,-0.22492445001147457,-1.0273760693522525,-1.8298276886914571,-2.6322793080290285,-3.4347309273650275,-4.2371825466994091,-5.0396341660321982,-5.8420857853633752,-6.6445374046929713,-7.4469890240209411,-8.2494406433473344,-9.05189226267211,-9.8543438819952822,-10.656795501316873,-11.459247120636853,-12.591749838703985,-13.806769231086566,-15.021788623467369,-16.236808015846417,-17.451827408223696,-18.666846800599192,-19.881866192972939,-21.096885585344886,-22.311904977715066,-23.526924370083528,-24.741943762450127,-25.956963154815021,-27.171982547178096,-28.387001939539463,-29.602021331899003,-30.817040724256795,-32.0320601166128,-33.247079508967033,-34.462098901319536,-35.677118293670254,-37.277164751631958,-38.919996038377185,-40.562827325120665,-42.205658611862205,-43.848489898601954,-45.491321185339935,-47.134152472076018,-48.7769837588103,-50.419815045542748,-52.062646332273424,-53.705477619002266,-55.348308905729269,-56.991140192454488,-58.633971479177838,-60.2768027658993,-61.919634052619024,-63.562465339336882,-65.205296626052927,-66.848127912767225,-68.490959199479533,0,0.042007865905738621,0.10748989373466886,0.21166284537016472,0.36520106162527388,0.56895548752374425,0.82312892248249514,1.1275346795398968,1.48154907328444,1.8839150489369361,2.1823642581430387,2.8766469601119433
DP 285,250.6815771486861,0.0052935398884462193,-86.07683561861873,-84.243013025531468,-82.40919043244152,-80.575367839348985,-78.74154524625375,-76.907722653155929,-75.07390006005545,-73.240077466952329,-71.406254873846564,-69.5724322807382,-67.738609687627161,-65.90478709451348,-64.070964501397214,-62.23714190827824,-60.403319315156679,-58.569496722032476,-56.735674128905657,-54.901851535776139,-53.068028942644077,-51.234206349509286,-49.415105039963642,-47.728496674260455,-46.04188830855459,-44.355279942846096,-42.668671577134916,-40.982063211421149,-39.2954548457047,-37.608846479985566,-35.922238114263841,-34.235629748539409,-32.549021382812342,-30.862413017082638,-29.17580465135029,-27.489196285615272,-25.802587919877602,-24.115979554137287,-22.429371188394324,-20.742762822648697,-19.056154456900433,-17.36954609114952,-15.742501434563319,-14.353714429707765,-12.964927424849558,-11.576140419988638,-10.187353415125054,-8.7985664102587879,-7.4097794053898394,-6.0209924005182023,-4.6322053956438989,-3.2434183907669127,-1.8546313858872363,-0.46584438100487158,0.92294262388016579,2.3117296287678868,3.70051663365829,5.0893036385513719,6.4780906434471373,7.8668776483455725,9.2556646532466846,10.644451658150482,11.905902115736831,12.870229950860784,13.834557785987458,14.79888562111686,15.763213456248987,16.72754129138383,17.691869126521389,18.656196961661685,19.620524796804713,20.584852631950451,21.549180467098921,22.5135083022501,23.477836137404022,24.442163972560632,25.406491807719984,26.370819642882079,27.335147478046895,28.29947531321443,29.2638031483847,30.228130983557648,30.981140922415364,31.417169023222893,31.853197124033155,32.289225224846206,32.72525332566201,33.161281426480556,33.597309527301896,34.033337628125956,34.46936572895283,34.90539382978244,35.341421930614786,35.777450031449916,36.213478132287847,36.649506233128477,37.0855343339719,37.52156243481808,37.95759053566703,38.393618636518717,38.82964673737321,39.265674838230439,39.054925632144354,38.88341918104183,38.711912729942121,38.54040627884519,38.368899827751079,38.1973933766598,38.025886925571292,37.854380474485616,37.682874023402711,37.5113675723226,37.339861121245292,37.168354670170821,36.996848219099107,36.825341768030242,36.653835316964148,36.482328865900875,36.310822414840381,36.1393159637827,35.569799663177513,34.734937192741825,33.90007472230905,33.065212251879167,32.230349781452269,31.395487311028187,30.560624840607083,29.725762370188892,28.890899899773586,28.05603742936124,27.22117495895181,26.386312488545276,25.551450018141665,24.716587547740975,23.881725077343187,23.046862606948338,22.21200013655638,21.37713766616735,20.542275195781261,19.707412725398086,18.382804686805077,16.84829907731681,15.313793467831397,13.779287858348887,12.244782248869207,10.710276639392474,9.17577102991859,7.641265420447529,6.10675981097941,4.5722542015141157,3.0377485920517273,1.5032429825922038,-0.031262626864422584,-1.5657682363182228,-3.1002738457690895,-4.6347794552171218,-6.1692850646622492,-7.7037906741045017,-9.2382962835439031,-10.772801892980414,-12.883717271822158,-15.13874190342753,-17.39376653502984,-19.6487911666291,-21.903815798225285,-24.158840429818387,-26.413865061408451,-28.668889692995403,-30.923914324579279,-33.178938956160188,-35.4339635877379,-37.68898821931267,-39.944012850884235,-42.199037482452859,-44.454062114018306,-46.709086745580741,-48.964111377140092,-51.21913600869641,-53.4741606402496,-55.729185271799821,-58.642312222197191,-61.628568564133033,-64.614824906065735,-67.601081247995253,-70.587337589921717,-73.573593931845025,-76.55985027376515,-79.54610661568222,-82.532362957596149,-85.518619299506952,-88.5048756414146,-91.491131983319292,-94.4773883252206,-97.463644667118984,-100.44990100901411,-103.43615735090623,-106.42241369279522,-109.40867003468104,-112.39492637656383,-115.38118271844331,0,0.062634184315376068,0.17395645035528007,0.35865260730636705,0.63186972453087653,0.99519667223684,1.4491336529276868,1.9933669461716694,2.6267003455356854,3.3467253686006733,3.8815144125258119,5.1228485908329429
DP 286,75.331132814105189,0.0014415677910985995,-10.014881674742522,-9.8756485250277848,-9.7364153753129283,-9.5971822255979564,-9.4579490758828673,-9.3187159261676626,-9.1794827764523568,-9.04024962673693,-8.9010164770213827,-8.76178332730573,-8.6225501775899733,-8.4833170278740937,-8.3440838781581,-8.20485072844199,-8.06561757872577,-7.9263844290094374,-7.7871512792929929,-7.6479181295764329,-7.50868497985976,-7.3694518301429719,-7.2312255628910584,-7.1020613329987485,-6.9728971031063143,-6.8437328732137583,-6.7145686433210718,-6.5854044134282592,-6.45624018353532,-6.3270759536422538,-6.197911723749062,-6.0687474938557493,-5.9395832639623,-5.810419034068727,-5.6812548041750324,-5.5520905742812081,-5.4229263443872586,-5.2937621144931812,-5.1645978845989777,-5.0354336547046472,-4.90626942481019,-4.77710519491561,-4.6520873631996551,-4.5436553201631105,-4.4352232771264042,-4.3267912340895309,-4.2183591910524916,-4.1099271480152835,-4.0014951049779155,-3.893063061940381,-3.7846310189026831,-3.6761989758648146,-3.5677669328267845,-3.4593348897885874,-3.3509028467502242,-3.2424708037116989,-3.1340387606730036,-3.0256067176341452,-2.9171746745951221,-2.8087426315559338,-2.700310588516579,-2.5918785454770585,-2.4925874411614815,-2.4146254818764392,-2.3366635225912238,-2.25870156330584,-2.1807396040202844,-2.1027776447345574,-2.0248156854486594,-1.9468537261625896,-1.8688917668763523,-1.7909298075899402,-1.712967848303361,-1.6350058890166093,-1.557043929729685,-1.4790819704425922,-1.4011200111553281,-1.323158051867892,-1.2451960925802861,-1.1672341332925076,-1.0892721740045601,-1.0113102147164419,-0.94911609972644806,-0.91057412378787539,-0.87203214784910232,-0.83349017191012931,-0.79494819597095512,-0.75640622003158065,-0.71786424409200733,-0.67932226815223218,-0.64078029221225818,-0.60223831627208257,-0.56369634033170712,-0.525154364391132,-0.48661238845035537,-0.44807041250938007,-0.40952843656820276,-0.37098646062682661,-0.33244448468524956,-0.29390250874347124,-0.25536053280149384,-0.21681855685931647,-0.21974411184008058,-0.2286228186659198,-0.23750152549154135,-0.24638023231694697,-0.25525893914213421,-0.26413764596710437,-0.27301635279185565,-0.2818950596163925,-0.29077376644070985,-0.299652473264811,-0.30853118008869407,-0.31740988691235916,-0.32628859373580932,-0.33516730055904115,-0.3440460073820546,-0.3529247142048515,-0.36180342102743068,-0.37068212784979254,-0.41209451821899062,-0.47519654347898266,-0.53829856873872,-0.60140059399820622,-0.66450261925743914,-0.72760464451642082,-0.790706669775147,-0.85380869503362156,-0.91691072029184473,-0.98001274554981388,-1.0431147708075279,-1.106216796064992,-1.169318821322203,-1.2324208465791591,-1.2955228718358647,-1.3586248970923163,-1.4217269223485156,-1.4848289476044627,-1.5479309728601525,-1.6110329981155944,-1.7159465056224277,-1.8387797843937066,-1.9616130631647373,-2.0844463419355135,-2.2072796207060406,-2.3301128994763123,-2.4529461782463327,-2.5757794570161057,-2.6986127357856207,-2.8214460145548941,-2.9442792933239077,-3.0671125720926717,-3.1899458508611844,-3.3127791296294458,-3.4356124083974535,-3.5584456871652095,-3.6812789659327176,-3.804112244699974,-3.9269455234669715,-4.0497788022337211,-4.2235806211001687,-4.4101251771963872,-4.5966697332923081,-4.7832142893879208,-4.969758845483236,-5.156303401578251,-5.3428479576729631,-5.5293925137673687,-5.7159370698614707,-5.9024816259552795,-6.0890261820487757,-6.2755707381419823,-6.462115294234871,-6.6486598503274736,-6.8352044064197717,-7.0217489625117562,-7.2082935186034476,-7.3948380746948406,-7.5813826307859253,-7.7679271868767064,-8.01403569699374,-8.2667630497903719,-8.5194904025866922,-8.7722177553826874,-9.0249451081783629,-9.277672460973724,-9.5303998137687671,-9.783127166563478,-10.035854519357889,-10.288581872151969,-10.541309224945735,-10.794036577739174,-11.046763930532308,-11.299491283325114,-11.552218636117592,-11.804945988909759,-12.057673341701621,-12.310400694493145,-12.563128047284374,-12.815855400075243,0,0.010244942257317282,0.022201264229047734,0.039092430747355217,0.063571884756778024,0.0958497454818243,0.13595793322285382,0.18387729065537511,0.23954169376513534,0.30279722818308175,0.34932997553891804,0.45798284257826294
DP 287,174.64837513518734,0.0058534652963628375,-75.839450304687048,-74.339894214641873,-72.840338124594524,-71.340782034544915,-69.841225944493118,-68.341669854439175,-66.842113764382972,-65.342557674324567,-63.843001584263945,-62.343445494201205,-60.843889404136171,-59.34433331406894,-57.8447772239996,-56.345221133927907,-54.845665043854147,-53.346108953778106,-51.846552863699856,-50.346996773619438,-48.847440683536817,-47.347884593451973,-45.859543025938713,-44.472133221632347,-43.084723417323737,-41.697313613012867,-40.309903808699822,-38.9224940043845,-37.535084200066983,-36.147674395747224,-34.760264591425234,-33.37285478710097,-31.985444982774546,-30.598035178445844,-29.210625374114954,-27.823215569781777,-26.435805765446414,-25.048395961108795,-23.660986156768971,-22.273576352426897,-20.88616654808261,-19.498756743736084,-18.157303878363631,-16.99968094088311,-15.842058003400243,-14.684435065915123,-13.526812128427666,-12.369189190937934,-11.211566253445897,-10.053943315951548,-8.8963203784549165,-7.7386974409559759,-6.5810745034547384,-5.42345156595119,-4.2658286284453517,-3.1082056909372087,-1.950582753426767,-0.79295981591402431,0.36466312160101649,1.5222860591183507,2.6799089966379865,3.8375319341599212,4.894850742943345,5.7181234243386321,6.5413961057362693,7.36466878713625,8.1879414685385647,9.0112141499432159,9.8344868313502136,10.65775951275956,11.48103219417124,12.304304875585263,13.127577557001612,13.95085023842031,14.774122919841355,15.597395601264742,16.420668282690475,17.243940964118529,18.067213645548939,18.890486326981684,19.713759008416776,20.5370316898542,21.189323730118456,21.585140768240738,21.980957806365417,22.376774844492516,22.77259188262201,23.16840892075394,23.564225958888247,23.960042997024964,24.355860035164078,24.751677073305618,25.147494111449575,25.543311149595912,25.939128187744647,26.3349452258958,26.730762264049385,27.126579302205347,27.522396340363731,27.9182133785245,28.314030416687682,28.70984745485331,28.62966815498234,28.518432068856693,28.407195982733491,28.295959896612775,28.184723810494479,28.073487724378687,27.962251638265343,27.851015552154415,27.739779466046,27.628543379939984,27.517307293836474,27.406071207735408,27.294835121636787,27.183599035540652,27.072362949446973,26.961126863355727,26.84989077726696,26.738654691180638,26.284310737380519,25.601222799882397,24.918134862386829,24.235046924893858,23.551958987403445,22.868871049915661,22.185783112430471,21.502695174947849,20.819607237467824,20.1365192999904,19.45343136251557,18.770343425043315,18.087255487573653,17.4041675501066,16.721079612642125,16.037991675180248,15.354903737720923,14.671815800264243,13.988727862810135,13.305639925358623,12.187278007231905,10.882364219832349,9.5774504324353433,8.2725366450409155,6.967622857649,5.6627090702597,4.3577952828729405,3.0528814954886974,1.7479677081070624,0.44305392072794342,-0.861859866648589,-2.1667736540225762,-3.4716874413939887,-4.7766012287628827,-6.0815150161291704,-7.3864288034929331,-8.6913425908541182,-9.99625637821274,-11.301170165568827,-12.606083952922342,-14.436332223358871,-16.397920321512395,-18.359508419663157,-20.321096517811128,-22.282684615956345,-24.244272714098791,-26.205860812238495,-28.167448910375366,-30.129037008509492,-32.090625106640928,-34.05221320476948,-36.013801302895352,-37.975389401018361,-39.936977499138713,-41.898565597256166,-43.860153695370933,-45.821741793482929,-47.783329891592139,-49.744917989698557,-51.706506087802261,-54.277930625626645,-56.917121172622437,-59.556311719615444,-62.195502266605516,-64.834692813592767,-67.473883360577275,-70.113073907558856,-72.7522644545376,-75.391455001513577,-78.030645548486689,-80.669836095457,-83.309026642424428,-85.948217189389112,-88.5874077363509,-91.226598283309883,-93.86578883026597,-96.504979377219314,-99.14416992416966,-101.78336047111739,-104.42255101806204,0,0.059782712546652017,0.16103721802862106,0.32636858192387735,0.57058994114462369,0.89507904594600685,1.3002328415663376,1.7857637285361014,2.3506299893849825,2.9927360097870981,3.4694685937360625,4.5770665896181395
DP 288,189.0737118033382,0.0043355353417421864,-59.051190660901888,-57.86261817635247,-56.674045691801361,-55.485473207248347,-54.29690072269365,-53.108328238137247,-51.919755753579039,-50.731183269019056,-49.542610784457381,-48.354038299893915,-47.16546581532868,-45.976893330761712,-44.788320846192988,-43.5997483616225,-42.41117587705029,-41.222603392476287,-40.034030907900551,-38.845458423323052,-37.656885938743805,-36.468313454162804,-35.28872645062836,-34.190009625873458,-33.091292801116779,-31.992575976358339,-30.8938591515981,-29.79514232683611,-28.696425502072348,-27.597708677306823,-26.498991852539504,-25.4002750277704,-24.301558202999544,-23.202841378226932,-22.104124553452504,-21.005407728676332,-19.906690903898376,-18.807974079118647,-17.709257254337153,-16.610540429553875,-15.511823604768818,-14.413106779982019,-13.351142774089757,-12.436191780770374,-11.521240787449186,-10.606289794126171,-9.6913388008013452,-8.7763878074746913,-7.8614368141462236,-6.94648582081594,-6.031534827483843,-5.1165838341499184,-4.2016328408141765,-3.286681847476614,-2.3717308541372333,-1.4567798607960363,-0.54182886745301972,0.37312212589181626,1.2880731192384685,2.2030241125869359,3.1179751059372158,4.0329260992893206,4.8679184706050656,5.5163382045402853,6.1647579384773614,6.8131776724162814,7.46159740635705,8.11001714029967,8.7584368742441434,9.4068566081904663,10.055276342138637,10.703696076088653,11.352115810040521,12.000535543994243,12.64895527794982,13.297375011907231,13.945794745866507,14.594214479827627,15.242634213790589,15.891053947755417,16.539473681722086,17.187893415690588,17.700564965904785,18.009611032670875,18.318657099438848,18.6277031662087,18.936749232980468,19.245795299754114,19.554841366529661,19.863887433307102,20.172933500086454,20.481979566867679,20.791025633650811,21.100071700435819,21.409117767222742,21.718163834011552,22.02720990080223,22.336255967594848,22.645302034389339,22.95434810118573,23.263394167984014,23.572440234784175,23.497802001915627,23.406136737894805,23.314471473875948,23.222806209858984,23.131140945844,23.039475681830897,22.947810417819767,22.85614515381052,22.764479889803248,22.6728146257979,22.581149361794466,22.489484097792982,22.397818833793423,22.306153569795789,22.214488305800085,22.122823041806324,22.031157777814496,21.9394925138246,21.577955334086724,21.036499292366013,20.495043250647349,19.95358720893071,19.412131167216081,18.8706751255035,18.329219083792957,17.787763042084418,17.246307000377914,16.704850958673415,16.163394916971004,15.621938875270587,15.080482833572196,14.539026791875848,13.997570750181518,13.456114708489231,12.914658666798951,12.373202625110727,11.831746583424513,11.290290541740335,10.407962470609466,9.3795417840241466,8.351121097440819,7.3227004108595057,6.2942797242801722,5.2658590377028744,4.2374383511275751,3.2090176645542376,2.1805969779829475,1.1521762914136209,0.12375560484632307,-0.90466508171898441,-1.933085768282272,-2.96150645484359,-3.9899271414028714,-5.0183478279601728,-6.0467685145154633,-7.07518920106874,-8.1036098876200366,-9.1320305741693168,-10.570398570562501,-12.111258238037234,-13.652117905509831,-15.192977572980242,-16.733837240448519,-18.274696907914617,-19.81555657537859,-21.356416242840361,-22.897275910299975,-24.438135577757471,-25.978995245212779,-27.519854912665945,-29.06071458011689,-30.601574247565729,-32.142433915012383,-33.683293582456905,-35.224153249899246,-36.765012917339469,-38.305872584777489,-39.846732252213386,-41.862384368244477,-43.930796187255517,-45.999208006264411,-48.067619825271052,-50.136031644275491,-52.204443463277705,-54.272855282277746,-56.34126710127552,-58.409678920271155,-60.478090739264566,-62.546502558255746,-64.614914377244787,-66.683326196231562,-68.751738015216176,-70.820149834198574,-72.888561653178783,-74.956973472156818,-77.025385291132508,-79.093797110106138,-81.162208929077465,0,0.045884179525110466,0.12468090063464049,0.25391033606584273,0.44487518788715352,0.6986608180924414,1.0155884426364581,1.3954346067615282,1.8373788678016918,2.3397698536510338,2.7128174465771635,3.5793109949256126
DP 289,194.96959603326366,0.0012159173872509387,-16.882244426997669,-16.540188328736658,-16.198132230475139,-15.856076132213134,-15.514020033950624,-15.171963935687586,-14.82990783742405,-14.487851739160027,-14.145795640895491,-13.803739542630453,-13.461683444364901,-13.11962734609885,-12.777571247832281,-12.435515149565219,-12.09345905129765,-11.751402953029576,-11.409346854760994,-11.067290756491909,-10.72523465822232,-10.383178559952222,-10.04372114213116,-9.72765209399382,-9.41158304585598,-9.09551399771763,-8.7794449495787727,-8.4633759014394041,-8.1473068532995256,-7.8312378051591285,-7.5151687570182357,-7.199099708876826,-6.8830306607349065,-6.5669616125924684,-6.25089256444953,-5.934823516306075,-5.6187544681621207,-5.3026854200176459,-4.9866163718726648,-4.6705473237271722,-4.3544782755811671,-4.0384092274346655,-3.7329591887563174,-3.4699856898213488,-3.207012190885858,-2.944038691949844,-2.6810651930133091,-2.4180916940762516,-2.1551181951386709,-1.8921446962005695,-1.629171197261946,-1.3661976983228001,-1.1032241993831298,-0.84025070044293793,-0.5772772015022245,-0.31430370256098866,-0.051330203619230332,0.21164329532304976,0.4746167942658524,0.73759029320917613,1.0005637921530204,1.2635372910973883,1.5034410336757682,1.689514617863338,1.8755882020514372,2.061661786240069,2.24773537042923,2.4338089546189257,2.61988253880915,2.8059561229999086,2.9920297071911914,3.1781032913830125,3.3641768755753616,3.5502504597682409,3.73632404396165,3.9223976281555966,4.108471212350068,4.2945447965450745,4.4806183807406148,4.6666919649366791,4.8527655491332817,5.0388391333304074,5.1858173993103627,5.2741517641171134,5.3624861289244059,5.4508204937322438,5.5391548585406261,5.6274892233495528,5.7158235881590223,5.8041579529690353,5.8924923177795865,5.9808266825906848,6.0691610474023241,6.1574954122145131,6.2458297770272369,6.33416414184051,6.4224985066543212,6.5108328714686738,6.5991672362835789,6.687501601099024,6.77583596591501,6.8641703307315378,6.8412620375036832,6.8144316295392553,6.7876012215753807,6.7607708136120657,6.7339404056492986,6.7071099976870894,6.680279589725429,6.6534491817643264,6.6266187738037781,6.5997883658437821,6.57295795788434,6.5461275499254494,6.5192971419671162,6.4924667340093318,6.4656363260521061,6.4388059180954293,6.4119755101393059,6.385145102183734,6.2809194505641255,6.1250957505728527,5.96927205058216,5.8134483505920453,5.6576246506025072,5.5018009506135481,5.3459772506251788,5.1901535506373868,5.0343298506501739,4.8785061506635383,4.72268245067749,4.56685875069202,4.4110350507071336,4.2552113507228277,4.0993876507390965,3.94356395075595,3.7877402507733851,3.6319165507914009,3.4760928508099962,3.3202691508291737,3.0668827732116895,2.7716825020640865,2.4764822309170551,2.1812819597705992,1.8860816886247107,1.5908814174794046,1.2956811463346678,1.000480875190495,0.70528060404690818,0.410080332903884,0.11488006176143924,-0.18032020938043611,-0.47552048052173324,-0.77072075166246767,-1.0659210228026166,-1.3611212939422019,-1.6563215650812082,-1.9515218362196411,-2.2467221073575061,-2.5419223784947946,-2.9542668657963151,-3.3958987912244183,-3.8375307166518975,-4.2791626420787665,-4.7207945675050142,-5.1624264929306465,-5.6040584183556685,-6.0456903437800609,-6.4873222692038377,-6.9289541946270115,-7.37058612004955,-7.8122180454714831,-8.2538499708927873,-8.6954818963134972,-9.1371138217335623,-9.5787457471530359,-10.020377672571868,-10.462009597990102,-10.903641523407712,-11.345273448824715,-11.922435616380604,-12.514658123125155,-13.106880629869071,-13.699103136612356,-14.291325643355018,-14.883548150097027,-15.475770656838415,-16.067993163579175,-16.660215670319314,-17.252438177058806,-17.844660683797692,-18.43688319053593,-19.029105697273529,-19.621328204010517,-20.213550710746869,-20.805773217482589,-21.397995724217679,-21.99021823095212,-22.582440737685967,-23.17466324441914,0,0.013041245188821732,0.035544077722643848,0.072506488389319362,0.12713388572197265,0.19973760433138746,0.29041065031492963,0.39908928716924968,0.52553812389129928,0.66928364135711882,0.77602529177282153,1.0239371976004124
DP 290,231.62537770459909,0.004567701673146957,-70.635227385063331,-69.153131276845073,-67.671035168624613,-66.188939060401964,-64.70684295217724,-63.224746843950236,-61.742650735721163,-60.260554627489881,-58.778458519256482,-57.296362411020873,-55.814266302783125,-54.3321701945432,-52.850074086301127,-51.367977978056906,-49.885881869810504,-48.403785761561927,-46.921689653311191,-45.439593545058315,-43.957497436803258,-42.475401328546077,-41.004962471045381,-39.639439972264384,-38.273917473481205,-36.908394974695867,-35.542872475908332,-34.177349977118659,-32.811827478326776,-31.446304979532741,-30.0807824807365,-28.715259981938107,-27.349737483137506,-25.98421498433477,-24.618692485529824,-23.253169986722696,-21.887647487913409,-20.522124989101961,-19.156602490288325,-17.791079991472497,-16.425557492654491,-15.060034993834339,-13.74185228990944,-12.613031002916815,-11.484209715921949,-10.355388428924895,-9.22656714192564,-8.0977458549241756,-6.9689245679204905,-5.8401032809145992,-4.7112819939065087,-3.5824607068962089,-2.4536394198836913,-1.324818132868961,-0.19599684585203009,0.9328244411671105,2.0616457281884615,3.1904670152120174,4.3192883022377817,5.4481095892657487,6.5769308762959238,7.7057521633283068,8.7327650995859987,9.5222220096437074,10.311678919703676,11.101135829765882,11.890592739830321,12.680049649897018,13.46950655996595,14.258963470037127,15.048420380110539,15.837877290186231,16.627334200264119,17.416791110344292,18.206248020426685,18.995704930511323,19.785161840598224,20.574618750687346,21.364075660778717,22.153532570872343,22.942989480968212,23.732446391066322,24.351625782268695,24.715384871360556,25.079143960454672,25.442903049551091,25.806662138649788,26.170421227750754,26.534180316854016,26.897939405959569,27.261698495067368,27.625457584177454,27.98921667328985,28.352975762404526,28.716734851521469,29.0804939406407,29.444253029762177,29.808012118885973,30.171771208012029,30.535530297140404,30.899289386271047,31.263048475403913,31.11922452770634,30.988942196854083,30.858659866004093,30.728377535156472,30.598095204311139,30.467812873468137,30.337530542627455,30.207248211789057,30.07696588095299,29.946683550119253,29.81640121928784,29.68611888845874,29.555836557631928,29.425554226807442,29.295271895985287,29.164989565165438,29.034707234347927,28.904424903532689,28.44732992656381,27.772354703647046,27.097379480732773,26.422404257820887,25.747429034911402,25.072453812004323,24.397478589099684,23.722503366197458,23.04752814329764,22.372552920400242,21.697577697505263,21.022602474612722,20.347627251722578,19.672652028834861,18.997676805949535,18.322701583066653,17.647726360186166,16.972751137308123,16.297775914432485,15.622800691559265,14.541932473301284,13.287104633344015,12.032276793389137,10.777448953436664,9.5226211134865224,8.2677932735388211,7.0129654335934939,5.7581375936505008,4.5033097537099485,3.2484819137717391,1.9936540738359323,0.73882623390249957,-0.51600160602853018,-1.7708294459572189,-3.0256572858834749,-4.2804851258073819,-5.5353129657288873,-6.7901408056480035,-8.04496864556476,-9.29979648547912,-11.036064620720836,-12.89269851812082,-14.749332415518275,-16.605966312913171,-18.462600210305531,-20.319234107695323,-22.175868005082595,-24.032501902467249,-25.889135799849406,-27.745769697229054,-29.602403594606088,-31.459037491980606,-33.315671389352488,-35.172305286721958,-37.028939184088763,-38.885573081453124,-40.742206978814849,-42.59884087617408,-44.45547477353071,-46.31210867088484,-48.72127298602453,-51.191835372713207,-53.662397759399248,-56.132960146082652,-58.603522532763527,-61.074084919441788,-63.54464730611749,-66.015209692790521,-68.485772079460929,-70.95633446612888,-73.426896852794115,-75.897459239456836,-78.368021626116871,-80.838584012774419,-83.3091463994293,-85.779708786081585,-88.250271172731345,-90.720833559378377,-93.191395946023007,-95.661958332664767,0,0.052522152099088934,0.14515232172121828,0.29841837805807192,0.525082442941415,0.82645517798599477,1.2029437512263355,1.6542868178439554,2.1794962376862532,2.7765825144614125,3.2200378764804043,4.2495409675950082
DP 291,77.168153591731723,0.0038785418704412491,-27.502566737991458,-27.11342495824973,-26.724283178507651,-26.335141398765252,-25.9459996190225,-25.556857839279434,-25.167716059536055,-24.778574279792309,-24.38943250004823,-24.00029072030383,-23.611148940559104,-23.222007160814023,-22.832865381068633,-22.443723601322905,-22.054581821576821,-21.665440041830433,-21.276298262083703,-20.887156482336621,-20.498014702589224,-20.108872922841513,-19.722545600459409,-19.361548660405305,-19.000551720350835,-18.639554780296027,-18.278557840240818,-17.917560900185251,-17.55656396012931,-17.195567020073003,-16.834570080016338,-16.47357313995931,-16.112576199901888,-15.751579259844121,-15.39058231978597,-15.029585379727463,-14.668588439668591,-14.307591499609346,-13.946594559549723,-13.58559761948975,-13.224600679429393,-12.863603739368676,-12.51419805508303,-12.211157941717595,-11.908117828351692,-11.605077714985311,-11.302037601618467,-10.99899748825114,-10.695957374883355,-10.392917261515093,-10.089877148146364,-9.7868370347771574,-9.4837969214074764,-9.1807568080373265,-8.8777166946667059,-8.5746765812956163,-8.2716364679240559,-7.9685963545520213,-7.6655562411795106,-7.362516127806539,-7.0594760144330921,-6.7564359010591755,-6.4789466273160388,-6.2610767844207951,-6.0432069415250584,-5.8253370986288351,-5.6074672557321312,-5.3895974128349389,-5.1717275699372554,-4.9538577270390896,-4.7359878841404353,-4.5181180412413005,-4.3002481983416772,-4.0823783554415654,-3.8645085125409682,-3.6466386696398851,-3.4287688267383127,-3.2108989838362554,-2.99302914093371,-2.7751592980306796,-2.5572894551271643,-2.3394196122231623,-2.1656245520936976,-2.0579427076413164,-1.950260863188372,-1.8425790187348616,-1.7348971742807866,-1.6272153298261449,-1.5195334853709417,-1.411851640915172,-1.3041697964588403,-1.1964879520019407,-1.0888061075444775,-0.98112426308645118,-0.87344241862785754,-0.76576057416870291,-0.65807872970897918,-0.550396885248694,-0.44271504078784196,-0.33503319632642464,-0.22735135186444444,-0.11966950740190008,-0.12798958253373827,-0.15285423204777421,-0.17771888156120105,-0.20258353107401994,-0.22744818058622474,-0.25231283009782213,-0.27717747960880379,-0.30204212911918404,-0.32690677862894735,-0.35177142813810458,-0.3766360776466478,-0.40150072715458068,-0.4263653766619066,-0.45123002616862018,-0.47609467567472152,-0.50095932518021513,-0.52582397468509823,-0.55068862418936826,-0.66648558145133752,-0.84290550973970035,-1.0193254380273538,-1.1957453663143078,-1.3721652946005527,-1.548585222886097,-1.7250051511709292,-1.9014250794550578,-2.0778450077384854,-2.2542649360212028,-2.4306848643032111,-2.6071047925845185,-2.7835247208651213,-2.95994464914501,-3.1363645774242066,-3.3127845057026852,-3.4892044339804666,-3.6656243622575397,-3.8420442905339018,-4.0184642188095632,-4.3117443754250235,-4.655109065020425,-4.998473754615131,-5.3418384442091265,-5.6852031338024318,-6.0285678233950186,-6.3719325129869064,-6.7152972025781157,-7.0586618921685931,-7.4020265817583883,-7.7453912713474695,-8.088755960935849,-8.4321206505235367,-8.7754853401105226,-9.1188500296967927,-9.4622147192823647,-9.8055794088672332,-10.148944098451416,-10.49230878803488,-10.835673477617645,-11.321485671891516,-11.842911425387717,-12.364337178883085,-12.8857629323776,-13.407188685871287,-13.928614439364139,-14.450040192856164,-14.971465946347328,-15.492891699837669,-16.014317453327173,-16.535743206815834,-17.057168960303649,-17.57859471379064,-18.100020467276796,-18.621446220762085,-19.142871974246557,-19.664297727730194,-20.185723481213003,-20.707149234694946,-21.228574988176085,-21.916472903595498,-22.622869474257261,-23.329266044918171,-24.035662615578193,-24.74205918623732,-25.44845575689558,-26.154852327552927,-26.861248898209418,-27.56764546886501,-28.274042039519692,-28.980438610173557,-29.686835180826527,-30.393231751478567,-31.099628322129739,-31.80602489278008,-32.512421463429462,-33.218818034078005,-33.925214604725618,-34.6316111753724,-35.338007746018249,0,0.027750886728288564,0.06070505960488766,0.1076915712233968,0.17591175099675796,0.2659239292692876,0.37781094486950739,0.5115139586408104,0.66683900026687626,0.84334614482254833,0.97330279950739385,1.276688321139855
DP 292,306.78615230061882,0.0036557639591826671,-67.941769562732432,-66.4386437756929,-64.935517988651256,-63.432392201607605,-61.929266414561923,-60.426140627514229,-58.923014840464411,-57.419889053412717,-55.916763266358906,-54.413637479303048,-52.910511692245237,-51.407385905185315,-49.904260118123432,-48.4011343310595,-46.898008543993519,-45.394882756925504,-43.891756969855493,-42.388631182783421,-40.885505395709366,-39.382379608633237,-37.892124994016292,-36.517712148186966,-35.143299302355587,-33.768886456522161,-32.394473610686674,-31.020060764849191,-29.645647919009654,-28.271235073168103,-26.896822227324517,-25.522409381478905,-24.1479965356312,-22.773583689781507,-21.399170843929763,-20.024757998075984,-18.650345152220208,-17.27593230636236,-15.901519460502483,-14.527106614640575,-13.152693768776626,-11.778280922910657,-10.455351014811512,-9.3383552909411662,-8.2213595670687631,-7.1043638431943155,-5.9873681193178276,-4.8703723954392935,-3.7533766715587178,-2.6363809476760895,-1.5193852237914292,-0.40238949990472034,0.71460622398403728,1.8316019478748473,2.9485976717676952,4.0655933956625843,5.1825891195595233,6.2995848434585007,7.4165805673595235,8.533576291262591,9.6505720151676933,10.767567739074851,11.776554034656936,12.533514927708175,13.290475820761468,14.047436713816863,14.804397606874309,15.561358499933849,16.318319392995452,17.075280286059119,17.832241179124882,18.589202072192716,19.346162965262611,20.1031238583346,20.860084751408657,21.617045644484786,22.374006537562991,23.130967430643292,23.887928323725632,24.644889216810089,25.4018501098966,26.158811002985171,26.740979021163678,27.060953596509375,27.380928171857214,27.700902747207145,28.020877322559144,28.340851897913257,28.660826473269463,28.980801048627779,29.300775623988173,29.620750199350681,29.94072477471526,30.260699350081932,30.580673925450697,30.900648500821578,31.220623076194531,31.540597651569584,31.860572226946747,32.180546802325992,32.500521377707337,32.820495953090777,32.561344156248033,32.39368760060546,32.226031044965012,32.05837448932666,31.890717933690453,31.723061378056354,31.5554048224244,31.387748266794535,31.220091711166774,31.052435155541158,30.884778599917688,30.717122044296314,30.549465488677036,30.381808933059915,30.214152377444922,30.046495821831996,29.878839266221224,29.711182710612576,29.234357840531313,28.551415890253345,27.868473939977555,27.185531989703936,26.502590039432555,25.819648089163341,25.13670613889634,24.453764188631538,23.770822238368936,23.08788028810849,22.404938337850311,21.721996387594295,21.039054437340457,20.356112487088858,19.673170536839411,18.990228586592195,18.307286636347158,17.624344686104319,16.941402735863694,16.258460785625271,15.207170298996015,13.998011180060645,12.788852061127454,11.579692942196445,10.370533823267557,9.1613747043408846,7.9522155854163605,6.74305646649396,5.5338973475737756,4.3247382286557183,3.1155791097398535,1.9064199908261377,0.69726087191460762,-0.511898246994798,-1.7210573659019932,-2.930216484807052,-4.139375603709933,-5.3485347226106379,-6.5576938415092005,-7.7668529604055916,-9.3976918878876781,-11.133955749758854,-12.870219611627757,-14.606483473494336,-16.342747335358627,-18.07901119722062,-19.815275059080324,-21.551538920937713,-23.2878027827928,-25.02406664464565,-26.760330506496128,-28.496594368344354,-30.232858230190228,-31.969122092033917,-33.705385953875187,-35.4416498157142,-37.177913677550876,-38.914177539385378,-40.650441401217471,-42.386705263047283,-44.595391628362407,-46.85657434453271,-49.117757060700839,-51.37893977686646,-53.640122493029779,-55.901305209190859,-58.162487925349495,-60.423670641505815,-62.684853357659868,-64.94603607381147,-67.207218789960862,-69.468401506107881,-71.729584222252541,-73.9907669383949,-76.251949654534954,-78.513132370672551,-80.774315086807874,-83.035497802940824,-85.296680519071657,-87.557863235199818,0,0.0460395848021929,0.12910724126769552,0.26770404798302588,0.47284604876197989,0.74574040727407809,1.0867770215624992,1.4957221635661881,1.9716696978922992,2.5127952832980349,2.9147421112353462,3.8474008626324983
DP 293,158.70836302797403,0.0044629246190636641,-54.380510515200335,-53.329912228854575,-52.279313942507365,-51.228715656158592,-50.178117369808241,-49.127519083456463,-48.076920797103107,-47.026322510748237,-45.975724224391826,-44.925125938033922,-43.874527651674477,-42.823929365313504,-41.77333107895101,-40.722732792586989,-39.672134506221425,-38.6215362198544,-37.570937933485808,-36.520339647115719,-35.469741360744131,-34.419143074370957,-33.37632207832312,-32.403497430358541,-31.430672782392378,-30.457848134424665,-29.485023486455418,-28.512198838484633,-27.5393741905123,-26.566549542538414,-25.593724894562985,-24.620900246586018,-23.648075598607498,-22.675250950627419,-21.702426302645794,-20.729601654662645,-19.756777006677936,-18.783952358691671,-17.811127710703879,-16.83830306271452,-15.865478414723624,-14.892653766731184,-13.951758819122933,-13.138584182098064,-12.32540954507159,-11.51223490804351,-10.699060271013822,-9.8858856339825234,-9.07271099694963,-8.2595363599151188,-7.4463617228790024,-6.63318708584128,-5.8200124488019469,-5.006837811761006,-4.1936631747184512,-3.3804885376742937,-2.56731390062853,-1.7541392635811555,-0.940964626532177,-0.12778998948159337,0.68538464757059514,1.498559284624394,2.2418377927996893,2.822023131340007,3.4022084698819723,3.9823938084255719,4.5625791469708048,5.1427644855176844,5.7229498240661938,6.3031351626163445,6.8833205011681287,7.463505839721555,8.0436911782766014,8.6238765168333149,9.2040618553916485,9.78424719395162,10.364432532513232,10.944617871076483,11.52480320964137,12.104988548207892,12.685173886776049,13.265359225345849,13.725945689785249,14.00713101683095,14.288316343878343,14.569501670927421,14.850686997978185,15.131872325030686,15.413057652084838,15.694242979140695,15.975428306198234,16.256613633257484,16.537798960318405,16.818984287381038,17.100169614445338,17.381354941511354,17.662540268579047,17.943725595648438,18.224910922719513,18.5060962497923,18.787281576866768,19.06846690394293,19.021506129124187,18.946484080399387,18.871462031676291,18.796439982954958,18.721417934235351,18.646395885517471,18.571373836801328,18.496351788086926,18.42132973937424,18.346307690663306,18.271285641954098,18.196263593246616,18.121241544540879,18.046219495836873,17.971197447134603,17.896175398434057,17.821153349735255,17.746131301038169,17.429025375672946,16.950526385476206,16.472027395281305,15.993528405088229,15.515029414896992,15.036530424707591,14.558031434520034,14.07953244433431,13.601033454150405,13.122534463968348,12.644035473788131,12.165536483609753,11.687037493433191,11.208538503258493,10.730039513085599,10.251540522914576,9.7730415327453564,9.2945425425779931,8.81604355241246,8.3375445622487785,7.5506931187421165,6.6316864600839267,5.7126798014275453,4.7936731427729837,3.874666484120215,2.9556598254692958,2.0366531668201784,1.1176465081728417,0.19863984952735694,-0.72036680911634632,-1.6393734677582141,-2.5583801263982791,-3.4773867850365154,-4.396393443672971,-5.3154001023075779,-6.2344067609403941,-7.1534134195713817,-8.0724200782005617,-8.9914267368279326,-9.9104333954534845,-11.202787294301155,-12.588482414386785,-13.974177534470449,-15.359872654552126,-16.745567774631837,-18.131262894709582,-19.516958014785367,-20.90265313485914,-22.288348254930963,-23.674043375000831,-25.059738495068672,-26.44543361513459,-27.831128735198458,-29.216823855260454,-30.602518975320411,-31.98821409537841,-33.373909215434438,-34.759604335488504,-36.145299455540567,-37.530994575590668,-39.350999862174007,-41.219266395235159,-43.087532928294344,-44.955799461351454,-46.824065994406538,-48.692332527459627,-50.560599060510661,-52.428865593559657,-54.2971321266067,-56.16539865965165,-58.033665192694606,-59.901931725735579,-61.770198258774471,-63.638464791811408,-65.506731324846243,-67.374997857879109,-69.243264390909943,-71.111530923938687,-72.979797456965571,-74.848063989990223,0,0.043589067664345928,0.11595599361708848,0.23338169834973435,0.40674726950415419,0.63702227160132963,0.92447483010280462,1.2688987305222268,1.6695626358616116,2.1249953214971322,2.4630649997227785,3.2487674976563414
DP 294,125.27583095125102,0.001877699006257593,-19.486023905467963,-19.134763908042292,-18.783503910616162,-18.432243913189538,-18.080983915762445,-17.729723918334884,-17.378463920906835,-17.027203923478325,-16.675943926049325,-16.324683928619862,-15.973423931189915,-15.622163933759506,-15.270903936328606,-14.919643938897224,-14.568383941465378,-14.217123944033057,-13.86586394660025,-13.514603949166979,-13.163343951733244,-12.812083954299011,-12.46338579982935,-12.137744474201089,-11.81210314857231,-11.48646182294306,-11.160820497313315,-10.835179171683087,-10.509537846052364,-10.18389652042115,-9.8582551947894661,-9.5326138691572773,-9.2069725435246035,-8.881331217891443,-8.5556898922577957,-8.23004856662367,-7.9044072409890509,-7.5787659153539373,-7.2531245897183432,-6.9274832640822552,-6.6018419384456832,-6.2762006128086245,-5.9611037292457345,-5.6881851123259786,-5.4152664954057066,-5.1423478784849088,-4.8694292615635906,-4.5965106446417519,-4.32359202771939,-4.0506734107965077,-3.7777547938731004,-3.5048361769491758,-3.2319175600247232,-2.9589989430997488,-2.6860803261742565,-2.41316170924824,-2.1402430923217017,-1.867324475394641,-1.5944058584670575,-1.3214872415389545,-1.0485686246103314,-0.77565000768118419,-0.52591514390061311,-0.33027643459530842,-0.13463772528946868,0.061000984016902168,0.25663969332380548,0.45227840263124242,0.64791711193921209,0.843555821247715,1.0391945305567509,1.2348332398663193,1.4304719491764195,1.6261106584870531,1.8217493677982217,2.0173880771099215,2.2130267864221524,2.4086654957349185,2.604304205048217,2.7999429143620507,2.9955816236764141,3.1912203329913114,3.3469720507949607,3.4428923387765682,3.5388126267587379,3.6347329147414609,3.7306532027247528,3.8265734907085984,3.9224937786930161,4.0184140666779866,4.1143343546635158,4.2102546426496144,4.30617493063627,4.4020952186234865,4.4980155066112637,4.5939357945996,4.6898560825885012,4.7857763705779623,4.8816966585679848,4.9776169465585678,5.0735372345497138,5.1694575225414177,5.1583737481682483,5.1347559548432837,5.1111381615188973,5.0875203681950847,5.06390257487186,5.0402847815492118,5.016666988227148,4.9930491949056579,4.969431401584754,4.9458136082644257,4.9221958149446738,4.8985780216255126,4.874960228306926,4.8513424349889194,4.827724641671491,4.804106848354647,4.7804890550383821,4.7568712617226945,4.6515081073498932,4.4916467578128989,4.3317854082765246,4.1719240587407729,4.0120627092056473,3.8522013596711417,3.6923400101372659,3.5324786606040131,3.3726173110713806,3.2127559615393761,3.0528946120080018,2.8930332624772404,2.7331719129471121,2.5733105634176083,2.4134492138887205,2.253587864360465,2.0937265148328263,1.9338651653058174,1.774003815779434,1.6141424662536743,1.3495610715970747,1.0400982435518058,0.73063541550715394,0.42117258746312264,0.11170975941970107,-0.19775306862309025,-0.50721589666526745,-0.81667872470683833,-1.1261415527477792,-1.4356043807881123,-1.7450672088278196,-2.0545300368669142,-2.3639928649053856,-2.6734556929432505,-2.9829185209804838,-3.2923813490171057,-3.6018441770531093,-3.9113070050884939,-4.2207698331232661,-4.5302326611574193,-4.967061791082898,-5.43573400134298,-5.9044062116023843,-6.3730784218610959,-6.841750632119135,-7.3104228423764779,-7.7790950526331475,-8.24776726288912,-8.7164394731444048,-9.1851116833990272,-9.6537838936529479,-10.122456103906195,-10.591128314158734,-11.059800524410619,-11.528472734661797,-11.997144944912296,-12.465817155162112,-12.934489365411244,-13.403161575659697,-13.871833785907455,-14.489107836976615,-15.122894764371411,-15.75668169176552,-16.390468619158895,-17.024255546551586,-17.658042473943578,-18.291829401334848,-18.9256163287254,-19.55940325611526,-20.193190183504413,-20.826977110892862,-21.460764038280612,-22.094550965667651,-22.728337893053975,-23.3621248204396,-23.995911747824504,-24.629698675208733,-25.263485602592226,-25.897272529975062,-26.531059457357106,0,0.016359709803123859,0.041696513350134426,0.081920052760125261,0.14119349886129651,0.21984562983519348,0.31795352314270253,0.43544499491614819,0.57208024184168371,0.72737594897766555,0.8425536669434,1.1105166418162318
DP 295,306.32603865314053,0.00206991389289464,-38.4294624979182,-37.579494520181584,-36.729526542443807,-35.879558564704872,-35.029590586964822,-34.179622609223607,-33.329654631481255,-32.479686653737723,-31.629718675993086,-30.77975069824728,-29.929782720500338,-29.079814742752227,-28.229846765002993,-27.379878787252579,-26.52991080950104,-25.679942831748367,-24.829974853994528,-23.98000687623956,-23.130038898483406,-22.280070920726153,-21.43737727065767,-20.660153257398495,-19.882929244138115,-19.105705230876623,-18.328481217613962,-17.551257204350158,-16.77403319108517,-15.996809177819067,-15.219585164551813,-14.442361151283416,-13.66513713801384,-12.887913124743118,-12.110689111471258,-11.333465098198246,-10.556241084924084,-9.7790170716487541,-9.0017930583722769,-8.22456904509466,-7.4473450318158818,-6.6701210185359594,-5.9219955516552307,-5.2902656456125632,-4.6585357395687295,-4.0268058335237429,-3.3950759274776048,-2.7633460214303067,-2.1316161153818491,-1.4998862093322372,-0.8681563032814712,-0.23642639722954678,0.39530350882353671,1.0270334148777809,1.6587633209331782,2.2904932269897333,2.9222231330474435,3.5539530391063137,4.18568294516634,4.8174128512275187,5.4491427572898505,6.0808726633533441,6.6515439019245477,7.0797429925418793,7.5079420831603922,7.9361411737800784,8.36434026440094,8.7925393550229742,9.2207384456461821,9.6489375362705587,10.077136626896115,10.505335717522852,10.933534808150744,11.361733898779825,11.789932989410094,12.218132080041514,12.646331170674111,13.074530261307896,13.502729351942842,13.930928442578967,14.359127533216272,14.787326623854749,15.116693203669609,15.297808681773548,15.478924159878645,15.660039637984948,15.841155116092432,16.022270594201103,16.203386072310959,16.384501550422,16.565617028534216,16.746732506647639,16.927847984762231,17.10896346287803,17.290078940994981,17.471194419113139,17.652309897232477,17.833425375353006,18.014540853474717,18.195656331597615,18.376771809721689,18.557887287846967,18.411758280602257,18.317083060718439,18.222407840835825,18.12773262095439,18.033057401074164,17.938382181195141,17.843706961317302,17.749031741440668,17.65435652156523,17.559681301691025,17.465006081817993,17.370330861946162,17.275655642075524,17.18098042220609,17.086305202337861,16.991629982470826,16.896954762604992,16.802279542740365,16.532696899287252,16.146506551334127,15.76031620338226,15.374125855431608,14.987935507482211,14.601745159534055,14.215554811587147,13.829364463641475,13.443174115697047,13.05698376775387,12.670793419811931,12.28460307187123,11.898412723931784,11.512222375993581,11.126032028056612,10.739841680120891,10.353651332186409,9.9674609842531741,9.58127063632119,9.1950802883904483,8.6004420823853351,7.9164662653670979,7.2324904483500951,6.5485146313343181,5.8645388143197446,5.1805629973064278,4.49658718029433,3.8126113632834291,3.1286355462737871,2.4446597292653438,1.7606839122581419,1.0767080952521568,0.39273227824740836,-0.29124353875613795,-0.97521935575843133,-1.6591951727595204,-2.3431709897593715,-3.0271468067579952,-3.7111226237554025,-4.3950984407515854,-5.31776295598196,-6.3001024659320386,-7.2824419758808245,-8.2647814858283031,-9.2471209957744822,-10.229460505719359,-11.211800015662956,-12.194139525605218,-13.176479035546196,-14.158818545485897,-15.141158055424267,-16.123497565361347,-17.105837075297107,-18.088176585231615,-19.070516095164781,-20.05285560509666,-21.035195115027218,-22.017534624956522,-22.99987413488449,-23.982213644811164,-25.232011037364433,-26.511528781386502,-27.791046525407261,-29.070564269426697,-30.350082013444808,-31.629599757461605,-32.90911750147707,-34.188635245491191,-35.468152989504034,-36.747670733515527,-38.027188477525733,-39.306706221534647,-40.586223965542175,-41.865741709548388,-43.1452594535533,-44.424777197556885,-45.704294941559148,-46.983812685560054,-48.263330429559744,-49.542848173557942,0,0.026057326191716221,0.07306738607513226,0.1514999619730357,0.26759030430862979,0.4220215208674058,0.61501416021785626,0.84643600517205031,1.1157743309216692,1.4219967166607688,1.6494578513770972,2.1772492787419022
DP 296,71.102613304305,0.0038251805561889144,-25.293332805058512,-24.957187861888315,-24.621042918717858,-24.284897975547157,-23.948753032376239,-23.612608089205086,-23.276463146033691,-22.940318202862056,-22.604173259690182,-22.268028316518098,-21.931883373345748,-21.595738430173157,-21.259593487000366,-20.92344854382732,-20.587303600654025,-20.251158657480502,-19.915013714306749,-19.57886877113274,-19.24272382795851,-18.90657888478405,-18.572864060287163,-18.261020533595669,-17.949177006903895,-17.637333480211851,-17.325489953519529,-17.013646426826959,-16.701802900134087,-16.389959373440963,-16.078115846747551,-15.766272320053876,-15.454428793359936,-15.142585266665721,-14.830741739971222,-14.518898213276465,-14.207054686581426,-13.895211159886115,-13.58336763319055,-13.271524106494683,-12.959680579798563,-12.647837053102169,-12.346000655068934,-12.084193244639849,-11.822385834210397,-11.560578423780566,-11.298771013350363,-11.036963602919775,-10.775156192488808,-10.513348782057463,-10.251541371625738,-9.98973396119363,-9.7279265507611541,-9.4661191403282938,-9.2043117298950552,-8.9425043194614364,-8.68069690902744,-8.4188894985930549,-8.1570820881583082,-7.8952746777231786,-7.633467267287668,-7.3716598568517737,-7.1319131571446484,-6.94364214421547,-6.7553711312859015,-6.567100118355941,-6.3788291054255843,-6.1905580924948378,-6.0022870795637022,-5.8140160666321687,-5.625745053700248,-5.4374740407679312,-5.2492030278352217,-5.0609320149021215,-4.8726610019686314,-4.6843899890347451,-4.4961189761004672,-4.3078479631657967,-4.1195769502307336,-3.9313059372952761,-3.7430349243594323,-3.5547639114231959,-3.4045484880076686,-3.3114173481510849,-3.2182862082940273,-3.125155068436499,-3.0320239285784938,-2.9388927887200187,-2.8457616488610751,-2.7526305090016532,-2.6594993691417641,-2.5663682292813981,-2.4732370894205653,-2.380105949559256,-2.2869748096974751,-2.1938436698352244,-2.1007125299724976,-2.0075813901093018,-1.9144502502456329,-1.821319110381487,-1.728187970516873,-1.6350568306517876,-1.6418087187486587,-1.6631359183349865,-1.6844631179207981,-1.7057903175060933,-1.7271175170908661,-1.7484447166751249,-1.7697719162588603,-1.7910991158420844,-1.8124263154247864,-1.833753515006973,-1.8550807145886388,-1.8764079141697854,-1.8977351137504184,-1.9190623133305305,-1.9403895129101245,-1.9617167124892012,-1.9830439120677597,-2.0043711116457978,-2.1042292065193964,-2.2564424687430251,-2.40865573096604,-2.5608689931884445,-2.7130822554102378,-2.8652955176314205,-3.0175087798519846,-3.1697220420719385,-3.321935304291284,-3.4741485665100122,-3.6263618287281254,-3.7785750909456324,-3.9307883531625243,-4.0830016153788,-4.2352148775944656,-4.3874281398095141,-4.5396414020239639,-4.6918546642377885,-4.844067926451002,-4.9962811886636036,-5.2494306900466077,-5.5458399425992084,-5.8422491951511955,-6.1386584477025714,-6.4350677002533416,-6.7314769528034928,-7.0278862053530435,-7.3242954579019814,-7.6207047104503,-7.9171139629980187,-8.2135232155451234,-8.5099324680916144,-8.8063417206375068,-9.1027509731827809,-9.3991602257274369,-9.6955694782714943,-9.99197873081493,-10.288387983357756,-10.584797235899984,-10.881206488441594,-11.300655918484782,-11.750866846650919,-12.201077774816312,-12.65128870298096,-13.101499631144874,-13.551710559308034,-14.00192148747046,-14.452132415632121,-14.902343343793067,-15.352554271953267,-15.802765200112704,-16.252976128271406,-16.703187056429353,-17.153397984586583,-17.603608912743049,-18.053819840898782,-18.504030769053756,-18.954241697207994,-19.404452625361497,-19.85466355351425,-20.448677838106487,-21.058671783697267,-21.668665729287266,-22.27865967487644,-22.888653620464854,-23.498647566052487,-24.1086415116393,-24.718635457225339,-25.328629402810588,-25.938623348395044,-26.548617293978729,-27.158611239561605,-27.768605185143716,-28.378599130725007,-28.988593076305541,-29.598587021885244,-30.208580967464204,-30.818574913042337,-31.428568858619705,-32.038562804196282,0,0.026788042350754694,0.056748779377547368,0.0980680995570245,0.15763513560150194,0.23602860646872725,0.33334436615839746,0.4495511295954574,0.58451214713577015,0.7378796095111515,0.85042287200261124,1.1133273740868332
DP 297,224.87286374659249,0.00471730466525046,-71.603691813652233,-70.109970665280045,-68.6162495169057,-67.122528368529146,-65.6288072201503,-64.135086071769365,-62.641364923386291,-61.147643775000958,-59.653922626613429,-58.1602014782238,-56.6664803298319,-55.172759181437776,-53.679038033041529,-52.185316884643072,-50.691595736242455,-49.197874587839664,-47.704153439434627,-46.210432291027438,-44.716711142618067,-43.222989994206465,-41.7409369372108,-40.363897805893671,-38.9868586745744,-37.6098195432529,-36.2327804119292,-34.8557412806033,-33.478702149275186,-32.101663017944865,-30.724623886612346,-29.347584755277662,-27.970545623940723,-26.593506492601588,-25.216467361260253,-23.839428229916727,-22.462389098571002,-21.085349967223056,-19.708310835872922,-18.33127170452055,-16.954232573166014,-15.577193441809262,-14.24759620931162,-13.107768814427113,-11.967941419540384,-10.828114024651414,-9.6882866297602153,-8.5484592348667761,-7.4086318399710889,-6.2688044450731661,-5.1289770501730079,-3.9891496552706136,-2.8493222603659767,-1.7094948654590933,-0.5696674705499809,0.57015992436137453,1.7099873192749677,2.8498147141907983,3.989642109108869,5.1294695040291671,6.2692968989517022,7.4091242938764852,8.4467189522985979,9.2457673377840948,10.044815723271874,10.843864108761913,11.642912494254229,12.441960879748837,13.24100926524571,14.04005765074486,14.839106036246273,15.638154421749977,16.437202807255943,17.236251192764183,18.0352995782747,18.834347963787508,19.633396349302576,20.432444734819924,21.231493120339557,22.030541505861454,22.829589891385623,23.628638276912074,24.256249930579518,24.626702435298515,24.997154940019843,25.367607444743459,25.738059949469445,26.1085124541977,26.478964958928287,26.849417463661208,27.2198699683964,27.590322473133956,27.960774977873761,28.331227482615976,28.701679987360421,29.072132492107198,29.442584996856322,29.81303750160772,30.183490006361435,30.553942511117516,30.924395015875891,31.294847520636548,31.15887591904691,31.030395834265892,30.901915749487241,30.773435664710906,30.644955579936948,30.516475495165327,30.387995410396087,30.259515325629181,30.131035240864609,30.00255515610241,29.874075071342581,29.745594986585047,29.617114901829929,29.488634817077113,29.360154732326684,29.231674647578593,29.103194562832883,28.97471447808946,28.5151271419357,27.83479642200696,27.154465702080731,26.474134982156905,25.793804262235561,25.113473542316683,24.433142822400232,23.752812102486246,23.072481382574729,22.392150662665649,21.71181994275905,21.031489222854876,20.351158502953155,19.670827783053948,18.990497063157147,18.310166343262814,17.629835623370916,16.949504903481486,16.269174183594536,15.588843463710033,14.496030493420628,13.226433846019336,11.956837198620443,10.687240551223976,9.4176439038299087,8.1480472564383124,6.87845060904912,5.608853961662307,4.3392573142779725,3.069660666896016,1.8000640195165103,0.5304673721394102,-0.73912927523524574,-2.0087259226075238,-3.2783225699773304,-4.5479192173447487,-5.8175158647097245,-7.0871125120722764,-8.35670915943242,-9.6263058067901337,-11.386396008889406,-13.269115394966814,-15.151834781041627,-17.034554167113839,-18.917273553183477,-20.79999293925049,-22.682712325314963,-24.565431711376789,-26.448151097436053,-28.330870483492728,-30.213589869546787,-32.096309255598278,-33.979028641647083,-35.861748027693437,-37.744467413737134,-39.6271867997782,-41.509906185816718,-43.392625571852648,-45.275344957885956,-47.158064343916692,-49.604649600251292,-52.11389254190879,-54.623135483563708,-57.132378425215869,-59.641621366865465,-62.15086430851234,-64.660107250156642,-67.1693501917982,-69.6785931334372,-72.187836075073548,-74.697079016707278,-77.206321958338364,-79.7155648999668,-82.224807841592551,-84.734050783215679,-87.2432937248362,-89.752536666454048,-92.261779608069247,-94.771022549681859,-97.280265491291686,0,0.053634551402838723,0.14792167989649535,0.30375625281494,0.53419496483148321,0.84056733398190175,1.223283925662056,1.68207866038609,2.2159486554511107,2.8228750465264794,3.27362839773534,4.3201436876962411
DP 298,174.88119284040204,0.0051530732327964186,-66.8213529330181,-65.499702326613956,-64.178051720207847,-62.856401113799777,-61.534750507389738,-60.213099900977831,-58.8914492945639,-57.569798688148104,-56.248148081730307,-54.926497475310612,-53.604846868888913,-52.28319626246531,-50.961545656039789,-49.639895049612321,-48.31824444318287,-46.996593836751494,-45.674943230318164,-44.353292623882929,-43.031642017445712,-41.709991411006605,-40.39822617710503,-39.175430230464819,-37.95263428382269,-36.729838337178556,-35.507042390532476,-34.284246443884456,-33.061450497234418,-31.838654550582444,-30.61585860392848,-29.3930626572726,-28.1702667106147,-26.947470763954836,-25.724674817293039,-24.501878870629255,-23.279082923963546,-22.056286977295823,-20.83349103062616,-19.610695083954525,-18.387899137280911,-17.16510319060534,-15.982818484777708,-14.962580656965311,-13.942342829150874,-12.922105001334414,-11.901867173515932,-10.881629345695416,-9.8613915178728835,-8.8411536900483085,-7.8209158622217227,-6.8006780343931021,-5.7804402065624565,-4.7602023787297725,-3.739964550895071,-2.7197267230583386,-1.6994888952195817,-0.67925106737879493,0.3409867604640156,1.3612245883088481,2.3814624161557085,3.4017002440045947,4.3335273334979316,5.0590599145609492,5.7845924956260344,6.5101250766931722,7.2356576577623724,7.9611902388336437,8.6867228199069775,9.412255400982378,10.13778798205983,10.863320563139343,11.588853144220929,12.314385725304568,13.039918306390293,13.765450887478059,14.490983468567903,15.216516049659807,15.942048630753762,16.667581211849797,17.39311379294789,18.118646374048062,18.693479352084719,19.042259364397925,19.391039376713259,19.739819389030707,20.08859940135029,20.437379413671973,20.786159425995791,21.13493943832172,21.483719450649776,21.832499462979957,22.181279475312248,22.530059487646668,22.878839499983219,23.227619512321837,23.576399524662651,23.925179537005551,24.273959549350547,24.622739561697696,24.971519574046951,25.320299586398328,25.249445085597468,25.151346438017775,25.053247790440285,24.955149142864951,24.857050495291784,24.758951847720766,24.660853200151951,24.562754552585268,24.464655905020749,24.366557257458407,24.268458609898254,24.17035996234026,24.072261314784402,23.974162667230736,23.876064019679244,23.77796537212987,23.679866724582723,23.581768077037708,23.181304143596652,22.579258589516222,21.97721303543808,21.375167481362212,20.773121927288621,20.171076373217311,19.569030819148303,18.966985265081576,18.364939711017108,17.762894156954943,17.160848602895076,16.558803048837465,15.956757494782153,15.354711940729118,14.752666386678358,14.150620832629901,13.548575278583709,12.946529724539811,12.344484170498193,11.742438616458863,10.756824729175182,9.6068192339906471,8.4568137388083624,7.3068082436283461,6.1568027484505485,5.0067972532750487,3.8567917581017928,2.7067862629307466,1.5567807677620085,0.40677527259548035,-0.74323022256876481,-1.8932357177307695,-3.043241212890504,-4.1932467080480178,-5.3432522032032361,-6.49325769835623,-7.6432631935069555,-8.7932686886554219,-9.9432741838016554,-11.093279678945613,-12.706184793109443,-14.434820281292348,-16.163455769472847,-17.89209125765089,-19.620726745826495,-21.349362233999642,-23.077997722170405,-24.80663321033866,-26.535268698504506,-28.263904186667961,-29.992539674828855,-31.721175162987397,-33.449810651143444,-35.178446139297129,-36.907081627448314,-38.635717115597117,-40.364352603743384,-42.092988091887293,-43.821623580028735,-45.550259068167733,-47.816239570852133,-50.1419307185753,-52.467621866296064,-54.793313014014274,-57.119004161729919,-59.444695309443119,-61.770386457153776,-64.096077604861989,-66.421768752567658,-68.74745990027094,-71.073151047971578,-73.398842195669886,-75.724533343365579,-78.05022449105887,-80.375915638749575,-82.701606786437821,-85.0272979341236,-87.35298908180674,-89.6786802294876,-92.004371377165754,0,0.0526615437033342,0.14187728404663386,0.28756292463213651,0.50276583938978325,0.78870015649645553,1.1457159791258018,1.5735598200782817,2.071313707192195,2.6371306209561496,3.0572231448116991,4.0332245906534574
DP 299,260.38801276536844,0.0010016183014301067,-16.690638054501182,-16.332481624153271,-15.974325193804836,-15.616168763455873,-15.258012333106418,-14.899855902756441,-14.541699472405972,-14.18354304205498,-13.825386611703491,-13.467230181351475,-13.109073750998956,-12.750917320645916,-12.392760890292379,-12.034604459938338,-11.67644802958378,-11.318291599228703,-10.960135168873126,-10.601978738517031,-10.243822308160427,-9.8856658778033086,-9.5304158907008265,-9.2013241676236088,-8.8722324445458991,-8.54314072146766,-8.2140489983889129,-7.8849572753096391,-7.5558655522298723,-7.2267738291495851,-6.897682106068781,-6.5685903829874741,-6.2394986599056486,-5.9104069368233105,-5.5813152137404511,-5.2522234906570908,-4.9231317675732162,-4.59404004448882,-4.2649483214039172,-3.9358565983185,-3.6067648752325714,-3.2776731521461304,-2.9603183077790169,-2.6899115329919705,-2.4195047582044067,-2.1490979834163242,-1.8786912086277237,-1.6082844338386062,-1.3378776590489712,-1.0674708842588181,-0.79706410946814721,-0.52665733467695852,-0.25625055988525075,0.014156214906976479,0.28456298969971994,0.55496976449298185,0.82537653928676147,1.0957833140810598,1.3661900888758745,1.6365968636712054,1.9070036384670561,2.1774104132634253,2.4228045818829633,2.6098352146721333,2.7968658474618322,2.9838964802520525,3.1709271130428034,3.3579577458340788,3.5449883786258809,3.7320190114182039,3.9190496442110603,4.1060802770044393,4.2931109097983429,4.4801415425927731,4.6671721753877309,4.854202808183218,5.0412334409792265,5.22826407377576,5.4152947065728272,5.6023253393704131,5.7893559721685266,5.9763866049671694,6.1220810990009182,6.20577040808787,6.2894597171753475,6.3731490262633654,6.4568383353519163,6.5405276444410054,6.6242169535306186,6.7079062626207717,6.7915955717114525,6.8752848808026714,6.9589741898944126,7.0426634989866992,7.1263528080795124,7.21004211717286,7.29373142626674,7.3774207353611549,7.4611100444561078,7.544799353551582,7.6284886626475918,7.7121779717441443,7.6676010083341959,7.6330321375930383,7.5984632668524172,7.5638943961123557,7.5293255253728217,7.4947566546338349,7.4601877838953836,7.4256189131574759,7.3910500424201038,7.3564811716832788,7.3219123009469813,7.2873434302112425,7.2527745594760331,7.2182056887413664,7.1836368180072352,7.14906794727365,7.114499076540608,7.0799302058081,6.9682948738823338,6.8052806870782945,6.6422665002748138,6.4792523134718953,6.3162381266695427,6.1532239398677406,5.9902097530665088,5.82719556626584,5.66418137946573,5.5011671926661805,5.338153005867202,5.1751388190687777,5.0121246322709174,4.849110445473622,4.6860962586768817,4.52308207188071,4.3600678850850922,4.19705369829004,4.0340395114955543,3.8710253247016309,3.613663450473183,3.3158655790707696,3.0180677076689122,2.7202698362676081,2.4224719648668542,2.1246740934666626,1.826876222067026,1.52907835066793,1.2312804792694017,0.93348260787141657,0.63568473647399215,0.33788686507711913,0.040088993680805048,-0.25770887771496542,-0.55550674911016962,-0.85330462050482792,-1.1511024918989281,-1.4489003632924735,-1.7466982346854683,-2.0444961060779079,-2.4528607573507677,-2.8888684099653466,-3.3248760625793361,-3.7608837151927337,-4.19689136780554,-4.6328990204177583,-5.0689066730293906,-5.5049143256404225,-5.9409219782508655,-6.3769296308607339,-6.8129372834699922,-7.2489449360786686,-7.6849525886867438,-8.12096024129425,-8.5569678939011453,-8.99297554650746,-9.4289831991131745,-9.8649908517183249,-10.300998504322859,-10.737006156926807,-11.298886251606129,-11.874753495147853,-12.45062073868899,-13.026487982229517,-13.602355225769447,-14.178222469308773,-14.7540897128475,-15.329956956385619,-15.905824199923169,-16.481691443460086,-17.057558686996412,-17.633425930532155,-18.20929317406727,-18.7851604176018,-19.361027661135722,-19.936894904669042,-20.512762148201769,-21.088629391733875,-21.664496635265426,-22.240363878796312,0,0.012005562532498126,0.033414145145968806,0.068975817997251485,0.12158764290910956,0.19155634157352344,0.27897903270085594,0.3837954563452195,0.50577474571370873,0.6444522542418859,0.74745527495632469,0.9865247976053293
DP 300,65.953513711440308,0.0036841052544218009,-22.835078249526198,-22.550801050058435,-22.266523850590506,-21.982246651122427,-21.697969451654188,-21.413692252185825,-21.129415052717302,-20.845137853248616,-20.560860653779784,-20.276583454310781,-19.992306254841658,-19.708029055372368,-19.423751855902932,-19.139474656433347,-18.855197456963595,-18.570920257493693,-18.286643058023653,-18.002365858553457,-17.718088659083104,-17.433811459612613,-17.151589010939123,-16.88785951366399,-16.624130016388655,-16.360400519113167,-16.096671021837448,-15.832941524561575,-15.569212027285486,-15.305482530009224,-15.041753032732785,-14.778023535456144,-14.514294038179321,-14.250564540902323,-13.986835043625117,-13.723105546347725,-13.459376049070162,-13.195646551792404,-12.931917054514461,-12.668187557236335,-12.404458059958001,-12.140728562679502,-11.885457627829581,-11.66402134245792,-11.442585057085955,-11.221148771713708,-10.999712486341169,-10.778276200968328,-10.556839915595203,-10.335403630221771,-10.113967344848056,-9.8925310594740452,-9.6710947740997373,-9.4496584887251451,-9.2282222033502457,-9.00678591797506,-8.785349632599587,-8.5639133472238012,-8.34247706184774,-8.1210407764713821,-7.8996044910947214,-7.6781682057177809,-7.4753801451475272,-7.3161051966848873,-7.1568302482219321,-6.9975552997586812,-6.8382803512951149,-6.6790054028312493,-6.519730454367072,-6.3604555059025945,-6.2011805574378123,-6.041905608972721,-5.8826306605073215,-5.7233557120416236,-5.5640807635756095,-5.4048058151092979,-5.2455308666426781,-5.086255918175751,-4.9269809697085236,-4.7677060212409854,-4.60843107277314,-4.449156124304996,-4.3220497930156236,-4.2431971476593473,-4.1643445023026855,-4.0854918569456435,-4.0066392115882108,-3.9277865662303961,-3.8489339208721924,-3.77008127551361,-3.69122863015464,-3.6123759847952832,-3.533523339435543,-3.454670694075419,-3.3758180487149048,-3.2969654033540103,-3.2181127579927287,-3.139260112631062,-3.0604074672690107,-2.9815548219065748,-2.902702176543754,-2.8238495311805472,-2.8291914328852914,-2.8470989055572953,-2.8650063782288715,-2.8829138509000205,-2.9008213235707374,-2.918728796241028,-2.9366362689108807,-2.954543741580312,-2.972451214249308,-2.9903586869178791,-3.0082661595860185,-3.026173632253724,-3.0440811049210095,-3.0619885775878557,-3.0798960502542783,-3.09780352292027,-3.11571099558583,-3.1336184682509605,-3.2179135742344376,-3.3464681482816947,-3.4750227223284269,-3.603577296374648,-3.7321318704203428,-3.8606864444655162,-3.989241018510167,-4.1177955925542955,-4.2463501665979129,-4.3749047406410018,-4.5034593146835649,-4.6320138887256128,-4.7605684627671385,-4.8891230368081393,-5.0176776108486267,-5.1462321848885839,-5.2747867589280286,-5.4033413329669457,-5.5318959070053406,-5.6604504810432168,-5.8743450225313163,-6.1248149881392333,-6.3752849537466334,-6.6257549193535077,-6.8762248849598757,-7.1266948505657064,-7.3771648161710219,-7.6276347817758285,-7.8781047473801014,-8.12857471298386,-8.3790446785871016,-8.6295146441898254,-8.8799846097920128,-9.1304545753937045,-9.3809245409948581,-9.63139450659549,-9.8818644721956161,-10.132334437795205,-10.382804403394287,-10.633274368992842,-10.987772591273899,-11.368279106843,-11.748785622411429,-12.129292137979213,-12.509798653546348,-12.890305169112848,-13.270811684678687,-13.651318200243873,-14.031824715808426,-14.412331231372329,-14.792837746935577,-15.173344262498178,-15.553850778060134,-15.934357293621442,-16.3148638091821,-16.69537032474209,-17.075876840301465,-17.456383355860172,-17.836889871418244,-18.217396386975658,-18.719490420184282,-19.235095454539369,-19.750700488893763,-20.266305523247432,-20.781910557600423,-21.297515591952742,-21.81312062630435,-22.328725660655238,-22.8443306950055,-23.359935729355016,-23.875540763703864,-24.391145798052008,-24.906750832399482,-25.422355866746262,-25.937960901092339,-26.453565935437712,-26.969170969782418,-27.484776004126388,-28.000381038469751,-28.515986072812311,0,0.025391670247651821,0.052232442983084021,0.087952640031277271,0.13898156253649144,0.20590948249894794,0.28885144505603122,0.38780675760752753,0.50269499279505458,0.63325545071623268,0.72865289459341787,0.95161155045996781
DP 301,197.51855545976946,0.0032889506508621161,-46.036852354381075,-45.101515889803579,-44.166179425224662,-43.230842960644331,-42.295506496062643,-41.360170031479548,-40.4248335668951,-39.489497102309286,-38.554160637722042,-37.618824173133405,-36.683487708543474,-35.748151243952108,-34.812814779359357,-33.877478314765227,-32.942141850169726,-32.006805385572825,-31.071468920974578,-30.1361324563749,-29.200795991773898,-28.265459527171473,-27.337244160866298,-26.473119352364279,-25.60899454386087,-24.744869735356055,-23.880744926849822,-23.016620118342225,-22.152495309833242,-21.288370501322849,-20.424245692811049,-19.560120884297863,-18.6959960757833,-17.831871267267317,-16.96774645874995,-16.10362165023119,-15.239496841711029,-14.375372033189484,-13.511247224666535,-12.647122416142206,-11.782997607616466,-10.918872799089344,-10.083837149922767,-9.3651595129967369,-8.6464818760692665,-7.9278042391403778,-7.2091266022100706,-6.4904489652783335,-5.77177132834517,-5.0530936914105737,-4.3344160544745653,-3.6157384175371243,-2.8970607805982533,-2.1783831436579506,-1.4597055067162279,-0.74102786977307777,-0.022350232828499683,0.69632740411750416,1.415005041064934,2.1336826780137845,2.8523603149640619,3.5710379519157676,4.2265599785887051,4.7347169247362784,5.2428738708853055,5.7510308170357893,6.2591877631877137,6.767344709341093,7.2755016554959262,7.7836586016522089,8.291815547809934,8.799972493969122,9.30812944012975,9.8162863862918357,10.324443332455363,10.832600278620351,11.340757224786794,11.848914170954677,12.357071117124,12.865228063294799,13.373385009467039,13.88154195564073,14.282759718025439,14.5235661776852,14.764372637346451,15.005179097009179,15.245985556673375,15.486792016339072,15.727598476006243,15.968404935674906,16.20921139534504,16.450017855016672,16.690824314689753,16.931630774364361,17.172437234040423,17.41324369371798,17.654050153397026,17.894856613077533,18.135663072759545,18.376469532443043,18.617275992128,18.85808245181445,18.793693349364865,18.719775821486714,18.645858293610061,18.571940765734933,18.498023237861315,18.4241057099892,18.350188182118593,18.276270654249497,18.202353126381915,18.12843559851585,18.054518070651277,17.980600542788252,17.9066830149267,17.832765487066684,17.758847959208154,17.684930431351152,17.611012903495652,17.53709537564168,17.251875150155129,16.825783130778582,16.399691111403627,15.973599092030215,15.547507072658441,15.121415053288205,14.695323033919564,14.269231014552521,13.843138995187063,13.417046975823165,12.990954956460882,12.564862937100161,12.138770917741036,11.7126788983835,11.286586879027528,10.860494859673166,10.434402840320351,10.008310820969156,9.582218801619538,9.1561267822715031,8.4639099982271624,7.6576361500852226,6.8513623019448513,6.04508845380604,5.238814605668777,4.4325407575331095,3.6262669093989954,2.8199930612664121,2.013719213135428,1.2074453650059802,0.40117151687811115,-0.40510233124820283,-1.2113761793729407,-2.0176500274961433,-2.8239238756177496,-3.6301977237378145,-4.4364715718563046,-5.2427454199732306,-6.0490192680886041,-6.8552931162024082,-7.9808728548967967,-9.1862828389079638,-10.391692822917442,-11.597102806925228,-12.802512790931345,-14.007922774935775,-15.21333275893854,-16.418742742939589,-17.624152726938981,-18.829562710936706,-20.0349726949327,-21.240382678927052,-22.445792662919686,-23.65120264691069,-24.856612630899978,-26.062022614887603,-27.267432598873491,-28.472842582857741,-29.6782525668403,-30.883662550821196,-32.458316671741052,-34.074001796944266,-35.689686922145711,-37.30537204734545,-38.921057172543463,-40.536742297739778,-42.15242742293438,-43.76811254812722,-45.383797673318377,-46.9994827985078,-48.615167923695537,-50.230853048881485,-51.846538174065792,-53.462223299248421,-55.077908424429225,-56.6935935496084,-58.309278674785823,-59.924963799961454,-61.540648925135493,-63.1563340503077,0,0.035472312404929922,0.096798479532520826,0.19759406401376234,0.34656980564043172,0.54457584417749449,0.79186693498383343,1.088269336917504,1.4331407430936041,1.8251881253449342,2.1163168991491244,2.7924514519307873
DP 302,105.96253849145496,0.0037301370061966275,-34.206970127472893,-33.628719884826786,-33.050469642179969,-32.472219399532392,-31.893969156884122,-31.315718914235138,-30.737468671585436,-30.159218428935027,-29.580968186283908,-29.002717943632053,-28.424467700979502,-27.846217458326215,-27.267967215672229,-26.689716973017504,-26.111466730362093,-25.53321648770595,-24.954966245049057,-24.376716002391518,-23.798465759733247,-23.220215517074234,-22.646161801723064,-22.109877228822022,-21.573592655920205,-21.037308083017653,-20.501023510114358,-19.964738937210313,-19.428454364305527,-18.89216979139999,-18.355885218493711,-17.819600645586718,-17.283316072678957,-16.747031499770458,-16.210746926861198,-15.674462353951206,-15.138177781040472,-14.601893208129008,-14.065608635216782,-13.529324062303811,-12.993039489390105,-12.456754916475656,-11.93775608831092,-11.48790105609566,-11.038046023879572,-10.588190991662659,-10.138335959444923,-9.6884809272263617,-9.2386258950069866,-8.7887708627867749,-8.3389158305657567,-7.88906079834391,-7.4392057661212316,-6.9893507338977336,-6.5394957016734061,-6.0896406694482685,-5.6397856372222952,-5.1899306049955038,-4.74007557276789,-4.29022054053945,-3.8403655083101942,-3.390510476080109,-2.9787174484401358,-2.6557369640820228,-2.3327564797230624,-2.0097759953632619,-1.6867955110026205,-1.363815026641136,-1.0408345422788086,-0.71785405791563617,-0.39487357355162389,-0.071893089186768636,0.25108739517892825,0.57406787954546579,0.89704836391285014,1.2200288482810748,1.5430093326501431,1.8659898170200542,2.1889703013908051,2.5119507857624064,2.8349312701348421,3.1579117545081181,3.4152971634369522,3.5742884091454674,3.7332796548548854,3.8922709005652116,4.0512621462764429,4.210253391988581,4.3692446377016223,4.5282358834155731,4.6872271291304237,4.8462183748461873,5.00520962056285,5.1642008662804191,5.3231921119988943,5.482183357718279,5.6411746034385626,5.80016584915976,5.959157094881852,6.1181483406048631,6.2771395863287678,6.4361308320535855,6.4206656727729676,6.3826809875481993,6.3446963023243823,6.3067116171015121,6.2687269318795789,6.2307422466586075,6.19275756143857,6.15477287621948,6.1167881910013344,6.0788035057841441,6.04081882056789,6.0028341353525887,5.9648494501382263,5.9268647649248125,5.8888800797123437,5.8508953945008288,5.8129107092902457,5.7749260240806217,5.6019726906967309,5.3390381322729485,5.0761035738501983,4.81316901542848,4.5502344570078019,4.2872998985881487,4.0243653401695427,3.7614307817519674,3.4984962233354224,3.2355616649199153,2.9726271065054508,2.7096925480920127,2.4467579896796092,2.1838234312682503,1.9208888728579143,1.6579543144486251,1.3950197560403583,1.1320851976331321,0.86915063922694591,0.60621608082179412,0.17006449474229038,-0.34032529931006122,-0.85071509336139073,-1.3611048874116889,-1.8714946814609743,-2.3818844755092128,-2.8922742695564323,-3.4026640636026446,-3.913053857647812,-4.4234436516919713,-4.9338334457350888,-5.4442232397771866,-5.9546130338182577,-6.4650028278583118,-6.9753926218973277,-7.4857824159353274,-7.9961722099722943,-8.5065620040082344,-9.01695179804315,-9.5273415920770521,-10.248701539477567,-11.022806517879978,-11.796911496281227,-12.571016474681324,-13.345121453080242,-14.119226431478042,-14.893331409874669,-15.667436388270122,-16.441541366664421,-17.2156463450576,-17.989751323449557,-18.763856301840406,-19.537961280230071,-20.312066258618611,-21.086171237005964,-21.860276215392162,-22.634381193777212,-23.408486172161091,-24.182591150543818,-24.956696128925422,-25.9771787416997,-27.025039234745488,-28.07289972779008,-29.120760220833457,-30.168620713875615,-31.216481206916587,-32.264341699956368,-33.312202192994917,-34.3600626860323,-35.407923179068483,-36.45578367210345,-37.503644165137239,-38.5515046581698,-39.599365151201177,-40.64722564423132,-41.695086137260283,-42.742946630288088,-43.790807123314615,-44.838667616340025,-45.886528109364129,0,0.030058174221348044,0.073394622992498257,0.14055141427183593,0.23927719786242713,0.37013925246581558,0.53324679976617284,0.72847952057658971,0.95545914101143259,1.2134168291921521,1.4045034374058432,1.8495076171468905
DP 303,182.89120012579286,0.0028504822791384629,-38.022824427640053,-37.263087105267516,-36.503349782893942,-35.743612460519216,-34.983875138143368,-34.224137815766419,-33.464400493388283,-32.704663171009095,-31.944925848628767,-31.185188526247344,-30.42545120386475,-29.665713881481096,-28.905976559096295,-28.14623923671034,-27.3865019143233,-26.62676459193511,-25.867027269545822,-25.107289947155426,-24.347552624763917,-23.587815302371261,-22.833794216301552,-22.131219797470497,-21.4286453786383,-20.726070959804996,-20.02349654097053,-19.320922122134938,-18.61834770329822,-17.915773284460375,-17.213198865621379,-16.510624446781268,-15.808050027939998,-15.105475609097621,-14.402901190254106,-13.700326771409452,-12.997752352563685,-12.295177933716772,-11.592603514868719,-10.890029096019544,-10.187454677169228,-9.484880258317796,-8.8057048935641582,-8.2201268510770245,-7.6345488085887183,-7.0489707660992549,-6.4633927236086279,-5.8778146811168384,-5.29223663862388,-4.7066585961297571,-4.1210805536344752,-3.5355025111380289,-2.9499244686404111,-2.3643464261416334,-1.7787683836416912,-1.1931903411405838,-0.607612298638313,-0.022034256134876862,0.56354378636972091,1.14912182887548,1.7346998713824027,2.3202779138904925,2.8548770759762343,3.2705239108597923,3.6861707457445414,4.1018175806304686,4.5174644155175825,4.9331112504058821,5.3487580852953629,5.7644049201860339,6.180051755077888,6.5956985899709277,7.0113454248651452,7.426992259760552,7.8426390946571356,8.2582859295549209,8.6739327644538733,9.0895795993540176,9.5052264342553485,9.9208732691578625,10.336520104061561,10.752166938966441,11.081107297658905,11.279985893103106,11.478864488548519,11.67774308399515,11.876621679443003,12.075500274892047,12.27437887034233,12.473257465793822,12.672136061246519,12.871014656700446,13.069893252155579,13.268771847611923,13.467650443069486,13.666529038528269,13.865407633988255,14.064286229449459,14.263164824911888,14.462043420375524,14.660922015840374,14.859800611306445,14.815246772082441,14.757649032451242,14.700051292821289,14.642453553192542,14.584855813565065,14.527258073938803,14.469660334313799,14.412062594690035,14.354464855067508,14.296867115446213,14.23926937582617,14.181671636207362,14.12407389658979,14.066476156973462,14.008878417358384,13.951280677744515,13.893682938131921,13.836085198520539,13.605391686260566,13.259298265334085,12.913204844408927,12.567111423485043,12.22101800256247,11.874924581641203,11.528831160721239,11.182737739802585,10.836644318885222,10.49055089796917,10.144457477054429,9.7983640561409828,9.4522706352288441,9.1061772143180129,8.7600837934084836,8.41399037250025,8.0678969515933243,7.7218035306877022,7.3757101097833893,7.0296166888803864,6.4644572936459754,5.8054095227677784,5.1463617518908693,4.4873139810152507,3.8282662101408986,3.1692184392678628,2.5101706683961091,1.8511228975256175,1.1920751266564378,0.53302735578852545,-0.12602041507808565,-0.785068185943417,-1.4441159568074513,-2.1031637276702209,-2.7622114985316748,-3.4212592693918631,-4.0803070402507533,-4.7393548111083534,-5.3984025819646781,-6.0574503528197088,-6.9803745714020407,-7.9692710196763663,-8.9581674679493091,-9.9470639162208485,-10.935960364491009,-11.924856812759769,-12.913753261027168,-13.902649709293142,-14.891546157557737,-15.880442605820971,-16.869339054082761,-17.858235502343202,-18.847131950602218,-19.836028398859884,-20.824924847116133,-21.813821295371007,-22.80271774362447,-23.791614191876569,-24.780510640127257,-25.769407088376571,-27.064236244460773,-28.393061136671292,-29.721886028880451,-31.050710921088136,-32.379535813294446,-33.708360705499317,-35.037185597702717,-36.366010489904717,-37.694835382105339,-39.023660274304511,-40.352485166502277,-41.681310058698635,-43.010134950893544,-44.338959843087032,-45.667784735279085,-46.996609627469759,-48.325434519659062,-49.654259411846795,-50.983084304033241,-52.311909196218089,0,0.029726482303508737,0.08049464792592452,0.16360922029322905,0.28641051498964082,0.44959439361233161,0.65336457812191218,0.89757694555496126,1.1817055028193537,1.5046916038715681,1.7445113069947213,2.3016064127181957
DP 304,53.562524039967876,0.0024410378299828416,-12.672682867100761,-12.547073333807363,-12.421463800513989,-12.29585426722063,-12.170244733927291,-12.044635200633966,-11.919025667340664,-11.793416134047375,-11.667806600754112,-11.542197067460862,-11.416587534167629,-11.29097800087442,-11.165368467581235,-11.039758934288058,-10.914149400994908,-10.788539867701761,-10.662930334408644,-10.53732080111555,-10.411711267822467,-10.286101734529407,-10.16139974359109,-10.044865719630153,-9.9283316956692271,-9.8117976717082911,-9.69526364774733,-9.57872962378638,-9.4621955998254172,-9.3456615758644421,-9.2291275519034759,-9.1125935279424937,-8.9960595039815,-8.8795254800205115,-8.76299145605951,-8.6464574320985,-8.5299234081374973,-8.4133893841764777,-8.2968553602154476,-8.18032133625443,-8.0637873122933836,-7.9472532883323384,-7.8344502560029632,-7.7365713665321181,-7.63869247706119,-7.5408135875901676,-7.4429346981190632,-7.345055808647885,-7.24717691917662,-7.1492980297052728,-7.0514191402338362,-6.9535402507623232,-6.8556613612907249,-6.757782471819044,-6.6599035823472832,-6.5620246928754415,-6.4641458034035137,-6.3662669139315007,-6.2683880244594024,-6.17050913498723,-6.0726302455149685,-5.9747513560426277,-5.8851004131186757,-5.8146482713827989,-5.7441961296468325,-5.6737439879107789,-5.6032918461746339,-5.5328397044383992,-5.4623875627020775,-5.391935420965666,-5.3214832792291649,-5.251031137492574,-5.180578995755897,-5.1101268540191374,-5.0396747122822747,-4.96922257054533,-4.8987704288082972,-4.8283182870711743,-4.7578661453339643,-4.6874140035966594,-4.6169618618592718,-4.5465097201217972,-4.4902444409339246,-4.4552597908150275,-4.42027514069599,-4.3852904905768071,-4.3503058404574784,-4.3153211903380013,-4.2803365402183831,-4.2453518900986165,-4.2103672399787078,-4.1753825898586525,-4.14039793973845,-4.1054132896181077,-4.0704286394976128,-4.0354439893769811,-4.0004593392562,-3.965474689135275,-3.9304900390142068,-3.8955053888929876,-3.8605207387716245,-3.8255360886501188,-3.8272863116291611,-3.834983411531625,-3.8426805114339153,-3.8503776113360288,-3.8580747112379665,-3.865771811139727,-3.8734689110413143,-3.881166010942728,-3.888863110843964,-3.8965602107450237,-3.9042573106459093,-3.91195441054662,-3.9196515104471539,-3.9273486103475137,-3.935045710247695,-3.9427428101477044,-3.9504399100475358,-3.9581370099471895,-3.9951166372371087,-4.051618410762301,-4.1081201842872623,-4.1646219578119865,-4.2211237313364753,-4.2776255048607252,-4.334127278384738,-4.390629051908518,-4.4471308254320556,-4.5036325989553578,-4.5601343724784229,-4.616636146001257,-4.6731379195238505,-4.729639693046205,-4.7861414665683242,-4.842643240090208,-4.8991450136118546,-4.9556467871332659,-5.0121485606544347,-5.0686503341753744,-5.1628025422922166,-5.2730911593483283,-5.3833797764042037,-5.4936683934598447,-5.6039570105152485,-5.7142456275704081,-5.82453424462533,-5.934822861680022,-6.04511147873447,-6.1554000957886874,-6.2656887128426639,-6.3759773298964042,-6.4862659469499064,-6.596554564003176,-6.706843181056203,-6.8171317981089938,-6.9274204151615475,-7.0377090322138631,-7.1479976492659416,-7.2582862663177865,-7.4144601880001142,-7.5821059779852842,-7.749751767970138,-7.9173975579546632,-8.0850433479388784,-8.2526891379227649,-8.4203349279063318,-8.5879807178895717,-8.7556265078725,-8.9232722978551067,-9.0909180878373856,-9.2585638778193484,-9.42620966780098,-9.5938554577822988,-9.761501247763297,-9.9291470377439683,-10.096792827724316,-10.264438617704347,-10.432084407684064,-10.599730197663451,-10.821018885547462,-11.048268458801001,-11.275518032054192,-11.502767605307017,-11.730017178559512,-11.957266751811639,-12.184516325063433,-12.411765898314847,-12.639015471565921,-12.866265044816659,-13.093514618067044,-13.320764191317066,-13.548013764566747,-13.775263337816082,-14.002512911065056,-14.229762484313673,-14.45701205756197,-14.684261630809882,-14.911511204057463,-15.138760777304677,0,0.016383297222242171,0.031272493031376851,0.048836272789928109,0.072859608865571759,0.10377595327147818,0.14172826972439304,0.18679321042563896,0.23902705112083894,0.29839087108119561,0.3407894001056116,0.43978836281235051
DP 305,131.07370994020994,0.0013337582439824423,-14.289835594083968,-14.028376941315333,-13.766918288546325,-13.505459635776967,-13.244000983007254,-12.982542330237166,-12.721083677466728,-12.459625024695915,-12.198166371924756,-11.936707719153247,-11.675249066381364,-11.413790413609117,-11.152331760836514,-10.890873108063554,-10.629414455290235,-10.367955802516551,-10.106497149742506,-9.8450384969681082,-9.5835798441933431,-9.3221211914182209,-9.0625731366177469,-8.820220644189968,-8.57786815176183,-8.335515659333316,-8.0931631669044179,-7.8508106744751718,-7.6084581820455579,-7.366105689615563,-7.1237531971852075,-6.8814007047544843,-6.6390482123233836,-6.3966957198919223,-6.1543432274600924,-5.9119907350278886,-5.6696382425953189,-5.4272857501623806,-5.1849332577290728,-4.942580765295399,-4.70022827286135,-4.4578757804269431,-4.2233847991240117,-4.0203402338940819,-3.8172956686637596,-3.6142511034330438,-3.4112065382019372,-3.2081619729704403,-3.0051174077385503,-2.80207284250627,-2.5990282772735971,-2.3959837120405312,-2.1929391468070731,-1.9898945815732236,-1.7868500163389844,-1.5838054511043536,-1.3807608858693274,-1.177716320633911,-0.97467175539810413,-0.77162719016190529,-0.56858262492531575,-0.36553805968833331,-0.17976894593307166,-0.034309763274647416,0.11114941938417862,0.25660860204340219,0.40206778470302568,0.54752696736304951,0.69298615002347264,0.83844533268429566,0.98390451534551893,1.1293636980071424,1.2748228806691646,1.4202820633315845,1.5657412459944056,1.711200428657629,1.8566596113212488,2.0021187939852707,2.1475779766496914,2.2930371593145114,2.4384963419797319,2.5839555246453494,2.6997142941881873,2.7709217422070487,2.8421291902263275,2.9133366382460264,2.984544086266145,3.0557515342866814,3.1269589823076367,3.1981664303290143,3.2693738783508071,3.3405813263730209,3.4117887743956548,3.4829962224187057,3.5542036704421771,3.6254111184660656,3.6966185664903741,3.7678260145151006,3.8390334625402489,3.9102409105658129,3.9814483585917966,4.0526558066182021,4.0439359363716258,4.0262063305392,4.0084767247071964,3.9907471188756323,3.9730175130444985,3.9552879072138012,3.9375583013835374,3.9198286955536963,3.9020990897242962,3.8843694838953247,3.8666398780667852,3.8489102722386788,3.831180666411008,3.8134510605837662,3.7957214547569538,3.7779918489305784,3.7602622431046369,3.7425326372791226,3.6640325731955636,3.5450179129130683,3.4260032526310349,3.3069885923494655,3.1879739320683584,3.0689592717877123,2.9499446115075365,2.8309299512278239,2.7119152909485691,2.5929006306697793,2.4738859703914584,2.3548713101135976,2.2358566498362018,2.11684198955927,1.9978273292827959,1.8788126690067926,1.7597980087312481,1.6407833484561696,1.5217686881815573,1.402754027907408,1.2059473738836426,0.97580024353290051,0.74565311318261385,0.51550598283278859,0.28535885248341586,0.055211722134510581,-0.17493540821393813,-0.40508253856193693,-0.63522966890946742,-0.8653767992565472,-1.0955239296031645,-1.3256710599493247,-1.5558181902950219,-1.7859653206402692,-2.016112450985049,-2.2462595813293769,-2.4764067116732442,-2.7065538420166484,-2.9367009723596005,-3.1668481027020938,-3.491554961443232,-3.839902869528697,-4.1882507776136562,-4.5365986856981051,-4.8849465937820584,-5.2332945018654957,-5.5816424099484356,-5.929990318030856,-6.27833822611278,-6.6266861341942018,-6.97503404227511,-7.3233819503555111,-7.6717298584354019,-8.0200777665148,-8.36842567459368,-8.7167735826720687,-9.0651214907499345,-9.4134693988273028,-9.76181730690416,-10.110165214980519,-10.568796238103316,-11.039682098915234,-11.510567959726625,-11.981453820537482,-12.452339681347848,-12.923225542157651,-13.394111402966967,-13.864997263775747,-14.335883124584011,-14.806768985391747,-15.277654846198971,-15.748540707005684,-16.219426567811844,-16.690312428617506,-17.161198289422639,-17.632084150227254,-18.102970011031353,-18.573855871834908,-19.044741732637991,-19.515627593440481,0,0.011877323218559638,0.030566769896442181,0.060388440304041072,0.10435367398523834,0.16270598557636623,0.2355048169172333,0.32269684316033043,0.42410238290600938,0.53935945926823792,0.62486081965057383,0.823735742477956
DP 306,88.799732761455573,0.0048913542459392383,-38.993894385073595,-38.390264975243234,-37.786635565412226,-37.183006155580614,-36.579376745748334,-35.975747335915429,-35.372117926081884,-34.76848851624765,-34.164859106412841,-33.561229696577378,-32.957600286741254,-32.353970876904519,-31.750341467067123,-31.146712057229109,-30.543082647390442,-29.939453237551131,-29.335823827711181,-28.732194417870591,-28.128565008029391,-27.524935598187533,-26.925676200601789,-26.365747326398846,-25.805818452195179,-25.245889577990908,-24.6859607037859,-24.126031829580231,-23.566102955373864,-23.006174081166844,-22.446245206959109,-21.886316332750738,-21.326387458541657,-20.7664585843319,-20.206529710121469,-19.646600835910345,-19.08667196169856,-18.526743087486086,-17.966814213272936,-17.406885339059091,-16.846956464844567,-16.287027590629389,-15.745100376573252,-15.275180653938815,-14.805260931303557,-14.335341208667533,-13.865421486030693,-13.395501763393064,-12.925582040754607,-12.455662318115381,-11.985742595475346,-11.515822872834507,-11.045903150192876,-10.575983427550431,-10.106063704907204,-9.6361439822631709,-9.1662242596183425,-8.6963045369727041,-8.2263848143262734,-7.7564650916790487,-7.286545369031022,-6.8166256463821915,-6.3863738614014434,-6.0486818474833246,-5.710989833564371,-5.3732978196446082,-5.0356058057240221,-4.6979137918026161,-4.3602217778803842,-4.0225297639573334,-3.6848377500334646,-3.3471457361087711,-3.0094537221832565,-2.6717617082569252,-2.3340696943297679,-1.996377680401793,-1.6586856664729954,-1.3209936525433763,-0.98330163861293762,-0.645609624681675,-0.3079176107495929,0.029774403183308255,0.29905037879702451,0.46570068021720729,0.63235098163830017,0.79900128306030893,0.9656515844832313,1.1323018859070686,1.2989521873318151,1.4656024887574757,1.6322527901840453,1.7989030916115367,1.9655533930399349,2.1322036944692462,2.2988539958994729,2.4655042973306083,2.6321545987626642,2.7988049001956252,2.9654552016295019,3.1321055030642984,3.2987558045000012,3.4654061059366152,3.4512148246899388,3.4122078631249888,3.3732009015610087,3.3341939399979892,3.2951869784359449,3.2561800168748647,3.2171730553147597,3.1781660937556175,3.1391591321974448,3.1001521706402388,3.0611452090840094,3.0221382475287424,2.9831312859744457,2.9441243244211144,2.905117362868757,2.8661104013173646,2.8271034397669417,2.7880964782174895,2.6080391087908263,2.3339459120453543,2.0598527153009805,1.785759518557682,1.5116663218154782,1.237573125074354,0.96347992833432783,0.68938673159538466,0.41529353485752385,0.14120033812075489,-0.13289285861491718,-0.40698605534951221,-0.68107925208301889,-0.955172448815428,-1.2292656455467632,-1.5033588422770001,-1.777452039006161,-2.051545235734225,-2.3256384324611967,-2.5997316291870849,-3.0550173185542646,-3.5879593800023146,-4.1209014414492886,-4.6538435028951746,-5.1867855643400009,-5.7197276257837171,-6.252669687226363,-6.78561174866795,-7.3185538101084306,-7.8514958715478524,-8.3844379329861862,-8.91737999442344,-9.4503220558596084,-9.9832641172947181,-10.516206178728728,-11.049148240161657,-11.582090301593507,-12.11503236302428,-12.647974424453984,-13.180916485882596,-13.934691156384178,-14.743676588341369,-15.5526620202973,-16.361647452251987,-17.170632884205407,-17.979618316157595,-18.788603748108528,-19.597589180058197,-20.406574612006622,-21.215560043953815,-22.024545475899728,-22.833530907844391,-23.642516339787779,-24.451501771729987,-25.260487203670877,-26.069472635610552,-26.878458067548948,-27.687443499486129,-28.496428931422034,-29.305414363356689,-30.372415019694035,-31.46808674408231,-32.563758468469281,-33.659430192854892,-34.755101917239273,-35.85077364162229,-36.946445366004,-38.042117090384366,-39.137788814763489,-40.233460539141291,-41.329132263517813,-42.424803987892986,-43.520475712266865,-44.616147436639423,-45.711819161010666,-46.807490885380595,-47.903162609749245,-48.998834334116559,-50.094506058482622,-51.190177782847272,0,0.036656672547002438,0.084516653003590514,0.15587650071313353,0.26027158500818226,0.39838852592952356,0.57033191573775877,0.77598362151396971,1.0149856133715316,1.2865872404305332,1.4872881140026823,1.9552853611460967
DP 307,170.83079603185351,0.0011309082902594976,-14.448052776076503,-14.163848457435959,-13.879644138795017,-13.595439820153635,-13.311235501511847,-13.027031182869637,-12.742826864227016,-12.458622545583975,-12.174418226940524,-11.890213908296653,-11.606009589652354,-11.321805271007655,-11.037600952362528,-10.75339663371699,-10.469192315071039,-10.184987996424663,-9.90078367777788,-9.6165793591306734,-9.3323750404830577,-9.0481707218350156,-8.7660862590864053,-8.5030806998138448,-8.2400751405408741,-7.9770695812674788,-7.7140640219936536,-7.4510584627194127,-7.1880529034447456,-6.9250473441696547,-6.6620417848941491,-6.3990362256182225,-6.1360306663418624,-5.8730251070650938,-5.6100195477878945,-5.3470139885102768,-5.0840084292322389,-4.8210028699537757,-4.55799731067489,-4.29499175139558,-4.0319861921158537,-3.7689806328357043,-3.514666480144617,-3.295118364579015,-3.0755702490129755,-2.8560221334465021,-2.6364740178795909,-2.4169259023122445,-2.1973777867444637,-1.9778296711762477,-1.758281555607593,-1.5387334400385047,-1.3191853244689786,-1.0996372088990154,-0.88008909332861773,-0.66054097775778509,-0.4409928621865154,-0.22144474661480981,-0.0018966310426691952,0.21765148452990746,0.43719960010291803,0.656747715676366,0.85731205762888585,1.0135803296681296,1.1698486017078176,1.32611687374795,1.4823851457885258,1.6386534178295435,1.794921689871007,1.9511899619129149,2.1074582339552648,2.2637265059980587,2.4199947780412958,2.5762630500849761,2.7325313221291023,2.8887995941736717,3.0450678662186843,3.201336138264141,3.3576044103100418,3.5138726823563857,3.6701409544031689,3.826409226450405,3.9502854617322161,4.02557287642131,4.1008602911108571,4.1761477058008678,4.2514351204913261,4.326722535182248,4.4020099498736256,4.4772973645654588,4.552584779257745,4.6278721939504912,4.70315960864369,4.7784470233373471,4.8537344380314629,4.92902185272604,5.0043092674210659,5.0795966821165495,5.154884096812494,5.2301715115088925,5.3054589262057519,5.3807463409030607,5.3661892947846868,5.3453088116000131,5.3244283284158014,5.3035478452320595,5.2826673620487865,5.261786878865979,5.2409063956836421,5.2200259125017636,5.1991454293203549,5.1782649461394126,5.1573844629589383,5.1365039797789285,5.115623496599393,5.0947430134203211,5.073862530241712,5.0529820470635745,5.0321015638859,5.0112210807086894,4.9251941700574013,4.7957352814587253,4.666276392860544,4.5368175042628529,4.4073586156656548,4.2778997270689461,4.1484408384727374,4.0189819498770154,3.889523061281785,3.760064172687049,3.630605284092812,3.5011463954990623,3.3716875069058,3.2422286183130393,3.1127697297207644,2.9833108411289873,2.8538519525376982,2.7243930639469047,2.5949341753566038,2.4654752867667971,2.2532832410536545,2.0056330108465543,1.7579827806399388,1.5103325504338121,1.2626823202281658,1.0150320900230154,0.76738185981834817,0.51973162961415909,0.27208139941046589,0.024431169207250886,-0.22321906099547248,-0.4708692911977122,-0.71851952139946185,-0.96616975160073337,-1.213819981801509,-1.4614702120018042,-1.7091204422016111,-1.9567706724009306,-2.2044209025997663,-2.452071132798114,-2.7996549775097455,-3.1722234065880506,-3.5447918356658303,-3.9173602647430812,-4.2899286938198058,-4.6624971228960055,-5.03506555197168,-5.4076339810468195,-5.780202410121432,-6.1527708391955329,-6.5253392682690832,-6.8979076973421272,-7.2704761264146214,-7.6430445554866129,-8.0156129845580626,-8.3881814136289918,-8.76074984269939,-9.1333182717692658,-9.5058867008386088,-9.878455129907433,-10.367095132514121,-10.868633195657349,-11.370171258800038,-11.871709321942179,-12.373247385083793,-12.874785448224859,-13.37632351136539,-13.877861574505379,-14.379399637644832,-14.880937700783749,-15.38247576392212,-15.884013827059958,-16.385551890197249,-16.887089953333998,-17.388628016470204,-17.890166079605876,-18.391704142741023,-18.893242205875598,-19.394780269009676,-19.896318332143181,0,0.011433384408662735,0.030715670810683847,0.062158031533823196,0.10859823397877054,0.17029773551854374,0.247331214741755,0.33964386386667855,0.44703803968306155,0.56911619218982223,0.6597496485328036,0.8703346864458481
DP 308,52.250997183603424,0.0053910699860815481,-27.418415445628639,-27.155328985185037,-26.892242524741505,-26.62915606429803,-26.366069603854626,-26.102983143411297,-25.839896682968039,-25.576810222524859,-25.313723762081729,-25.05063730163867,-24.787550841195667,-24.524464380752764,-24.261377920309897,-23.998291459867122,-23.7352049994244,-23.47211853898175,-23.209032078539163,-22.945945618096637,-22.682859157654214,-22.419772697211815,-22.158586799486265,-21.914506145860809,-21.670425492235374,-21.426344838609971,-21.182264184984572,-20.938183531359169,-20.694102877733794,-20.450022224108409,-20.20594157048307,-19.961860916857741,-19.717780263232406,-19.4736996096071,-19.229618955981774,-18.985538302356478,-18.74145764873122,-18.497376995105945,-18.253296341480688,-18.009215687855455,-17.765135034230219,-17.521054380605008,-17.28478638133182,-17.079769368703545,-16.874752356075085,-16.669735343446483,-16.464718330817725,-16.259701318188803,-16.054684305559721,-15.849667292930485,-15.644650280301093,-15.439633267671541,-15.234616255041832,-15.029599242411964,-14.824582229781932,-14.619565217151754,-14.414548204521417,-14.209531191890919,-14.004514179260251,-13.799497166629445,-13.594480153998463,-13.389463141367346,-13.201674990335365,-13.05408805920599,-12.906501128076442,-12.758914196946726,-12.611327265816845,-12.463740334686781,-12.316153403556555,-12.168566472426152,-12.020979541295585,-11.873392610164851,-11.725805679033929,-11.578218747902854,-11.430631816771605,-11.28304488564018,-11.135457954508587,-10.987871023376819,-10.84028409224489,-10.692697161112784,-10.5451102299805,-10.397523298848062,-10.279642108595326,-10.206320231627666,-10.132998354659714,-10.059676477691465,-9.9863546007229154,-9.9130327237540765,-9.8397108467849375,-9.76638896981551,-9.6930670928457818,-9.61974521587576,-9.5464233389054343,-9.4731014619348315,-9.39977958496392,-9.32645770799271,-9.2531358310212113,-9.1798139540494077,-9.1064920770773217,-9.0331702001049283,-8.9598483231322472,-8.88652644615927,-8.8900055464297925,-8.9060617308949137,-8.9221179153596815,-8.9381740998240726,-8.9542302842881174,-8.97028646875179,-8.9863426532150967,-9.00239883767805,-9.0184550221406266,-9.0345112066028577,-9.050567391064714,-9.0666235755262061,-9.0826797599873412,-9.0987359444481157,-9.11479212890852,-9.1308483133685652,-9.14690449782825,-9.1629606822875687,-9.2403255447618342,-9.3585638250851879,-9.4768021054080478,-9.5950403857304067,-9.7132786660522754,-9.83151694637364,-9.9497552266945011,-10.067993507014879,-10.186231787334751,-10.304470067654128,-10.422708347972991,-10.540946628291374,-10.659184908609252,-10.777423188926626,-10.895661469243516,-11.013899749559895,-11.13213802987579,-11.250376310191172,-11.368614590506052,-11.486852870820444,-11.683931416641139,-11.914799712268017,-12.145668007894393,-12.376536303520268,-12.607404599145662,-12.838272894770526,-13.069141190394907,-13.300009486018787,-13.530877781642168,-13.761746077265057,-13.992614372887427,-14.223482668509311,-14.454350964130711,-14.685219259751577,-14.916087555371959,-15.146955850991842,-15.377824146611228,-15.6086924422301,-15.839560737848483,-16.070429033466368,-16.397373283096051,-16.748337656387726,-17.099302029678729,-17.450266402969028,-17.801230776258659,-18.152195149547609,-18.503159522835869,-18.85412389612344,-19.205088269410318,-19.556052642696525,-19.907017015982049,-20.257981389266885,-20.608945762551002,-20.959910135834459,-21.31087450911722,-21.661838882399326,-22.012803255680726,-22.363767628961455,-22.714732002241472,-23.065696375520826,-23.528983728776971,-24.00475259280449,-24.480521456831273,-24.956290320857317,-25.432059184882583,-25.907828048907103,-26.383596912930862,-26.859365776953876,-27.335134640976154,-27.810903504997682,-28.286672369018447,-28.762441233038484,-29.23821009705776,-29.71397896107629,-30.189747825094063,-30.66551668911109,-31.141285553127361,-31.617054417142871,-32.092823281157678,-32.568592145171664,0,0.036123764221117433,0.068414863763461536,0.10591182872592751,0.1568270978475291,0.22211479838430503,0.30210891004644019,0.39700311395566756,0.50695468364179541,0.63191307679313358,0.72076832955818959,0.928113481392059
DP 309,72.304465008971007,0.00225615151521695,-15.134358238776914,-14.930487260375362,-14.726616281973651,-14.5227453035718,-14.318874325169794,-14.115003346767654,-13.91113236836534,-13.707261389962888,-13.503390411560288,-13.299519433157529,-13.095648454754619,-12.891777476351562,-12.687906497948356,-12.484035519545005,-12.280164541141493,-12.076293562737833,-11.872422584334037,-11.66855160593007,-11.464680627525974,-11.260809649121715,-11.058412755727687,-10.869282766763758,-10.680152777799659,-10.491022788835393,-10.301892799870961,-10.112762810906347,-9.923632821941565,-9.73450283297661,-9.5453728440114887,-9.3562428550461938,-9.1671128660807337,-8.9779828771150854,-8.7888528881492789,-8.5997228991833037,-8.4105929102171544,-8.22146292125083,-8.0323329322843371,-7.8432029433176771,-7.6540729543508395,-7.4649429653838419,-7.2818825347786378,-7.1231006244769235,-6.9643187141749712,-6.80553680387278,-6.6467548935703658,-6.4879729832677073,-6.3291910729648215,-6.1704091626616995,-6.0116272523583483,-5.85284534205476,-5.694063431750938,-5.5352815214468878,-5.376499611142596,-5.2177177008380777,-5.058935790533325,-4.9001538802283333,-4.7413719699231134,-4.5825900596176572,-4.4238081493119736,-4.26502623900605,-4.1196257637509222,-4.0054490585630242,-3.8912723533748812,-3.7770956481864988,-3.6629189429978708,-3.5487422378090083,-3.4345655326198985,-3.3203888274305466,-3.2062121222409568,-3.0920354170511231,-2.9778587118610487,-2.8636820066707327,-2.749505301480172,-2.6353285962893733,-2.5211518910983308,-2.4069751859070485,-2.2927984807155224,-2.1786217755237547,-2.0644450703317481,-1.9502683651394979,-1.8591742357437455,-1.8027045154987418,-1.7462347952534514,-1.6897650750078712,-1.6332953547620033,-1.576825634515846,-1.5203559142694008,-1.4638861940226664,-1.4074164737756454,-1.3509467535283322,-1.2944770332807323,-1.2380073130328448,-1.1815375927846679,-1.1250678725362031,-1.0685981522874493,-1.0121284320384079,-0.95565871178907724,-0.89918899153945619,-0.842719271289549,-0.786249551039354,-0.79040138152509432,-0.80335618901108319,-0.81631099649675587,-0.82926580398211458,-0.8422206114671571,-0.85517541895188454,-0.86813022643629345,-0.88108503392039306,-0.89403984140417314,-0.90699464888763881,-0.91994945637078918,-0.93290426385362235,-0.945859071336143,-0.95881387881834712,-0.97176868630023461,-0.98472349378180757,-0.99767830126306511,-1.0106331087440066,-1.0712191222869667,-1.1635600235728392,-1.2559009248583386,-1.348241826143471,-1.4405827274282295,-1.5329236287126198,-1.6252645299966346,-1.7176054312802795,-1.809946332563557,-1.9022872338464623,-1.9946281351289912,-2.0869690364111522,-2.1793099376929446,-2.2716508389743604,-2.3639917402554094,-2.4563326415360853,-2.5486735428163922,-2.6410144440963266,-2.7333553453758861,-2.8256962466550783,-2.9792563024018004,-3.1590539652839258,-3.3388516281656844,-3.518649291047069,-3.6984469539280838,-3.8782446168087308,-4.0580422796890065,-4.237839942568919,-4.417637605448455,-4.5974352683276232,-4.7772329312064254,-4.9570305940848556,-5.13682825696291,-5.3166259198406021,-5.4964235827179264,-5.676221245594876,-5.8560189084714551,-6.0358165713476657,-6.21561423422351,-6.39541189709898,-6.649837245940863,-6.9229203980173617,-7.1960035500934172,-7.4690867021690153,-7.742169854244171,-8.0152530063188774,-8.2883361583931414,-8.5614193104669454,-8.8345024625403035,-9.1075856146132228,-9.3806687666856838,-9.6537519187577061,-9.9268350708292683,-10.19991822290039,-10.473001374971062,-10.746084527041292,-11.019167679111064,-11.292250831180388,-11.565333983249264,-11.838417135317696,-12.198716711471928,-12.568707917396878,-12.938699123321337,-13.308690329245309,-13.678681535168835,-14.048672741091867,-14.418663947014426,-14.788655152936503,-15.158646358858123,-15.528637564779258,-15.898628770699917,-16.2686199766201,-16.638611182539808,-17.008602388459053,-17.378593594377804,-17.748584800296104,-18.118576006213907,-18.488567212131247,-18.858558418048123,-19.228549623964472,0,0.015864087718806395,0.0338293734433771,0.058786705851441565,0.094825877845189366,0.14228424513237867,0.20121608404492794,0.27159939987086146,0.35334681413660951,0.44624285742522352,0.51446461141213717,0.67381256063908113
DP 310,62.617616673397713,0.0051353876736599151,-30.439999599461657,-30.079525274559114,-29.719050949656417,-29.358576624753603,-28.998102299850608,-28.63762797494751,-28.277153650044241,-27.916679325140851,-27.556205000237288,-27.1957306753336,-26.835256350429752,-26.47478202552578,-26.114307700621673,-25.753833375717409,-25.393359050813004,-25.032884725908456,-24.672410401003738,-24.311936076098931,-23.951461751193953,-23.590987426288816,-23.233118267332394,-22.898695848167073,-22.564273429001524,-22.229851009835823,-21.895428590669894,-21.561006171503784,-21.226583752337469,-20.892161333170968,-20.55773891400429,-20.223316494837412,-19.888894075670333,-19.554471656503061,-19.220049237335587,-18.885626818167935,-18.551204399000081,-18.216781979832042,-17.8823595606638,-17.547937141495375,-17.213514722326732,-16.879092303157929,-16.555390550167864,-16.274571968566924,-15.993753386965647,-15.712934805363995,-15.432116223762037,-15.151297642159703,-14.87047906055705,-14.589660478954034,-14.308841897350675,-14.028023315746978,-13.74720473414293,-13.466386152538519,-13.1855675709338,-12.904748989328723,-12.623930407723286,-12.343111826117505,-12.062293244511389,-11.781474662904927,-11.500656081298128,-11.21983749969098,-10.962659969638535,-10.760645638083732,-10.558631306528575,-10.356616974973074,-10.154602643417196,-9.95258831186096,-9.7505739803043667,-9.54855964874741,-9.3465453171900883,-9.14453098563241,-8.9425166540743675,-8.74050232251597,-8.5384879909572113,-8.3364736593980862,-8.1344593278386057,-7.9324449962787593,-7.7304306647185541,-7.5284163331579856,-7.32640200159706,-7.1243876700357731,-6.9631482033145087,-6.8630719973893175,-6.7629957914636529,-6.6629195855375123,-6.5628433796109018,-6.4627671736838161,-6.3626909677562535,-6.2626147618282149,-6.1625385558997143,-6.0624623499707289,-5.9623861440412771,-5.8623099381113528,-5.7622337321809471,-5.6621575262500743,-5.5620813203187209,-5.4620051143868986,-5.3619289084546047,-5.2618527025218294,-5.1617764965885886,-5.06170029065487,-5.068111069375667,-5.0906908539223421,-5.1132706384684754,-5.1358504230140793,-5.15843020755914,-5.18100999210367,-5.2035897766476555,-5.2261695611911163,-5.2487493457340326,-5.2713291302764134,-5.29390891481826,-5.316488699359569,-5.3390684839003475,-5.3616482684405824,-5.3842280529802853,-5.4068078375194473,-5.4293876220580746,-5.4519674065961672,-5.5587019576258152,-5.7215410120663233,-5.8843800665061554,-6.0472191209453419,-6.2100581753838506,-6.3728972298217039,-6.5357362842588813,-6.6985753386953979,-6.8614143931312617,-7.0242534475664522,-7.1870925020009757,-7.3499315564348375,-7.512770610868035,-7.6756096653005663,-7.8384487197324351,-8.0012877741636359,-8.1641268285941813,-8.3269658830240552,-8.4898049374532647,-8.6526439918818063,-8.9236678967671548,-9.2410581983951054,-9.5584485000223971,-9.8758388016490173,-10.193229103274971,-10.510619404900263,-10.828009706524885,-11.145400008148856,-11.462790309772153,-11.780180611394803,-12.097570913016769,-12.414961214638085,-12.732351516258746,-13.049741817878729,-13.367132119498049,-13.684522421116714,-14.001912722734701,-14.319303024352021,-14.636693325968698,-14.954083627584689,-15.40334786436728,-15.885582143061869,-16.367816421755624,-16.850050700448541,-17.332284979140614,-17.814519257831833,-18.296753536522228,-18.778987815211757,-19.261222093900464,-19.743456372588341,-20.225690651275332,-20.707924929961525,-21.190159208646843,-21.672393487331359,-22.154627766015011,-22.636862044697814,-23.119096323379779,-23.601330602060916,-24.083564880741186,-24.565799159420649,-25.202174727646526,-25.855678724678288,-26.509182721709163,-27.1626867187391,-27.816190715768176,-28.469694712796322,-29.123198709823569,-29.776702706849896,-30.430206703875342,-31.083710700899889,-31.73721469792353,-32.390718694946273,-33.0442226919681,-33.697726688989036,-34.35123068600906,-35.004734683028168,-35.658238680046423,-36.311742677063727,-36.96524667408017,-37.618750671095633,0,0.035078613757327792,0.070741345467246447,0.11692034469818456,0.18235919944300372,0.26791362013569286,0.37377345425571856,0.49997149816780884,0.646447955614093,0.81291009783056256,0.93406752356125167,1.2172859109757384
DP 311,157.30961172468852,0.0053525641151471477,-64.8460350951727,-63.596079757401611,-62.346124419628666,-61.096169081853965,-59.84621374407736,-58.596258406299064,-57.346303068518864,-56.096347730736895,-54.846392392953085,-53.59643705516752,-52.346481717380122,-51.096526379590905,-49.846571041799834,-48.59661570400705,-47.346660366212426,-46.096705028415933,-44.846749690617706,-43.596794352817632,-42.346839015015753,-41.096883677212077,-39.85617357490834,-38.698671466018048,-37.541169357125916,-36.38366724823193,-35.226165139336153,-34.068663030438522,-32.911160921539064,-31.75365881263772,-30.596156703734611,-29.438654594829593,-28.281152485922775,-27.123650377014108,-25.966148268103595,-24.808646159191262,-23.651144050277107,-22.493641941361073,-21.336139832443216,-20.178637723523551,-19.021135614602009,-17.863633505678663,-16.7440956337963,-15.776416504326086,-14.808737374853974,-13.841058245379951,-12.873379115904028,-11.905699986426177,-10.938020856946421,-9.97034172746475,-9.0026625979811676,-8.0349834684956782,-7.0673043390082686,-6.099625209518944,-5.1319460800277135,-4.1642669505345706,-3.1965878210395191,-2.2289086915425509,-1.261229562043672,-0.29355043254288754,0.67412869695980593,1.6418078264644171,2.5263641637052614,3.2169647000065376,3.9075652363097717,4.598165772614947,5.2887663089220673,5.97936684523114,6.6699673815421487,7.360567917855116,8.0511684541700319,8.74176899048689,9.43236952680569,10.122970063126443,10.81357059944915,11.504171135773802,12.194771672100391,12.885372208428929,13.575972744759426,14.266573281091874,14.957173817426249,15.647774353762582,16.196097309832123,16.531000533390998,16.865903756951887,17.200806980514788,17.535710204079713,17.870613427646649,18.205516651215593,18.540419874786558,18.875323098359519,19.210226321934517,19.545129545511525,19.88003276909053,20.214935992671553,20.549839216254604,20.884742439839648,21.219645663426714,21.5545488870158,21.889452110606886,22.224355334200006,22.559258557795118,22.504250437312827,22.415265743074041,22.326281048837327,22.237296354602663,22.148311660370091,22.059326966139562,21.970342271911115,21.8813575776847,21.792372883460366,21.7033881892381,21.614403495017886,21.525418800799745,21.436434106583654,21.347449412369627,21.258464718157693,21.169480023947791,21.080495329739961,20.991510635534212,20.614345951694094,20.045056734860168,19.475767518028427,18.906478301198849,18.337189084371463,17.767899867546248,17.198610650723253,16.62932143390243,16.060032217083769,15.490743000267313,14.92145378345306,14.352164566640981,13.782875349831084,13.213586133023393,12.644296916217851,12.075007699414533,11.505718482613366,10.936429265814391,10.367140049017619,9.7978508322230375,8.8613832646267721,7.7675485886351838,6.6737139126457565,5.5798792366585,4.4860445606733768,3.3922098846904509,2.2983752087096763,1.2045405327310164,0.11070585675456658,-0.98312881921976236,-2.0769634951919076,-3.1707981711619055,-4.2646328471297261,-5.3584675230954213,-6.4523021990589182,-7.5461368750202782,-8.6399715509794746,-9.7338062269365,-10.827640902891387,-11.9214755788441,-13.459996908616326,-15.109695155917224,-16.759393403215803,-18.409091650511982,-20.058789897805838,-21.708488145097348,-23.358186392386536,-25.007884639673307,-26.657582886957726,-28.307281134239872,-29.956979381519567,-31.60667762879698,-33.256375876071978,-34.906074123344695,-36.555772370614982,-38.205470617883,-39.855168865148642,-41.504867112411908,-43.15456535967283,-44.804263606931436,-46.971339359739261,-49.195906935767965,-51.420474511794367,-53.645042087818311,-55.869609663839839,-58.094177239858929,-60.318744815875647,-62.543312391889877,-64.767879967901791,-66.992447543911268,-69.217015119918344,-71.441582695923017,-73.666150271925247,-75.890717847925131,-78.1152854239225,-80.339852999917539,-82.564420575910134,-84.788988151900213,-87.0135557278881,-89.238123303873408,0,0.052058521520200608,0.1383092219356391,0.278173854500595,0.48465684951428389,0.75891211764531041,1.101257349783417,1.5114467263545706,1.9886102788892577,2.5309975507218692,2.9336055986583687,3.8693309875757316
DP 312,80.968792150915462,0.00467787551199382,-34.54409666125639,-34.038872490281612,-33.533648319306408,-33.028424148330707,-32.523199977354516,-32.017975806377905,-31.512751635400789,-31.007527464423184,-30.502303293445152,-29.997079122466623,-29.491854951487625,-28.986630780508147,-28.481406609528211,-27.976182438547788,-27.470958267566925,-26.965734096585571,-26.460509925603738,-25.955285754621436,-25.450061583638682,-24.944837412655428,-24.443268352072451,-23.974595630592439,-23.505922909111955,-23.037250187630928,-22.568577466149378,-22.099904744667342,-21.631232023184754,-21.162559301701677,-20.693886580218095,-20.225213858734012,-19.756541137249389,-19.287868415764276,-18.81919569427864,-18.350522972792472,-17.881850251305814,-17.41317752981864,-16.944504808330958,-16.475832086842761,-16.007159365354045,-15.538486643864823,-15.084867805412866,-14.691465210578901,-14.298062615744287,-13.904660020909038,-13.511257426073174,-13.11785483123667,-12.724452236399518,-12.331049641561759,-11.937647046723349,-11.544244451884303,-11.150841857044625,-10.757439262204318,-10.364036667363372,-9.9706340725218,-9.5772314776795948,-9.1838288828367425,-8.7904262879932649,-8.3970236931491566,-8.0036210983044089,-7.6102185034590439,-7.2499987625002253,-6.9672067261184285,-6.6844146897359744,-6.4016226533528684,-6.1188306169691078,-5.8360385805847015,-5.5532465441996388,-5.2704545078139171,-4.9876624714275506,-4.7048704350405286,-4.4220783986528538,-4.1392863622645333,-3.856494325875552,-3.5737022894859205,-3.29091025309564,-3.0081182167047009,-2.7253261803131079,-2.4425341439208657,-2.1597421075279697,-1.8769500711344249,-1.6513944077607519,-1.5116946564489639,-1.37199490513644,-1.2322951538231621,-1.0925954025091433,-0.952895651194378,-0.81319589987887031,-0.67349614856261575,-0.53379639724561967,-0.39409664592787241,-0.25439689460938497,-0.11469714329015289,0.025002608029826554,0.16470235935054794,0.30440211067202044,0.44410186199422907,0.58380161331718661,0.72350136464089365,0.86320111596533977,1.0029008672905311,0.99172789818344886,0.95931843491656255,0.92690897165047625,0.894499508385183,0.862090045120699,0.82968058185700566,0.79727111859412081,0.76486165533202211,0.73245219207073142,0.70004272881024032,0.66763326555054658,0.635223802291655,0.60281433903355663,0.57040487577626231,0.53799541251976657,0.50558594926406875,0.47317648600917162,0.4407670227550774,0.29029399173926884,0.061110055609698878,-0.16807388051895,-0.39725781664669529,-0.62644175277352288,-0.85562568889944157,-1.0848096250244377,-1.3139935611485236,-1.5431774972717,-1.772361433393961,-2.0015453695152976,-2.23072930563573,-2.4599132417552485,-2.6890971778738457,-2.9182811139915383,-3.14746505010831,-3.3766489862241751,-3.605832922339121,-3.8350168584531477,-4.0642007945662657,-4.4450950060176311,-4.8910099554610555,-5.3369249049035794,-5.7828398543451822,-6.2287548037858889,-6.6746697532256771,-7.120584702664555,-7.5664996521025412,-8.0124146015396036,-8.458329550975769,-8.904244500411016,-9.3501594498453642,-9.7960743992787886,-10.241989348711325,-10.687904298142934,-11.133819247573642,-11.579734197003436,-12.025649146432322,-12.471564095860312,-12.917479045287376,-13.548319366673292,-14.225393215984107,-14.902467065293848,-15.579540914602527,-16.256614763910111,-16.933688613216635,-17.6107624625221,-18.287836311826464,-18.964910161129772,-19.641984010432022,-20.319057859733174,-20.996131709033289,-21.67320555833227,-22.350279407630243,-23.027353256927118,-23.704427106222905,-24.381500955517627,-25.058574804811286,-25.735648654103866,-26.412722503395386,-27.305892313538443,-28.223075055528593,-29.140257797517652,-30.057440539505549,-30.974623281492335,-31.891806023477983,-32.8089887654625,-33.726171507445883,-34.6433542494282,-35.560536991409322,-36.477719733389335,-37.394902475368269,-38.312085217345988,-39.229267959322655,-40.146450701298143,-41.063633443272494,-41.980816185245779,-42.89799892721787,-43.815181669188917,-44.732364411158734,0,0.033960811561174475,0.075676483930249588,0.13617352049763587,0.2242852313036903,0.34067286392780782,0.48543254909624345,0.6584772314311117,0.85953522007859473,1.0880126785645232,1.2564839506624355,1.6496250964691672
DP 313,192.57728651622546,0.0033811387535276865,-46.584166819882149,-45.642799845476922,-44.701432871070331,-43.760065896662333,-42.818698922252914,-41.877331947842151,-40.935964973429975,-39.9945979990164,-39.053231024601452,-38.111864050185105,-37.170497075767408,-36.229130101348289,-35.287763126927764,-34.346396152505882,-33.405029178082621,-32.463662203657925,-31.522295229231865,-30.580928254804398,-29.639561280375556,-28.698194305945329,-27.763964727357262,-26.893972386017275,-26.023980044675895,-25.15398770333308,-24.28399536198889,-23.414003020643317,-22.544010679296292,-21.674018337947892,-20.804025996598074,-19.934033655246868,-19.064041313894251,-18.194048972540227,-17.324056631184796,-16.454064289827947,-15.584071948469735,-14.714079607110087,-13.844087265749028,-12.974094924386591,-12.104102583022737,-11.234110241657481,-10.393294618868852,-9.66918724932326,-8.9450798797762214,-8.22097251022775,-7.4968651406778477,-6.7727577711264955,-6.04865040157371,-5.3245430320194886,-4.6004356624638287,-3.8763282929067278,-3.1522209233481862,-2.4281135537882048,-1.7040061842267888,-0.97989881466393169,-0.25579144509963631,0.4683159244660981,1.1924232940332684,1.9165306636018753,2.6406380331719204,3.3647454027433992,4.0254299325208329,4.5381258378175,5.0508217431156366,5.56351764841523,6.0762135537162854,6.5889094590188053,7.1016053643227908,7.6143012696282408,8.12699717493515,8.6396930802435286,9.1523889855533636,9.6650848908646534,10.177780796177418,10.690476701491649,11.203172606807339,11.715868512124496,12.228564417443108,12.741260322763178,13.253956228084741,13.766652133407741,14.171786256060919,14.415575162955475,14.659364069851531,14.903152976749093,15.14694188364815,15.390730790548696,15.634519697450742,15.878308604354274,16.122097511259305,16.365886418165857,16.609675325073887,16.85346423198342,17.097253138894441,17.341042045806969,17.584830952720974,17.828619859636522,18.072408766553515,18.31619767347204,18.559986580392064,18.803775487313569,18.742347064732137,18.669017314827322,18.595687564924006,18.522357815022232,18.449028065121997,18.375698315223268,18.302368565326077,18.229038815430417,18.155709065536264,18.082379315643642,18.009049565752552,17.935719815862985,17.862390065974932,17.789060316088435,17.715730566203447,17.642400816319974,17.569071066438035,17.495741316557613,17.209107004333273,16.780266290207841,16.351425576084019,15.92258486196179,15.493744147841159,15.064903433722121,14.636062719604714,14.207222005488882,13.778381291374671,13.349540577262037,12.920699863151031,12.491859149041611,12.063018434933786,11.634177720827587,11.205337006722974,10.776496292619978,10.347655578518561,9.918814864418751,9.48997415032055,9.06113343622396,8.3631842363561564,7.5498991944976783,6.7366141526407848,5.9233291107854837,5.1100440689317308,4.2967590270795961,3.4834739852290331,2.6701889433800226,1.8569039015326287,1.0436188596867859,0.23033381784254114,-0.58295122400013177,-1.3962362658412089,-2.209521307680733,-3.0228063495186461,-3.8360913913549988,-4.6493764331897589,-5.462661475022939,-6.2759465168545452,-7.0892315586845687,-8.225851610701401,-9.4433092355415269,-10.660766860379946,-11.878224485216665,-13.095682110051687,-14.313139734884999,-15.53059735971663,-16.74805498454651,-17.965512609374713,-19.182970234201253,-20.40042785902601,-21.617885483849122,-22.835343108670486,-24.052800733490198,-25.27025835830819,-26.487715983124456,-27.705173607939049,-28.922631232751932,-30.140088857563093,-31.357546482372566,-32.949251363751372,-34.582543204139512,-36.215835044525953,-37.8491268849106,-39.482418725293527,-41.115710565674682,-42.749002406054146,-44.382294246431769,-46.015586086807787,-47.648877927182014,-49.28216976755445,-50.915461607925238,-52.548753448294249,-54.182045288661513,-55.815337129027,-57.448628969390846,-59.08192080975288,-60.715212650113145,-62.348504490471832,-63.981796330828608,0,0.036071276811465464,0.0981956265617869,0.20017680994806214,0.35088856652748984,0.55118891084691057,0.80133320775140049,1.1011454634685134,1.4499769026742231,1.8465224199469612,2.1409821470505483,2.8249006990716232
DP 314,84.882116360314967,0.0011790392761125287,-9.0564258040204262,-8.9199251858597837,-8.7834245676990133,-8.6469239495381132,-8.51042333137707,-8.3739227132158849,-8.237422095054562,-8.1009214768931148,-7.96442085873152,-7.8279202405697905,-7.6914196224079321,-7.5549190042459262,-7.4184183860837916,-7.2819177679215139,-7.145417149759103,-7.0089165315965554,-6.8724159134338709,-6.735915295271047,-6.599414677108097,-6.462914058945,-6.3274013627664081,-6.2007800578320857,-6.0741587528976115,-5.9475374479629828,-5.8209161430282226,-5.6942948380933078,-5.5676735331582492,-5.4410522282230378,-5.3144309232876861,-5.1878096183521887,-5.0611883134165438,-4.9345670084807463,-4.8079457035448074,-4.6813243986087194,-4.554703093672491,-4.4280817887361046,-4.3014604837995805,-4.1748391788629089,-4.0482178739260872,-3.92159656898912,-3.7990440680924964,-3.6927669756550174,-3.5864898832173626,-3.4802127907795293,-3.3739356983415241,-3.2676586059033381,-3.1613815134649781,-3.0551044210264431,-2.9488273285877256,-2.8425502361488357,-2.7362731437097705,-2.6299960512705272,-2.5237189588311106,-2.4174418663915138,-2.311164773951742,-2.2048876815117935,-2.09861058907167,-1.9923334966313682,-1.8860564041908934,-1.77977931175024,-1.6824698506872349,-1.6060851453862797,-1.5297004400851404,-1.4533157347838206,-1.3769310294823207,-1.3005463241806394,-1.2241616188787756,-1.1477769135767313,-1.0713922082745053,-0.9950075029720975,-0.91862279766951,-0.84223809236674041,-0.76585338706378869,-0.68946868176065645,-0.61308397645734281,-0.53669927115384752,-0.46031456585017044,-0.38392986054631234,-0.30754515524227305,-0.23116044993805274,-0.17024367133541549,-0.13252914830215268,-0.094814625268686267,-0.057100102235015063,-0.019385579201139848,0.018328943832939329,0.056043466867222447,0.093757989901709415,0.13147251293640055,0.16918703597129603,0.20690155900639554,0.24461608204169885,0.28233060507720664,0.32004512811291758,0.35775965114883362,0.39547417418495345,0.43318869722127673,0.47090322025780523,0.50861774329453691,0.5463322663314738,0.543217153793103,0.53442811625902464,0.52563907872516269,0.51685004119151778,0.50806100365809082,0.49927196612488145,0.49048292859189119,0.4816938910591147,0.47290485352655853,0.46411581599421875,0.45532677846209729,0.44653774093019349,0.43774870339850491,0.42895966586703521,0.42017062833578367,0.41138159080474856,0.40259255327393134,0.39380351574333183,0.35311659688313779,0.29116392129322005,0.22921124570355067,0.16725857011412512,0.10530589452494642,0.043353218936012183,-0.018599456652672482,-0.080552132241112809,-0.14250480782930741,-0.20445748341725506,-0.26641015900495452,-0.32836283459240978,-0.39031551017961896,-0.4522681857665799,-0.51422086135329637,-0.57617353693976581,-0.63812621252599011,-0.70007888811196706,-0.762031563697697,-0.82398423928318087,-0.9269205964734285,-1.0474219420445359,-1.1679232876154004,-1.2884246331860179,-1.4089259787563935,-1.5294273243265208,-1.6499286698964022,-1.7704300154660451,-1.8909313610354384,-2.01143270660459,-2.1319340521734946,-2.2524353977421563,-2.3729367433105719,-2.4934380888787455,-2.6139394344466687,-2.7344407800143515,-2.8549421255817879,-2.9754434711489783,-3.0959448167159254,-3.21644616228263,-3.3868996574408485,-3.5698417801929225,-3.752783902944711,-3.9357260256962094,-4.11866814844742,-4.301610271198351,-4.4845523939489951,-4.6674945166993487,-4.8504366394494145,-5.0333787621992068,-5.2163208849487006,-5.3992630076979129,-5.5822051304468348,-5.7651472531954759,-5.9480893759438294,-6.1310314986918977,-6.3139736214396773,-6.4969157441871745,-6.6798578669343831,-6.8627999896813048,-7.1041106272249523,-7.3519072683121651,-7.5997039093990715,-7.8475005504856767,-8.0952971915719854,-8.3430938326579955,-8.5908904737437055,-8.8386871148291046,-9.086483755914216,-9.3342803969990218,-9.5820770380835345,-9.8298736791677346,-10.077670320251642,-10.325466961335257,-10.573263602418562,-10.821060243501568,-11.068856884584275,-11.316653525666679,-11.564450166748788,-11.812246807830592,0,0.008694571090669222,0.019720722432537308,0.035951750068508183,0.059650619915179622,0.090982617337833388,0.12997205089459629,0.17659347266456266,0.23076922181026643,0.29233374965258857,0.33778380908772565,0.44380360031348715
DP 315,286.34064999412431,0.0012442184282923691,-22.069657849678883,-21.587580008216204,-21.105502166752874,-20.623424325288859,-20.141346483824197,-19.659268642358871,-19.177190800892859,-18.695112959426162,-18.213035117958849,-17.730957276490834,-17.248879435022161,-16.766801593552831,-16.284723752082808,-15.802645910612135,-15.320568069140791,-14.838490227668776,-14.35641238619608,-13.874334544722759,-13.392256703248728,-12.91017886177405,-12.432131409771854,-11.990357843997181,-11.548584278221835,-11.106810712445821,-10.665037146669128,-10.223263580891777,-9.7814900151137447,-9.3397164493350466,-8.89794288355568,-8.4561693177756361,-8.01439575199493,-7.5726221862135494,-7.13084862043151,-6.6890750546487823,-6.2473014888653964,-5.8055279230813355,-5.3637543572966031,-4.9219807915112046,-4.4802072257251346,-4.0384336599383968,-3.61284955827411,-3.2520240782382741,-2.8911985982017625,-2.5303731181645746,-2.1695476381267151,-1.8087221580881765,-1.447896678048967,-1.0870711980090815,-0.726245717968523,-0.36542023792728956,-0.0045947578853794309,0.35623072215720752,0.71705620220046629,1.0778816822444017,1.438707162289012,1.7995326423342943,2.1603581223802553,2.5211836024268859,2.8820090824741893,3.2428345625221717,3.5694566208630176,3.8162696175566198,4.0630826142509067,4.309895610945885,4.5567086076415464,4.8035216043378854,5.050334601034919,5.297147597732633,5.5439605944310353,5.7907735911301232,6.0375865878298907,6.2843995845303491,6.5312125812314887,6.7780255779333185,7.02483857463582,7.2716515713390164,7.5184645680428979,7.7652775647474668,8.0120905614527214,8.258903558158659,8.44984209434936,8.5569676194179127,8.6640931444871647,8.7712186695571113,8.8783441946277382,8.9854697196990685,9.0925952447710863,9.1997207698437968,9.3068462949171984,9.4139718199912963,9.52109734506609,9.62822287014157,9.7353483952177431,9.8424739202946139,9.94959944537217,10.056724970450427,10.163850495529379,10.270976020608996,10.378101545689347,10.485227070770362,10.412458518842106,10.361925695013756,10.311392871186115,10.260860047359165,10.210327223532925,10.159794399707383,10.109261575882542,10.058728752058402,10.008195928234967,9.957663104412223,9.90713028059019,9.8565974567688652,9.8060646329482228,9.7555318091282928,9.7049989853090626,9.65446616149053,9.603933337672709,9.553400513855582,9.4016503625102654,9.18242039826427,8.9631904340190136,8.74396046977448,8.5247305055306786,8.3055005412875911,8.0862705770452425,7.8670406128036232,7.6478106485627171,7.4285806843225517,7.20935072008312,6.9901207558444067,6.7708907916064165,6.5516608273691652,6.3324308631326351,6.1132008988968369,5.89397093466176,5.6747409704274165,5.4555110061938,5.2362810419609156,4.8949432549534961,4.5012718950638,4.1076005351748153,3.7139291752865562,3.3202578153990014,2.9265864555121794,2.5329150956260724,2.1392437357406684,1.7455723758559982,1.3519010159720308,0.95822965608879229,0.56455829620626363,0.17088693632446014,-0.22278442355663916,-0.61645578343700558,-1.0101271433166659,-1.4037985031956024,-1.7974698630738193,-2.1911412229513272,-2.5848125828281128,-3.1197989035359859,-3.6901156341199735,-4.2604323647032079,-4.8307490952856753,-5.4010658258673763,-5.9713825564483232,-6.5416992870285062,-7.1120160176079184,-7.6823327481865666,-8.252649478764468,-8.8229662093415939,-9.3932829399179649,-9.9635996704935543,-10.533916401068419,-11.10423313164249,-11.6745498622158,-12.244866592788354,-12.81518332336015,-13.385500053931175,-13.955816784501449,-14.685644407153926,-15.433197137510239,-16.1807498678658,-16.928302598220558,-17.675855328574546,-18.423408058927759,-19.170960789280191,-19.918513519631837,-20.666066249982755,-21.41361898033287,-22.16117171068219,-22.90872444103077,-23.656277171378559,-24.403829901725576,-25.151382632071808,-25.898935362417291,-26.646488092761988,-27.394040823105883,-28.141593553449045,-28.889146283791387,0,0.015366513580794647,0.042967845698480986,0.088940264616870671,0.15697305254999,0.24746512382516353,0.36054432326080094,0.49613296910765231,0.65393136618520875,0.83333614029803638,0.96659473537955731,1.2758354703503547
DP 316,52.9051645553406,0.0032863592400469953,-16.886966293929518,-16.722246878623444,-16.557527463317427,-16.392808048011428,-16.228088632705461,-16.063369217399533,-15.89864980209364,-15.733930386787774,-15.569210971481942,-15.404491556176151,-15.239772140870398,-15.075052725564655,-14.910333310258967,-14.745613894953301,-14.580894479647679,-14.416175064342076,-14.251455649036512,-14.08673623373098,-13.922016818425494,-13.757297403120033,-13.593767784600733,-13.440946449621332,-13.288125114641932,-13.135303779662532,-12.982482444683136,-12.829661109703736,-12.676839774724346,-12.524018439744948,-12.37119710476555,-12.218375769786149,-12.065554434806751,-11.912733099827351,-11.759911764847949,-11.607090429868546,-11.454269094889147,-11.301447759909752,-11.148626424930354,-10.995805089950947,-10.842983754971549,-10.690162419992138,-10.542233172802336,-10.413872507977741,-10.285511843153031,-10.157151178328222,-10.028790513503319,-9.9004298486783,-9.772069183853187,-9.64370851902796,-9.515347854202636,-9.3869871893772014,-9.2586265245516746,-9.1302658597260287,-9.0019051949002922,-8.8735445300744491,-8.7451838652485012,-8.6168232004224432,-8.48846253559629,-8.3601018707700323,-8.2317412059436652,-8.1033805411172,-7.9858089600482645,-7.8934122476837025,-7.8010155353190145,-7.708618822954227,-7.6162221105893293,-7.5238253982243144,-7.43142868585919,-7.3390319734939489,-7.2466352611286009,-7.1542385487631357,-7.0618418363975639,-6.9694451240318838,-6.8770484116660864,-6.7846516993001726,-6.6922549869341577,-6.59985827456802,-6.5074615622017751,-6.415064849835419,-6.3226681374689511,-6.2302714251023676,-6.156475543550199,-6.1105813477690782,-6.0646871519877656,-6.0187929562062674,-5.9728987604245862,-5.9270045646427043,-5.8811103688606474,-5.8352161730784,-5.7893219772959643,-5.7434277815133337,-5.6975335857305227,-5.6516393899475235,-5.6057451941643377,-5.5598509983809627,-5.5139568025973951,-5.4680626068136471,-5.4221684110297046,-5.3762742152455729,-5.3303800194612636,-5.28448582367676,-5.2867262984777526,-5.2968014333607414,-5.3068765682435,-5.3169517031260325,-5.327026838008333,-5.33710197289041,-5.3471771077722519,-5.35725224265387,-5.3673273775352559,-5.3774025124164195,-5.3874776472973478,-5.397552782178054,-5.4076279170585222,-5.417703051938771,-5.4277781868187853,-5.4378533216985732,-5.4479284565781345,-5.4580035914574649,-5.50647076898619,-5.5805332464316235,-5.6545957238767457,-5.728658201321549,-5.8027206787660512,-5.87678315621024,-5.95084563365411,-6.0249081110976759,-6.09897058854093,-6.1730330659838746,-6.247095543426501,-6.3211580208688209,-6.3952204983108327,-6.4692829757525336,-6.543345453193921,-6.617407930634994,-6.6914704080757641,-6.7655328855162153,-6.8395953629563557,-6.9136578403961826,-7.0370892815082415,-7.1816795165432126,-7.3262697515778692,-7.4708599866122087,-7.6154502216462481,-7.760040456679965,-7.9046306917133826,-8.0492209267464752,-8.1938111617792586,-8.3384013968117365,-8.4829916318439,-8.6275818668757438,-8.7721721019072767,-8.9167623369385147,-9.0613525719694259,-9.2059428070000227,-9.3505330420303139,-9.4951232770602889,-9.6397135120899584,-9.7843037471193188,-9.9890598769288861,-10.208858191307131,-10.428656505684952,-10.648454820062343,-10.868253134439316,-11.088051448815868,-11.307849763191989,-11.527648077567669,-11.747446391942949,-11.967244706317798,-12.187043020692206,-12.406841335066204,-12.626639649439761,-12.846437963812898,-13.066236278185626,-13.286034592557913,-13.505832906929777,-13.725631221301226,-13.94542953567224,-14.165227850042827,-14.455360848419758,-14.753309550370519,-15.051258252320821,-15.349206954270635,-15.64715565622,-15.945104358168894,-16.24305306011733,-16.541001762065267,-16.838950464012797,-17.136899165959832,-17.4348478679064,-17.732796569852518,-18.03074527179815,-18.328693973743334,-18.626642675688046,-18.924591377632296,-19.2225400795761,-19.52048878151939,-19.818437483462269,-20.116386185404647,0,0.0220380492681785,0.041900946523178259,0.065149275019028285,0.096834456474581526,0.13753942344302117,0.18746227487480369,0.24671355808708362,0.31537900907849858,0.39341694652795967,0.44903413581218449,0.57886101140825352
DP 317,112.17788846541634,0.0013834539893655404,-13.245792099156281,-13.016518137451923,-12.787244175747269,-12.557970214042319,-12.32869625233708,-12.099422290631543,-11.870148328925717,-11.640874367219597,-11.411600405513182,-11.182326443806469,-10.953052482099455,-10.723778520392159,-10.494504558684564,-10.26523059697668,-10.035956635268491,-9.806682673560017,-9.57740871185125,-9.3481347501421865,-9.11886078843283,-8.88958682672317,-8.66197899279616,-8.4493664664048236,-8.2367539400131751,-8.02414141362123,-7.811528887228981,-7.5989163608364265,-7.3863038344435656,-7.1736913080504072,-6.96107878165694,-6.7484662552631747,-6.5358537288690925,-6.3232412024747209,-6.1106286760800339,-5.8980161496850476,-5.685403623289762,-5.4727910968941673,-5.2601785704982635,-5.0475660441020613,-4.8349535177055509,-4.6223409913087421,-4.4165900963757077,-4.2382860515889211,-4.0599820068018024,-3.8816779620143533,-3.7033739172265721,-3.5250698724384573,-3.3467658276500103,-3.1684617828612311,-2.9901577380721225,-2.8118536932826812,-2.6335496484929064,-2.455245603702799,-2.2769415589123603,-2.0986375141215885,-1.9203334693304863,-1.7420294245390506,-1.5637253797472834,-1.3854213349551858,-1.2071172901627558,-1.0288132453699941,-0.86561174486557424,-0.73764999021057576,-0.60968823555523555,-0.48172648089955694,-0.35376472624353905,-0.22580297158718154,-0.097841216930484379,0.030120537726552887,0.15808229238392843,0.2860440470416441,0.41400580169969853,0.54196755635809213,0.66992931101682529,0.797891065675899,0.92585282033531147,1.053814574995064,1.1817763296551547,1.3097380843155868,1.4376998389763584,1.5656615936374674,1.6676070089020476,1.7305273002890735,1.7934475916764592,1.856367883064209,1.9192881744523183,1.9822084658407892,2.0451287572296248,2.1080490486188217,2.17096934000838,2.2338896313983008,2.2968099227885825,2.3597302141792262,2.4226505055702328,2.4855707969616003,2.5484910883533307,2.611411379745423,2.674331671137876,2.737251962530689,2.8001722539238711,2.8630925453174094,2.8566445585953937,2.8414811580167849,2.8263177574385563,2.8111543568606967,2.7959909562832221,2.7808275557061206,2.7656641551293935,2.7505007545530438,2.7353373539770733,2.7201739534014742,2.705010552826256,2.6898471522514158,2.6746837516769482,2.6595203511028584,2.644356950529144,2.6291935499558097,2.6140301493828497,2.5988667488102677,2.5302294460023074,2.4259420326250321,2.3216546192481711,2.2173672058717147,2.1130797924956721,2.00879237912003,1.904504965744807,1.80021755236999,1.6959301389955799,1.5916427256215813,1.4873553122479939,1.3830678988748146,1.278780485502045,1.1744930721296869,1.0702056587577335,0.96591824538619331,0.86163083201505908,0.757343418644337,0.65305600527402585,0.5487685919041233,0.37588551714060259,0.17360337552467014,-0.028678766090859009,-0.23096090770598018,-0.43324304932070051,-0.63552519093500748,-0.83780733254891127,-1.0400894741624169,-1.242371615775508,-1.4446537573882017,-1.6469358990004843,-1.8492180406123646,-2.051500182223835,-2.2537823238349053,-2.4560644654455626,-2.6583466070558228,-2.8606287486656732,-3.0629108902751137,-3.2651930318841558,-3.4674751734927889,-3.753272664651627,-4.0599499799508214,-4.3666272952495628,-4.6733046105478495,-4.9799819258456814,-5.2866592411430577,-5.5933365564399855,-5.9000138717364514,-6.2066911870324661,-6.5133685023280288,-6.8200458176231233,-7.1267231329177845,-7.4334004482119669,-7.740077763505715,-8.046755078799,-8.3534323940918274,-8.660109709384205,-8.9667870246761279,-9.27346433996759,-9.5801416552586076,-9.98432594414267,-10.399345365262855,-10.814364786382564,-11.229384207501788,-11.644403628620564,-12.05942304973885,-12.474442470856687,-12.889461891974017,-13.304481313090907,-13.71950073420733,-14.134520155323257,-14.54953957643875,-14.964558997553738,-15.379578418668277,-15.794597839782327,-16.209617260895932,-16.624636682009051,-17.0396561031217,-17.454675524233892,-17.869694945345568,0,0.011440409514176023,0.028381667513805095,0.054880469500632176,0.093873746935995067,0.14558133559075059,0.2100488659890852,0.28722864232128875,0.37696795032251534,0.47895756557226155,0.5545458300890761,0.73051288127461911
DP 318,202.36470383497942,0.0035797338998428438,-50.870669470632649,-49.831860341173112,-48.793051211712019,-47.754242082249391,-46.715432952785243,-45.676623823319517,-44.637814693852327,-43.599005564383582,-42.560196434913308,-41.521387305441451,-40.482578175968058,-39.443769046493209,-38.404959917016789,-37.366150787538871,-36.327341658059346,-35.28853252857833,-34.249723399095757,-33.210914269611671,-32.172105140126085,-31.133296010638947,-30.102429612651854,-29.143048548958845,-28.183667485264287,-27.224286421568159,-26.264905357870489,-25.305524294171278,-24.346143230470545,-23.386762166768236,-22.427381103064409,-21.468000039359008,-20.508618975652055,-19.54923791194355,-18.589856848233531,-17.630475784521945,-16.671094720808814,-15.711713657094133,-14.7523325933779,-13.792951529660119,-12.833570465940802,-11.874189402219939,-10.947227500418521,-10.149943778474311,-9.352660056528503,-8.5553763345811316,-7.7580926126321721,-6.9608088906816361,-6.1635251687295138,-5.3662414467758142,-4.56895772482054,-3.77167400286368,-2.9743902809052374,-2.1771065589452103,-1.3798228369836079,-0.58253911502042344,0.2147446069443415,1.0120283289106873,1.809312050878612,2.6065957728481153,3.4038794948191962,4.2011632167918611,4.9281481206637245,5.4911002340275976,6.054052347393081,6.6170044607601728,7.1799565741288633,7.74290868749917,8.3058608008710841,8.8688129142446073,9.4317650276197256,9.9947171409964621,10.55766925437479,11.12062136775474,11.683573481136296,12.246525594519454,12.809477707904216,13.37242982129059,13.935381934678592,14.498334048068177,15.061286161459392,15.624238274852187,16.06834433514604,16.334178507383019,16.600012679621621,16.865846851861878,17.131681024103781,17.397515196347324,17.663349368592506,17.929183540839315,18.19501771308779,18.46085188533791,18.726686057589653,18.992520229843024,19.258354402098064,19.524188574354749,19.79002274661304,20.05585691887299,20.321691091134593,20.58752526339784,20.853359435662718,21.119193607929233,21.043888451385371,20.960598894323468,20.877309337263227,20.79401978020466,20.710730223147795,20.627440666092564,20.544151109039028,20.460861551987147,20.377571994936925,20.294282437888388,20.210992880841541,20.127703323796354,20.044413766752829,19.961124209710967,19.8778346526708,19.7945450956323,19.711255538595463,19.62796598156028,19.310719881219462,18.837499066324444,18.364278251431166,17.891057436539629,17.417836621649851,16.944615806761792,16.471394991875528,15.998174176990997,15.524953362108207,15.051732547227155,14.57851173234789,14.105290917470366,13.632070102594577,13.158849287720555,12.685628472848268,12.212407657977757,11.739186843108964,11.265966028241946,10.792745213376678,10.319524398513165,9.5521648535663086,8.65874188108017,7.7653189085957424,6.8718959361130558,5.9784729636320746,5.0850499911528528,4.1916270186753524,3.2982040461995461,2.4047810737255073,1.5113581012531629,0.61793512878256607,-0.2754878436863118,-1.1689108161534489,-2.0623337886188873,-2.9557567610825668,-3.8491797335445388,-4.7426027060047717,-5.63602567846327,-6.5294486509200595,-7.4228716233751113,-8.6687046319569063,-10.002644313375011,-11.336583994791262,-12.670523676205645,-14.00446335761819,-15.338403039028867,-16.672342720437705,-18.006282401844647,-19.340222083249753,-20.674161764653007,-22.008101446054393,-23.342041127453932,-24.675980808851612,-26.009920490247431,-27.343860171641406,-28.677799853033502,-30.011739534423722,-31.345679215812151,-32.679618897198658,-34.013558578583357,-35.75464185895008,-37.540967592974248,-39.327293326996568,-41.113619061016919,-42.899944795035438,-44.686270529052059,-46.472596263066762,-48.258921997079547,-50.045247731090463,-51.831573465099474,-53.617899199106645,-55.404224933111905,-57.190550667115254,-58.9768764011167,-60.763202135116174,-62.549527869113859,-64.335853603109655,-66.122179337103518,-67.9085050710955,-69.6948308050854,0,0.039006521929656139,0.10667697046909526,0.21802624051377767,0.382616797979418,0.60138991252299179,0.87462938631115317,1.2021437793618512,1.583221978231738,2.0164327682827894,2.3381381331301418,3.0852363112476739
DP 319,139.59055896551371,0.00208868551129605,-23.370358024854418,-22.934417658814898,-22.498477292774776,-22.06253692673404,-21.626596560692679,-21.190656194650728,-20.754715828608138,-20.31877546256495,-19.882835096521138,-19.446894730476718,-19.010954364431694,-18.575013998386037,-18.139073632339784,-17.70313326629292,-17.267192900245419,-16.831252534197308,-16.395312168148603,-15.95937180209928,-15.523431436049339,-15.087491069998777,-14.6547470581842,-14.250770536631402,-13.846794015077963,-13.442817493523913,-13.038840971969218,-12.634864450413916,-12.230887928857987,-11.826911407301424,-11.422934885744242,-11.01895836418643,-10.614981842628003,-10.211005321068928,-9.80702879950924,-9.4030522779489267,-8.9990757563879953,-8.59509923482643,-8.19112271326424,-7.7871461917014226,-7.3831696701379794,-6.9791931485739136,-6.5883610834054371,-6.2501074650464759,-5.91185384668685,-5.5736002283265664,-5.2353466099656263,-4.8970929916040289,-4.5588393732417636,-4.2205857548788481,-3.8823321365152692,-3.5440785181510321,-3.2058248997861338,-2.867571281420576,-2.529317663054361,-2.1910640446874852,-1.8528104263199503,-1.5145568079517528,-1.1763031895829,-0.83804957121338808,-0.49979595284321859,-0.16154233447238758,0.14785550455151938,0.38992228259268097,0.63198906063451832,0.87405583867702541,1.116122616720205,1.3581893947640569,1.6002561728085813,1.8423229508537786,2.084389728899648,2.3264565069461889,2.5685232849934017,2.8105900630412846,3.0526568410898443,3.2947236191390767,3.5367903971889794,3.7788571752395539,4.0209239532908,4.2629907313427209,4.5050575093953142,4.7471242874485755,4.9396415703165211,5.0578334395201479,5.1760253087244736,5.2942171779295011,5.41240904713523,5.5306009163416583,5.6487927855487934,5.7669846547566221,5.8851765239651561,6.0033683931743891,6.1215602623843273,6.2397521315949591,6.3579440008063006,6.4761358700183331,6.5943277392310744,6.7125196084445111,6.8307114776586566,6.9489033468734958,7.0670952160890446,7.1852870853052808,7.16944387535624,7.1394679374337775,7.1094919995120227,7.0795160615909891,7.0495401236706829,7.0195641857511006,6.9895882478322351,6.9596123099140872,6.9296363719966667,6.8996604340799657,6.8696844961639876,6.8397085582487263,6.8097326203341915,6.779756682420377,6.74978074450729,6.7198048065949134,6.6898288686832688,6.6598529307723373,6.5287738411327148,6.3302910575908165,6.1318082740496873,5.9333254905093149,5.734842706969725,5.5363599234308962,5.3378771398928428,5.1393943563555577,4.9409115728190418,4.7424287892832968,4.5439460057483281,4.3454632222141187,4.1469804386806866,3.9484976551480258,3.7500148716161288,3.5515320880850028,3.3530493045546472,3.1545665210250662,2.9560837374962543,2.7576009539682111,2.4298625906973963,2.046727233612351,1.6635918765280666,1.2804565194445459,0.89732116236177739,0.51418580527978441,0.13105044819854852,-0.2520849088819398,-0.6352202659616516,-1.0183556230406134,-1.4014909801188076,-1.7846263371962447,-2.167761694272913,-2.550897051348834,-2.9340324084239784,-3.3171677654983709,-3.7003031225719987,-4.0834384796448617,-4.4665738367169734,-4.8497091937883177,-5.3898052337214324,-5.9691432988960909,-6.5484813640699313,-7.1278194292429253,-7.7071574944150836,-8.2864955595864078,-8.8658336247569025,-9.4451716899265463,-10.024509755095366,-10.603847820263356,-11.183185885430486,-11.762523950596798,-12.341862015762263,-12.92120008092691,-13.5005381460907,-14.079876211253671,-14.659214276415797,-15.23855234157708,-15.817890406737545,-16.397228471897161,-17.15950641550025,-17.942112933575025,-18.724719451648959,-19.507325969721997,-20.289932487794186,-21.07253900586554,-21.855145523936006,-22.637752042005612,-23.420358560074376,-24.202965078142277,-24.985571596209326,-25.768178114275511,-26.550784632340818,-27.333391150405298,-28.115997668468896,-28.898604186531664,-29.681210704593546,-30.463817222654534,-31.246423740714732,-32.029030258774014,0,0.019177320026080483,0.04996112759245333,0.099390598603639219,0.1723028196065905,0.26910208659455537,0.38989204131014848,0.53458477091713352,0.70287861487197822,0.89416633175678628,1.0361058877190101,1.3661582234335263
DP 320,248.16472845110601,0.003342305422865695,-53.998342802704109,-52.850148169318878,-51.70195353593202,-50.5537589025435,-49.405564269153309,-48.257369635761513,-47.109175002368033,-45.960980368972848,-44.812785735576043,-43.664591102177617,-42.516396468777515,-41.368201835375771,-40.220007201972336,-39.071812568567246,-37.923617935160536,-36.775423301752163,-35.627228668342134,-34.479034034930443,-33.330839401517139,-32.182644768102143,-31.043641961955384,-29.987366470087188,-28.931090978217309,-27.874815486345824,-26.818539994472644,-25.762264502597773,-24.705989010721265,-23.649713518843093,-22.593438026963256,-21.537162535081745,-20.480887043198575,-19.424611551313767,-18.368336059427257,-17.31206056753911,-16.255785075649278,-15.19950958375779,-14.143234091864647,-13.086958599969837,-12.030683108073349,-10.9744076161752,-9.9553417733938776,-9.08511628566454,-8.21489079793352,-7.3446653102008179,-6.4744398224664428,-5.6042143347303819,-4.7339888469926343,-3.8637633592531992,-2.9935378715120913,-2.123312383769294,-1.2530868960248123,-0.3828614082786414,0.48736407946920662,1.3575895672187397,2.2278150549699554,3.0980405427228579,3.9682660304774364,4.8384915182337,5.7087170059916366,6.5789424937512706,7.3695566005271758,7.9744083099862024,8.5792600194469557,9.1841117289094143,9.7889634383735764,10.393815147839453,10.998666857307049,11.603518566776348,12.208370276247363,12.813221985720086,13.4180736951945,14.022925404670646,14.627777114148483,15.232628823628049,15.837480533109314,16.442332242592308,17.047183952076992,17.6520356615634,18.256887371051508,18.86173908054133,19.334333017599842,19.608537170675461,19.882741323752839,20.15694547683194,20.43114962991276,20.705353782995331,20.97955793607963,21.253762089165665,21.527966242253445,21.802170395342934,22.076374548434202,22.350578701527148,22.624782854621856,22.898987007718311,23.17319116081649,23.447395313916395,23.721599467018059,23.99580362012145,24.270007773226563,24.544211926333418,24.415048784789843,24.30854197784668,24.202035170905329,24.095528363965705,23.989021557027854,23.882514750091765,23.776007943157438,23.669501136224852,23.562994329294021,23.456487522364966,23.349980715437678,23.243473908512144,23.136967101588372,23.030460294666351,22.923953487746097,22.817446680827583,22.710939873910867,22.604433066995888,22.248180244806967,21.725426144675467,21.202672044545849,20.679917944418012,20.157163844292032,19.634409744167854,19.11165564404557,18.588901543925065,18.066147443806408,17.54339334368958,17.020639243574607,16.497885143461449,15.975131043350116,15.452376943240649,14.92962284313298,14.406868743027157,13.884114642923164,13.361360542821,12.838606442720677,12.315852342622199,11.485395777965609,10.523062573556443,9.5607293691490778,8.5983961647435319,7.6360629603397641,6.6737297559378428,5.7113965515377254,4.7490633471393737,3.7867301427428703,2.8243969383481415,1.86206373395524,0.89973052956413568,-0.062602674825146115,-1.0249358792126539,-1.987269083598318,-2.9496022879821995,-3.9119354923642611,-4.8742686967445108,-5.8366019011229735,-6.7989351054996163,-8.1238126122409735,-9.5393304781167725,-10.954848343990653,-12.3703662098626,-13.785884075732623,-15.201401941600711,-16.616919807466893,-18.032437673331117,-19.4479555391934,-20.863473405053824,-22.278991270912229,-23.694509136768779,-25.110027002623333,-26.525544868476025,-27.941062734326749,-29.356580600175583,-30.772098466022449,-32.187616331867424,-33.603134197710418,-35.018652063551521,-36.848393581427331,-38.724164299879639,-40.599935018330022,-42.475705736778394,-44.351476455224855,-46.227247173669276,-48.1030178921118,-49.978788610552286,-51.854559328990874,-53.730330047427543,-55.60610076586218,-57.481871484294921,-59.357642202725557,-61.233412921154383,-63.109183639581126,-64.984954358005979,-66.8607250764289,-68.736495794849787,-70.612266513268779,-72.488037231685666,0,0.039407672584418019,0.10938407517371561,0.22544462767669179,0.3971250126048832,0.62542295208720267,0.91065204036250857,1.2526150834559917,1.6505607412156267,2.1029764467704042,2.4390004904348968,3.2189830974047031
DP 321,101.3225425267202,0.004912548609436778,-43.518364217438567,-42.797324103481444,-42.076283989523446,-41.355243875564582,-40.634203761604866,-39.913163647644247,-39.1921235336828,-38.471083419720472,-37.750043305757323,-37.02900319179323,-36.307963077828347,-35.586922963862563,-34.865882849895932,-34.144842735928393,-33.423802621960036,-32.7027625079908,-31.981722394020682,-31.260682280049728,-30.539642166077879,-29.8186020521052,-29.102791132264528,-28.434043453905012,-27.765295775544587,-27.096548097183277,-26.427800418821061,-25.759052740457893,-25.090305062093854,-24.421557383728921,-23.7528097053631,-23.08406202699636,-22.415314348628694,-21.746566670260151,-21.077818991890688,-20.409071313520361,-19.740323635149085,-19.071575956776936,-18.402828278403881,-17.734080600029916,-17.065332921655042,-16.396585243279279,-15.74937492841992,-15.1883150855146,-14.627255242608273,-14.066195399700941,-13.505135556792599,-12.944075713883244,-12.383015870972866,-11.821956028061486,-11.260896185149107,-10.699836342235704,-10.138776499321288,-9.5777166564058618,-9.0166568134894245,-8.4555969705719765,-7.8945371276535194,-7.33347728473405,-6.7724174418135661,-6.2113575988920786,-5.6502977559695848,-5.0892379130460679,-4.5756147591870819,-4.1726787077563685,-3.7697426563246035,-3.3668066048918144,-2.9638705534579861,-2.5609345020231236,-2.1579984505872245,-1.7550623991502881,-1.35212634771232,-0.94919029627331353,-0.54625424483327534,-0.14331819339220139,0.25961785804991311,0.66255390949305759,1.0654899609372421,1.46842601238246,1.8713620638287125,2.2742981152760038,2.677234166724328,3.0801702181736874,3.4013324142819528,3.599831895010015,3.7983313757391932,3.9968308564694968,4.1953303372009234,4.39382981793347,4.5923292986671331,4.7908287794019264,4.9893282601378353,5.1878277408748632,5.3863272216130147,5.5848267023522826,5.7833261830926732,5.9818256638341873,6.1803251445768188,6.37882462532058,6.5773241060654541,6.7758235868114491,6.9743230675585721,7.17282254830681,7.1542095924406839,7.1070640495719193,7.0599185067043306,7.0127729638379126,6.9656274209726794,6.9184818781086159,6.8713363352457284,6.8241907923840142,6.777045249523475,6.7298997066641073,6.6827541638059191,6.6356086209489025,6.58846307809306,6.5413175352383988,6.4941719923849082,6.4470264495325891,6.3998809066814486,6.3527353638314841,6.13722255285415,5.8094622440493158,5.4817019352457779,5.153941626443526,4.8261813176425683,4.4984210088429,4.1706607000445324,3.8429003912474506,3.515140082451659,3.1873797736571623,2.8596194648639734,2.5318591560720569,2.2040988472814407,1.8763385384921274,1.548578229704092,1.2208179209173573,0.89305761213190593,0.56529730334775752,0.23753699456490229,-0.090223314216659217,-0.63413391750215264,-1.2706832799917487,-1.9072326424800685,-2.5437820049670985,-3.1803313674528635,-3.8168807299373211,-4.4534300924205041,-5.0899794549024291,-5.7265288173830484,-6.3630781798624012,-6.9996275423404635,-7.63617690481725,-8.2727262672927431,-8.9092756297669879,-9.5458249922399112,-10.18237435471157,-10.81892371718194,-11.455473079651032,-12.092022442118848,-12.72857180458538,-13.628442123081278,-14.594145791781365,-15.55984946048,-16.525553129177183,-17.491256797872886,-18.456960466567168,-19.422664135259989,-20.388367803951329,-21.354071472641241,-22.319775141329707,-23.285478810016688,-24.25118247870223,-25.216886147386266,-26.182589816068926,-27.148293484750074,-28.113997153429782,-29.079700822108077,-30.045404490784886,-31.01110815946021,-31.976811828134114,-33.250076087029264,-34.557516974968046,-35.864957862905349,-37.172398750841118,-38.479839638775395,-39.787280526708152,-41.094721414639359,-42.402162302569081,-43.709603190497333,-45.017044078424,-46.324484966349182,-47.631925854272886,-48.939366742195062,-50.246807630115732,-51.554248518034839,-52.86168940595249,-54.169130293868626,-55.476571181783221,-56.784012069696345,-58.091452957607871,0,0.0388175940644117,0.0935212526471924,0.17759554517913378,0.30107707300951791,0.46469110583360657,0.66856878200759373,0.91256071353427071,1.1962035614619355,1.5185512454227503,1.7572229712269356,2.3132119841476908
DP 322,128.11399656411035,0.00290549104564914,-30.634427427540849,-30.078052184727664,-29.521676941913707,-28.965301699098944,-28.408926456283467,-27.852551213467216,-27.296175970650214,-26.739800727832449,-26.18342548501392,-25.627050242194631,-25.070674999374578,-24.514299756553743,-23.9579245137322,-23.401549270909861,-22.845174028086774,-22.288798785262923,-21.732423542438312,-21.176048299612948,-20.619673056786798,-20.06329781395992,-19.510983966822849,-18.995223064800975,-18.479462162778319,-17.963701260754867,-17.447940358730648,-16.932179456705665,-16.41641855467989,-15.900657652653329,-15.384896750625998,-14.86913584859788,-14.353374946569,-13.837614044539331,-13.321853142508875,-12.806092240477653,-12.290331338445656,-11.774570436412864,-11.258809534379306,-10.743048632344959,-10.227287730309838,-9.7115268282739482,-9.2124805192191666,-8.7802933720461471,-8.3481062248722839,-7.915919077697585,-7.4837319305220653,-7.0515447833457179,-6.6193576361685293,-6.1871704889905246,-5.7549833418116823,-5.32279619463201,-4.8906090474515045,-4.4584219002701717,-4.02623475308801,-3.5940476059050117,-3.1618604587211872,-2.7296733115365308,-2.2974861643510454,-1.8652990171647315,-1.43311186997759,-1.0009247227896132,-0.60547873536145314,-0.29576327832800581,0.013952178706293335,0.32366763574143781,0.63338309277742844,0.94309854981426833,1.2528140068519538,1.5625294638904896,1.8722449209298722,2.1819603779701024,2.4916758350111747,2.8013912920530992,3.1111067490958746,3.4208222061394893,3.7305376631839571,4.0402531202292691,4.3499685772754333,4.6596840343224377,4.9693994913702992,5.2791149484189965,5.5256409387155134,5.6773812356761413,5.8291215326376671,5.98086182960007,6.1326021265633743,6.2843424235275736,6.4360827204926521,6.5878230174586205,6.7395633144254825,6.8913036113932344,7.0430439083618834,7.1947842053314224,7.3465245023018371,7.4982647992731462,7.6500050962453559,7.8017453932184475,7.95348569019243,8.1052259871673087,8.2569662841430649,8.4087065811197288,8.3906732144150915,8.3531114504772219,8.315549686540276,8.2779879226042361,8.240426158669127,8.2028643947349345,8.1653026308016674,8.1277408668693027,8.09017910293787,8.0526173390073552,8.0150555750777617,7.977493811149091,7.9399320472213279,7.9023702832944949,7.8648085193685766,7.8272467554435812,7.7896849915195041,7.7521232275963419,7.5851581748532855,7.3319222243149609,7.0786862737776275,6.8254503232412684,6.5722143727059,6.3189784221715168,6.0657424716381358,5.8125065211057336,5.5592705705743093,5.3060346200438815,5.0527986695144556,4.7995627189859995,4.5463267684585418,4.29309081793207,4.0398548674065768,3.7866189168820825,3.5333829663585647,3.2801470158360444,3.026911065314513,2.7736751147939689,2.3547246653809695,1.8647514787805894,1.3747782921811837,0.88480510558276038,0.39483191898530118,-0.095141267611160985,-0.58511445420665176,-1.0750876408011827,-1.5650608273947173,-2.0550340139872896,-2.5450072005788744,-3.0349803871694876,-3.524953573759118,-4.0149267603477838,-4.504899946935458,-4.9948731335221623,-5.4848463201078888,-5.9748195066926311,-6.4647926932764062,-6.9547658798592051,-7.6462339051708685,-8.3880780208720136,-9.1299221365720946,-9.8717662522710814,-10.613610367968992,-11.355454483665827,-12.097298599361586,-12.839142715056242,-13.58098683074984,-14.322830946442355,-15.064675062133764,-15.806519177824118,-16.548363293513361,-17.290207409201567,-18.032051524888661,-18.77389564057469,-19.515739756259624,-20.257583871943485,-20.999427987626252,-21.741272103307956,-22.718164345873166,-23.721175515554958,-24.724186685235658,-25.727197854915193,-26.730209024593659,-27.733220194271,-28.736231363947219,-29.739242533622285,-30.742253703296306,-31.74526487296918,-32.74827604264096,-33.751287212311624,-34.754298381981158,-35.75730955164957,-36.760320721316873,-37.763331890983082,-38.766343060648182,-39.769354230312125,-40.772365399974994,-41.775376569636734,0,0.025589428926069985,0.065540491429393846,0.1291288391240657,0.22285448812723158,0.34723678002296082,0.50240004452390163,0.68823034118702242,0.90434658238556942,1.1499805304658519,1.3321800998215931,1.7560216015372709
DP 323,214.47516728498522,0.0010397993566154567,-15.322106567355624,-15.005476257339101,-14.688845947322113,-14.372215637304658,-14.055585327286755,-13.738955017268367,-13.4223247072495,-13.105694397230186,-12.789064087210399,-12.472433777190156,-12.155803467169429,-11.839173157148245,-11.522542847126598,-11.205912537104494,-10.889282227081898,-10.572651917058863,-10.256021607035345,-9.93939129701136,-9.6227609869869184,-9.306130676962006,-8.9919485153114564,-8.6997999204434322,-8.4076513255749443,-8.1155027307059839,-7.8233541358365555,-7.5312055409666563,-7.2390569460962917,-6.946908351225443,-6.6547597563541325,-6.3626111614823575,-6.0704625666101082,-5.7783139717373935,-5.4861653768642027,-5.1940167819905492,-4.9018681871164187,-4.6097195922418246,-4.3175709973667606,-4.0254224024912189,-3.733273807615213,-3.4411252127387408,-3.1589491082705083,-2.9166634367504254,-2.6743777652298633,-2.4320920937088215,-2.1898064221873059,-1.9475207506653092,-1.7052350791428352,-1.4629494076198821,-1.2206637360964536,-0.97837806457254473,-0.73609239304815677,-0.49380672152328992,-0.25152104999794617,-0.0092353784721239431,0.2330502930541766,0.47533596458095567,0.71762163610821283,0.95990730763594512,1.2021929791641575,1.4444786506928482,1.6652102051809621,1.835648140791563,2.0060860764026551,2.1765240120142315,2.3469619476262915,2.5173998832388418,2.6878378188518757,2.8582757544653949,3.0287136900794036,3.1991516256938959,3.3695895613088722,3.5400274969243362,3.7104654325402908,3.8809033681567273,4.051341303773655,4.2217792393910605,4.3922171750089616,4.5626551106273441,4.7330930462462124,4.90353098186556,5.03768372049914,5.1174078062115793,5.1971318919245091,5.2768559776379389,5.356580063351867,5.4363041490662889,5.5160282347812,5.5957523204966124,5.6754764062125194,5.7552004919289246,5.8349245776458138,5.9146486633632085,5.9943727490810934,6.0740968347994775,6.1538209205183581,6.2335450062377333,6.3132690919576,6.3929931776779672,6.4727172633988284,6.5524413491201852,6.5264277072713286,6.5000772328618641,6.4737267584529,6.4473762840444451,6.4210258096364869,6.3946753352290431,6.3683248608221028,6.3419743864156546,6.3156239120097206,6.2892734376042849,6.262922963199359,6.2365724887949314,6.2102220143910074,6.1838715399875914,6.1575210655846764,6.1311705911822649,6.1048201167803606,6.0784696423789546,5.9813933070576546,5.8371652835949766,5.6929372601328208,5.5487092366711863,5.4044812132100857,5.2602531897495091,5.1160251662894627,4.97179714282994,4.8275691193709456,4.6833410959124766,4.5391130724545361,4.3948850489971232,4.2506570255402343,4.1064290020838765,3.9622009786280414,3.817972955172737,3.6737449317179518,3.5295169082636986,3.3852888848099769,3.2410608613567771,3.008334101320143,2.7376781163105033,2.4670221313013836,2.1963661462927844,1.9257101612847005,1.6550541762771442,1.384398191270104,1.1137422062635771,0.84308622125757915,0.57243023625209277,0.30177425124713086,0.031118266242686429,-0.2395377187612342,-0.510193703764644,-0.7808496887675237,-1.0515056737698905,-1.3221616587717353,-1.5928176437730577,-1.8634736287738662,-2.1341296137741508,-2.5104067573230138,-2.9130904384469973,-3.3157741195704253,-3.7184578006932956,-4.1211414818156076,-4.5238251629373636,-4.926508844058568,-5.3291925251792014,-5.7318762062992814,-6.134559887418817,-6.537243568537777,-6.9399272496561908,-7.34261093077404,-7.7452946118913433,-8.1479782930080749,-8.55066197412426,-8.9533456552398825,-9.3560293363549469,-9.7587130174694519,-10.161396698583408,-10.685794217572511,-11.22371677461528,-11.761639331657481,-12.29956188869909,-12.837484445740154,-13.375407002780635,-13.913329559820546,-14.451252116859905,-14.989174673898688,-15.527097230936896,-16.06501978797456,-16.602942345011641,-17.140864902048147,-17.678787459084095,-18.21671001611946,-18.754632573154279,-19.292555130188532,-19.830477687222189,-20.3684002442553,-20.906322801287804,0,0.0116038765623447,0.031889299315003318,0.065352996136296609,0.11482850188598723,0.18060015918118227,0.26275492946451429,0.36123547545577267,0.47582716770923694,0.60609795337959571,0.702843683874702,0.92748375726054022
DP 324,167.10781660748722,0.002726300113399166,-34.3434164559487,-33.671398880818607,-32.999381305687578,-32.327363730555518,-31.655346155422524,-30.983328580288518,-30.311311005153552,-29.639293430017553,-28.967275854880636,-28.295258279742704,-27.623240704603784,-26.951223129463905,-26.279205554323006,-25.607187979181138,-24.93517040403832,-24.263152828894491,-23.591135253749677,-22.919117678603897,-22.247100103457118,-21.575082528309366,-20.908065388077475,-20.286052634758803,-19.664039881439152,-19.042027128118491,-18.420014374796864,-17.79800162147421,-17.175988868150572,-16.553976114825925,-15.931963361500301,-15.309950608173672,-14.687937854846052,-14.065925101517433,-13.443912348187816,-12.821899594857214,-12.199886841525604,-11.577874088193,-10.955861334859408,-10.333848581524824,-9.7118358281892316,-9.0898230748526458,-8.48832015288462,-7.9688575257169871,-7.4493948985483236,-6.9299322713786271,-6.4104696442079039,-5.8910070170361468,-5.3715443898633621,-4.8520817626895445,-4.3326191355147,-3.8131565083388281,-3.2936938811619174,-2.7742312539839782,-2.2547686268050087,-1.735305999625008,-1.2158433724439792,-0.69638074526191918,-0.17691811807882921,0.34254450910528889,0.86200713629043546,1.3814697634766149,1.8561018182829245,2.2261277917039379,2.596153765126004,2.9661797385491129,3.3362057119732738,3.7062316853984885,4.0762576588247406,4.4462836322520527,4.8163096056804084,5.1863355791098176,5.5563615525402668,5.9263875259717729,6.2964134994043262,6.6664394728379248,7.0364654462725786,7.4064914197082778,7.7765173931450287,8.1465433665828328,8.5165693400216753,8.88659531346157,9.18005780158367,9.35867325248482,9.5372887033870537,9.7159041542903637,9.8945196051947573,10.073135056100222,10.251750507006776,10.430365957914418,10.608981408823139,10.787596859732938,10.966212310643815,11.144827761555771,11.32344321246881,11.502058663382929,11.680674114298132,11.859289565214416,12.037905016131772,12.216520467050223,12.395135917969748,12.573751368890347,12.540743739267496,12.491817167083884,12.442890594901383,12.39396402272,12.345037450539714,12.296110878360535,12.24718430618247,12.198257734005496,12.14933116182964,12.100404589654872,12.051478017481227,12.002551445308677,11.953624873137251,11.904698300966906,11.855771728797675,11.806845156629546,11.757918584462537,11.708992012296626,11.50576153578813,11.19965935885879,10.893557181930628,10.587455005003626,10.281352828077786,9.9752506511531074,9.6691484742296154,9.36304629730729,9.0569441203861185,8.7508419434661189,8.4447397665472987,8.1386375896296332,7.8325354127131375,7.5264332357978248,7.2203310588836551,6.9142288819706712,6.6081267050588393,6.3020245281481886,5.9959223512387,5.68982017433039,5.18756903387493,4.601251403277141,4.0149337726804939,3.4286161420850072,2.8422985114906583,2.2559808808974871,1.669663250305462,1.0833456197145694,0.4970279891248538,-0.089289641463728531,-0.6756072720511439,-1.261924902637414,-1.8482425332225216,-2.4345601638064944,-3.0208777943892922,-3.6071954249709539,-4.19351305555145,-4.7798306861307935,-5.3661483167089923,-5.9524659472860364,-6.7758968285021632,-7.6586088239249879,-8.5413208193465522,-9.4240328147668588,-10.306744810185933,-11.189456805603736,-12.072168801020302,-12.95488079643561,-13.837592791849657,-14.7203047872625,-15.603016782674018,-16.485728778084333,-17.368440773493376,-18.251152768901193,-19.133864764307724,-20.016576759713029,-20.89928875511707,-21.78200075051987,-22.664712745921403,-23.547424741321691,-24.70567839712351,-25.894550686823965,-27.083422976523178,-28.272295266221033,-29.461167555917687,-30.650039845613041,-31.838912135307051,-33.027784424999815,-34.216656714691347,-35.405529004381549,-36.594401294070479,-37.783273583758167,-38.972145873444525,-40.161018163129633,-41.349890452813412,-42.53876274249594,-43.727635032177218,-44.916507321857161,-46.105379611535888,-47.294251901213244,0,0.027282061620797854,0.073088420025877565,0.14767745484022435,0.257832088819894,0.40417123857634307,0.58687009800421541,0.80579830815303355,1.0604882552174038,1.3499994151956094,1.5649294150775044,2.0643522586187326
DP 325,299.21311134255251,0.0023103896739819388,-42.212614245047362,-41.28300570083303,-40.353397156617412,-39.423788612400593,-38.49418006818243,-37.564571523963046,-36.63496297974239,-35.705354435520455,-34.775745891297234,-33.846137347072791,-32.916528802847026,-31.986920258620046,-31.057311714391794,-30.127703170162242,-29.198094625931439,-28.268486081699386,-27.33887753746605,-26.40926899323145,-25.479660448995578,-24.550051904758455,-23.628333378166147,-22.77762575618609,-21.926918134204712,-21.076210512222069,-20.225502890238165,-19.374795268253,-18.524087646266544,-17.673380024278821,-16.822672402289825,-15.971964780299581,-15.121257158308048,-14.270549536315237,-13.419841914321159,-12.569134292325815,-11.7184266703292,-10.867719048331306,-10.017011426332147,-9.1663038043317151,-8.3155961823300046,-7.4648885603270392,-6.6457882789604517,-5.9531188539501594,-5.2604494289385819,-4.5677800039257264,-3.8751105789115989,-3.182441153896193,-2.4897717288795049,-1.7971023038615372,-1.1044328788422972,-0.41176345382177781,0.28090597120002292,0.97357539622310563,1.6662448212474636,2.3589142462730979,3.0515836713000146,3.7442530963282037,4.4369225213576726,5.12959194638842,5.8222613714204412,6.5149307964537462,7.141115889717554,7.6121687807649652,8.0832216718136785,8.55427456286368,9.02532745391497,9.496380344967573,9.9674332360214652,10.43848612707666,10.909539018133149,11.380591909190944,11.851644800250019,12.322697691310404,12.793750582372088,13.264803473435062,13.735856364499341,14.206909255564918,14.677962146631778,15.149015037699952,15.62006792876943,16.091120819840196,16.454203939449123,16.65532985047038,16.85645576149297,17.057581672516882,17.258707583542094,17.459833494568628,17.660959405596451,17.862085316625606,18.063211227656051,18.264337138687818,18.465463049720903,18.666588960755281,18.867714871790987,19.068840782827998,19.269966693866309,19.471092604905937,19.672218515946877,19.873344426989121,20.074470338032693,20.275596249077562,20.122744937092911,20.021378658252093,19.920012379412594,19.818646100574444,19.717279821737609,19.615913542902128,19.514547264067936,19.413180985235073,19.311814706403549,19.210448427573361,19.109082148744484,19.007715869916922,18.906349591090716,18.804983312265826,18.703617033442235,18.60225075462002,18.500884475799083,18.399518196979496,18.105462733051809,17.682944776815585,17.260426820580768,16.837908864347312,16.415390908115228,15.99287295188452,15.57035499565519,15.147837039427221,14.725319083200642,14.302801126975424,13.880283170751605,13.457765214529159,13.035247258308072,12.612729302088374,12.190211345870036,11.767693389653088,11.345175433437497,10.922657477223307,10.500139521010475,10.07762156479904,9.4244464738741858,8.6724152106250472,7.9203839473772639,7.1683526841308458,6.4163214208857564,5.6642901576420561,4.9122588943997041,4.1602276311586834,3.408196367919043,2.6561651046807375,1.9041338414438036,1.1521025782082153,0.40007131497399673,-0.35195994825889232,-1.1039912114903969,-1.8560224747205674,-2.6080537379493687,-3.3600850011768122,-4.1121162644029141,-4.8641475276276527,-5.8813223055087578,-6.9647860947847775,-8.0482498840593628,-9.1317136733325057,-10.215177462604219,-11.29864125187448,-12.382105041143312,-13.465568830410694,-14.549032619676627,-15.632496408941169,-16.715960198204218,-17.799423987465861,-18.882887776726026,-19.966351565984809,-21.049815355242089,-22.133279144497962,-23.216742933752414,-24.300206723005413,-25.38367051225697,-26.46713430150707,-27.848495775341284,-29.262960120553384,-30.677424465764044,-32.0918888109732,-33.506353156180928,-34.920817501387177,-36.335281846591982,-37.749746191795282,-39.164210536997146,-40.578674882197582,-41.9931392273965,-43.40760357259397,-44.822067917790029,-46.236532262984561,-47.650996608177685,-49.0654609533693,-50.479925298559493,-51.89438964374812,-53.308853988935518,-54.723318334121181,0,0.02889762060449743,0.080955604474325024,0.16776046892757615,0.29623495200379363,0.46713412849970859,0.68070118158598325,0.93678966871081393,1.2348327089690545,1.5736886597015864,1.8253882947444886,2.4094429245068758
DP 326,225.79125207570434,0.0014432440265209779,-21.963043107880033,-21.504505171214298,-21.04596723454787,-20.587429297880789,-20.128891361213011,-19.670353424544572,-19.211815487875473,-18.753277551205681,-18.294739614535228,-17.836201677864107,-17.377663741192308,-16.919125804519851,-16.460587867846719,-16.002049931172891,-15.543511994498427,-15.084974057823281,-14.626436121147453,-14.167898184470952,-13.709360247793802,-13.250822311115961,-12.795869460157833,-12.373182719560152,-11.950495978961802,-11.52780923836278,-11.105122497763077,-10.682435757162697,-10.259749016561647,-9.8370622759599229,-9.4143755353575074,-8.9916887947544275,-8.5690020541506637,-8.1463153135462356,-7.7236285729411209,-7.3009418323353383,-6.8782550917288754,-6.4555683511217348,-6.0328816105139209,-5.6101948699054294,-5.1875081292962646,-4.7648213886864257,-4.3567093867719136,-4.0068970284632153,-3.657084670153826,-3.3072723118437506,-2.957459953532994,-2.607647595221545,-2.2578352369094126,-1.9080228785965925,-1.5582105202830858,-1.2083981619688942,-0.85858580365401327,-0.508773445338444,-0.15896108702219081,0.19085127129474996,0.54066362961237779,0.890475987930692,1.2402883462496923,1.5901007045693778,1.9399130628897485,2.2897254212108065,2.6081395674150643,2.85329022940122,3.0984408913880714,3.3435915533756262,3.5887422153638719,3.8338928773528167,4.0790435393424618,4.324194201332805,4.5693448633238463,4.814495525315583,5.0596461873080161,5.30479684930115,5.5499475112949836,5.7950981732895119,6.0402488352847445,6.2853994972806611,6.5305501592772872,6.7757008212746062,7.020851483272633,7.2660021452713464,7.4585177295659486,7.5720794535037452,7.6856411774422471,7.7992029013814719,7.912764625321401,8.0263263492620389,8.139888073203382,8.2534497971454464,8.3670115210882123,8.480573245031696,8.594134968975883,8.7076966929207735,8.8212584168663852,8.9348201408127,9.04838186475973,9.1619435887074658,9.2755053126559144,9.38906703660507,9.50262876055494,9.6161904845055162,9.5740806610209042,9.5345240973788119,9.49496753373743,9.4554109700967732,9.4158544064568357,9.3762978428176229,9.3367412791791224,9.2971847155413538,9.2576281519042976,9.21807158826797,9.1785150246323681,9.138958460997479,9.0994018973633111,9.0598453337298643,9.02028877009714,8.9807322064651434,8.9411756428338567,8.9016190792033036,8.76049116217118,8.5516474094122366,8.34280365665406,8.1339599038966277,7.92511615113994,7.7162723983840156,7.50742864562885,7.2985848928744321,7.0897411401207622,6.88089738736785,6.672053634615696,6.4632098818642838,6.2543661291136381,6.04552237636374,5.8366786236145938,5.6278348708662,5.4189911181185551,5.2101473653716646,5.0013036126255317,4.7924598598801573,4.4571336643654345,4.0675989997568021,3.6780643351489055,3.2885296705417617,2.8989950059353466,2.5094603413296919,2.1199256767247712,1.7303910121205826,1.3408563475171531,0.95132168291445207,0.561787018312503,0.1722523537112923,-0.21728231088916974,-0.6068169754889019,-0.99635164008787569,-1.3858863046861183,-1.775420969283612,-2.1649556338803611,-2.5544902984763755,-2.94402496307164,-3.4839130012502535,-4.0613911592839571,-4.6388693173168685,-5.216347475348984,-5.7938256333803055,-6.371303791410825,-6.9487819494405665,-7.5262601074694881,-8.1037382654976344,-8.6812164235249938,-9.2586945815515325,-9.8361727395773,-10.413650897602244,-10.991129055626425,-11.568607213649788,-12.146085371672358,-12.723563529694131,-13.301041687715122,-13.878519845735303,-14.455998003754708,-15.206281335347651,-15.97576705665448,-16.7452527779605,-17.514738499265704,-18.2842242205701,-19.053709941873688,-19.823195663176463,-20.592681384478407,-21.36216710577958,-22.131652827079915,-22.901138548379457,-23.670624269678207,-24.440109990976111,-25.20959571227321,-25.979081433569498,-26.748567154864997,-27.518052876159668,-28.287538597453523,-29.05702431874662,-29.826510040038837,0,0.016435102400160932,0.045340462516793335,0.09312172027444196,0.16377877810613461,0.25771940751579375,0.37506962316110565,0.51574789585254555,0.67944663311140474,0.8655466855417745,1.0037602568552997,1.3246481957213567
DP 327,95.6324533862738,0.0014498369588582301,-12.271341712207574,-12.073645541310643,-11.875949370413498,-11.678253199516112,-11.480557028618511,-11.28286085772069,-11.085164686822631,-10.887468515924352,-10.689772345025847,-10.492076174127117,-10.294380003228159,-10.096683832328971,-9.8989876614295689,-9.7012914905299343,-9.5035953196300689,-9.3058991487299831,-9.1082029778296665,-8.9105068069291278,-8.7128106360283688,-8.5151144651273771,-8.318850780695545,-8.13547960989277,-7.9521084390897618,-7.7687372682865021,-7.5853660974830222,-7.4019949266792917,-7.2186237558753339,-7.0352525850711212,-6.8518814142666846,-6.6685102434620172,-6.4851390726570992,-6.3017679018519495,-6.11839673104656,-5.9350255602409385,-5.7516543894350711,-5.5682832186289675,-5.3849120478226347,-5.2015408770160576,-5.0181697062092416,-4.8347985354021921,-4.6573277065466545,-4.5034585243562315,-4.3495893421655341,-4.1957201599745675,-4.0418509777833336,-3.8879817955918203,-3.7341126134000437,-3.5802434312079949,-3.4263742490156734,-3.2725050668230842,-3.1186358846302209,-2.9647667024370845,-2.8108975202436772,-2.6570283380500022,-2.5031591558560558,-2.3492899736618362,-2.1954207914673476,-2.0415516092725867,-1.8876824270775563,-1.7338132448822559,-1.5929435752510965,-1.4824065111849505,-1.3718694471185233,-1.2613323830518222,-1.1507953189848421,-1.0402582549175841,-0.92972119085004779,-0.819184126782233,-0.7086470627141408,-0.59810999864577075,-0.4875729345771242,-0.3770358705081987,-0.26649880643899476,-0.15596174236951343,-0.045424678299754412,0.065112385770283165,0.17564944984059847,0.28618651391119193,0.39672357798206276,0.50726064205321075,0.59538313524486719,0.64988324244662632,0.70438334964868865,0.75888345685105463,0.81338356405372747,0.86788367125670318,0.92238377845998165,0.97688388566356488,1.0313839928674522,1.0858841000716433,1.1403842072761403,1.1948843144809387,1.2493844216860426,1.3038845288914489,1.3583846360971605,1.4128847433031755,1.4673848505094949,1.5218849577161189,1.5763850649230466,1.6308851721302768,1.6259934633421655,1.6131366310524553,1.6002797987630668,1.5874229664739954,1.5745661341852475,1.561709301896818,1.5488524696087096,1.5359956373209205,1.5231388050334529,1.5102819727463048,1.4974251404594767,1.4845683081729719,1.4717114758867818,1.4588546436009153,1.4459978113153684,1.4331409790301408,1.4202841467452338,1.4074273144606477,1.3483889937613593,1.2585622865891228,1.1687355794172443,1.0789088722457194,0.98908216507454882,0.899255457903732,0.80942875073327392,0.71960204356317048,0.62977533639341887,0.53994862922402487,0.45012192205498858,0.36029521488630434,0.27046850771797576,0.18064180055000481,0.090815093382385734,0.00098838621512486254,-0.088838320951784816,-0.17866502811833596,-0.268491735284531,-0.3583184424503717,-0.507452785929615,-0.682005488666759,-0.85655819140355216,-1.0311108941399896,-1.20566359687608,-1.3802162996118112,-1.5547690023471921,-1.7293217050822276,-1.9038744078169021,-2.07842711055123,-2.2529798132852021,-2.4275325160188244,-2.6020852187520926,-2.7766379214850105,-2.9511906242175714,-3.1257433269497845,-3.3002960296816424,-3.4748487324131503,-3.6494014351443056,-3.8239541378751079,-4.0707731334629829,-4.3356595561077675,-4.6005459787521543,-4.86543240139613,-5.1303188240397049,-5.3952052466828784,-5.6600916693256531,-5.9249780919680148,-6.189864514609976,-6.4547509372515419,-6.7196373598926913,-6.9845237825334454,-7.2494102051737865,-7.514296627813736,-7.7791830504532786,-8.0440694730924189,-8.3089558957311525,-8.5738423183694827,-8.8387287410074116,-9.1036151636449372,-9.4529232578962858,-9.8116124245142657,-10.170301591131846,-10.528990757748979,-10.887679924365699,-11.246369090982014,-11.605058257597888,-11.96374742421334,-12.32243659082839,-12.681125757443013,-13.039814924057211,-13.39850409067099,-13.757193257284348,-14.115882423897308,-14.474571590509811,-14.833260757121918,-15.19194992373359,-15.550639090344847,-15.90932825695571,-16.2680174235661,0,0.011182602227608827,0.026448567385676851,0.049628917187274246,0.0836244865281994,0.12864303774072985,0.18471917830380272,0.25181256064151636,0.32979977013946421,0.41842667448297582,0.48399877657917245,0.6368133443109979
DP 328,187.459184819262,0.0037492855270742087,-50.792666539759026,-49.772229671850738,-48.751792803940994,-47.731355936029715,-46.710919068116972,-45.69048220020268,-44.670045332286918,-43.649608464369607,-42.629171596450846,-41.608734728530514,-40.588297860608726,-39.567860992685411,-38.547424124760575,-37.526987256834289,-36.506550388906426,-35.486113520977078,-34.465676653046266,-33.445239785113927,-32.42480291718006,-31.404366049244718,-30.391633928170208,-29.448245257141288,-28.504856586110868,-27.561467915078936,-26.618079244045472,-25.674690573010473,-24.731301901973957,-23.787913230935921,-22.844524559896346,-21.901135888855286,-20.957747217812685,-20.014358546768563,-19.070969875722923,-18.127581204675742,-17.184192533627062,-16.240803862576847,-15.297415191525122,-14.354026520471864,-13.410637849417087,-12.467249178360786,-11.555380690802407,-10.769594426928025,-9.9838081630520641,-9.1980218991745417,-8.41223563529547,-7.6264493714148243,-6.8406631075326283,-6.0548768436488629,-5.2690905797635406,-4.4833043158766541,-3.6975180519882067,-2.9117317880981908,-2.1259455242066174,-1.3401592603134802,-0.55437299641878135,0.23141326747747967,1.0171995313753019,1.8029857952746804,2.5887720591756205,3.3745583230781246,4.0917440341784888,4.6488596273091147,5.2059752204413385,5.7630908135751513,6.32020640671055,6.8773219998475339,7.4344375929861188,7.9915531861262812,8.5486687792680378,9.1057843724113745,9.66289996555631,10.220015558702828,10.777131151850945,11.334246745000637,11.89136233815193,12.448477931304808,13.00559352445927,13.562709117615334,14.119824710772981,14.676940303932215,15.117533350170181,15.383339822523762,15.649146294878975,15.914952767235809,16.180759239594273,16.446565711954356,16.71237218431607,16.978178656679429,17.24398512904439,17.509791601410988,17.775598073779232,18.041404546149074,18.307211018520565,18.573017490893672,18.838823963268432,19.104630435644783,19.370436908022771,19.6362433804024,19.902049852783666,20.167856325166539,20.104905613406096,20.026563383639207,19.948221153873977,19.869878924110409,19.791536694348508,19.713194464588252,19.634852234829676,19.556510005072731,19.47816777531748,19.399825545563882,19.321483315811921,19.243141086061641,19.16479885631302,19.086456626566058,19.008114396820751,18.929772167077104,18.851429937335126,18.773087707594811,18.462836922703765,17.997976780958616,17.533116639215194,17.068256497473513,16.603396355733565,16.138536213995373,15.673676072258919,15.208815930524217,14.743955788791258,14.27909564706003,13.814235505330574,13.349375363602856,12.884515221876866,12.419655080152637,11.95479493843013,11.489934796709395,11.025074654990387,10.560214513273134,10.095354371557617,9.6304942298438529,8.8725603102865822,7.989019385672977,7.1054784610610806,6.2219375364509233,5.3383966118424588,4.4548556872357565,3.5713147626307644,2.6877738380274576,1.8042329134259165,0.92069198882606373,0.037151064227953258,-0.846389860368446,-1.7299307849631091,-2.6134717095560784,-3.4970126341472914,-4.3805535587368105,-5.2640944833245928,-6.1476354079106477,-7.0311763324950052,-7.9147172570776174,-9.1508738002210261,-10.47518841423825,-11.799503028253634,-13.12381764226714,-14.448132256278798,-15.772446870288602,-17.096761484296561,-18.421076098302631,-19.745390712306857,-21.069705326309258,-22.394019940309747,-23.718334554308409,-25.042649168305175,-26.366963782300168,-27.6912783962932,-29.015593010284466,-30.3399076242738,-31.664222238261345,-32.988536852246959,-34.312851466230796,-36.045669693798907,-37.823881502041495,-39.602093310282235,-41.380305118521029,-43.158516926757919,-44.936728734992919,-46.714940543226028,-48.493152351457219,-50.27136415968657,-52.049575967913974,-53.827787776139481,-55.60599958436319,-57.384211392584909,-59.162423200804767,-60.940635009022685,-62.718846817238706,-64.497058625452865,-66.275270433665071,-68.053482241875471,-69.8316940500839,0,0.039530367635084461,0.10732155997597606,0.21845197397934038,0.38266521257971653,0.600893874000582,0.8734131689753748,1.2000309514573351,1.5800420162902027,2.012027791641728,2.3327922067981195,3.0778647444211216
DP 329,189.24496633711328,0.002572073114581218,-35.052224412527423,-34.346558679000886,-33.640892945473276,-32.93522721194465,-32.229561478414993,-31.523895744884289,-30.818230011352529,-30.112564277819757,-29.406898544285916,-28.701232810751033,-27.995567077215128,-27.289901343678189,-26.584235610140183,-25.878569876601137,-25.172904143061061,-24.467238409519933,-23.761572675977767,-23.055906942434564,-22.350241208890331,-21.644575475345047,-20.944245636013413,-20.291939348984798,-19.639633061955092,-18.987326774924359,-18.335020487892553,-17.682714200859717,-17.030407913825808,-16.378101626790862,-15.72579533975485,-15.073489052717798,-14.4211827656797,-13.768876478640527,-13.116570191600308,-12.464263904559054,-11.811957617516727,-11.159651330473338,-10.507345043428922,-9.85503875638344,-9.2027324693369064,-8.55042618228933,-7.9199421103158043,-7.3767479299899428,-6.833553749662995,-6.29035956933497,-5.7471653890058665,-5.2039712086756831,-4.6607770283444223,-4.1175828480120789,-3.5743886676786589,-3.0311944873441616,-2.4880003070085794,-1.9448061266719157,-1.4016119463341736,-0.85841776599535413,-0.31522358565545344,0.22797059468552608,0.77116477502758529,1.3143589553707211,1.8575531357149337,2.4007473160602291,2.8964658535702035,3.2814063952926391,3.6663469370161739,4.0512874787408091,4.4362280204665376,4.8211685621933649,5.2061091039212917,5.5910496456503154,5.9759901873804377,6.3609307291116632,6.7458712708439768,7.1308118125773987,7.5157523543119069,7.9006928960475289,8.28563343778424,8.6705739795220484,9.0555145212609531,9.4404550630009716,9.8253956047420736,10.21033614648427,10.514680437673169,10.698128448491016,10.881576459309999,11.065024470130098,11.248472480951319,11.431920491773671,11.615368502597139,11.798816513421732,11.982264524247453,12.165712535074306,12.349160545902279,12.532608556731377,12.716056567561598,12.899504578392941,13.082952589225414,13.266400600059006,13.449848610893721,13.633296621729569,13.816744632566534,14.000192643404624,13.955794240775916,13.901344827830391,13.846895414886019,13.792446001942777,13.737996589000693,13.683547176059751,13.629097763119953,13.574648350181311,13.520198937243796,13.465749524307464,13.411300111372249,13.356850698438189,13.302401285505262,13.2479518725735,13.193502459642879,13.139053046713405,13.084603633785092,13.030154220857906,12.815496115115661,12.494029690281922,12.172563265449412,11.851096840618091,11.52963041578797,11.208163990959054,10.886697566131355,10.565231141304851,10.243764716479552,9.92229829165545,9.6008318668325714,9.2793654420108762,8.9578990171903961,8.6364325923711327,8.3149661675530471,7.9934997427361907,7.6720333179205173,7.350566893106059,7.02910046829281,6.7076340434807662,6.1838208573541653,5.5732848983524583,4.9627489393519371,4.3522129803526148,3.741677021354461,3.1311410623575249,2.5206051033617674,1.9100691443671782,1.2995331853738044,0.68899722638159477,0.078461267390590048,-0.53207469159923382,-1.1426106505878575,-1.7531466095753148,-2.3636825685615568,-2.9742185275466331,-3.5847544865305028,-4.1952904455131863,-4.8058264044946908,-5.4163623634750016,-6.2702379182451846,-7.1849512470754169,-8.09966457590438,-9.0143779047320542,-9.92909123355846,-10.843804562383578,-11.75851789120741,-12.673231220029955,-13.587944548851228,-14.502657877671227,-15.417371206489925,-16.332084535307356,-17.246797864123476,-18.161511192938367,-19.076224521751932,-19.990937850564219,-20.905651179375255,-21.820364508184984,-22.735077836993433,-23.649791165800607,-24.846328412071365,-26.074182386782134,-27.302036361491595,-28.529890336199724,-29.757744310906563,-30.985598285612134,-32.213452260316316,-33.441306235019205,-34.669160209720836,-35.897014184421124,-37.124868159120119,-38.352722133817785,-39.580576108514173,-40.808430083209238,-42.036284057902961,-43.264138032595426,-44.491992007286534,-45.719845981976349,-46.947699956664927,-48.175553931352077,0,0.027231776049440142,0.074003581362338811,0.15071460742603612,0.26407241585898628,0.41472134570326613,0.6028521989473008,0.82833226974523921,1.0906745101028867,1.3888986545802204,1.6103434199088544,2.1247017143625246
DP 330,61.919444197277976,0.0018751789507039751,-11.00858121288273,-10.879687710375864,-10.750794207868957,-10.621900705362005,-10.493007202854999,-10.364113700347954,-10.235220197840853,-10.106326695333713,-9.9774331928265223,-9.8485396903192921,-9.719646187812,-9.5907526853046736,-9.4618591827972942,-9.33296568028987,-9.2040721777823951,-9.075178675274886,-8.9462851727673183,-8.8173916702596991,-8.6884981677520354,-8.5596046652443327,-8.4316427682746049,-8.3120654092063724,-8.1924880501380635,-8.0729106910697048,-7.9533333320012671,-7.8337559729327637,-7.7141786138642088,-7.5946012547955748,-7.475023895726884,-7.3554465366581239,-7.2358691775892963,-7.1162918185204083,-6.996714459451443,-6.8771371003824253,-6.7575597413133419,-6.6379823822441928,-6.5184050231749753,-6.3988276641056929,-6.2792503050363448,-6.1596729459669337,-6.0439286867367832,-5.9435170080214768,-5.84310532930605,-5.7426936505904989,-5.6422819718748318,-5.5418702931590422,-5.4414586144431327,-5.3410469357271015,-5.2406352570109487,-5.1402235782946768,-5.039811899578277,-4.9394002208617653,-4.8389885421451293,-4.73857686342837,-4.63816518471149,-4.5377535059944867,-4.4373418272773648,-4.3369301485601222,-4.23651846984276,-4.1361067911252762,-4.0441472128530922,-3.9719094685910079,-3.8996717243287984,-3.8274339800664667,-3.7551962358040023,-3.6829584915414126,-3.6107207472786991,-3.5384830030158545,-3.4662452587528829,-3.39400751448979,-3.3217697702265632,-3.249532025963219,-3.1772942816997394,-3.1050565374361327,-3.032818793172404,-2.9605810489085465,-2.888343304644561,-2.8161055603804517,-2.7438678161162144,-2.6716300718518498,-2.6139708420313505,-2.5781797283762313,-2.5423886147209478,-2.506597501065492,-2.4708063874098678,-2.4350152737540784,-2.3992241600981208,-2.3634330464419926,-2.3276419327856979,-2.2918508191292353,-2.2560597054726035,-2.2202685918158047,-2.1844774781588363,-2.1486863645017014,-2.1128952508443968,-2.0771041371869257,-2.0413130235292858,-2.0055219098714763,-1.9697307962134998,-1.9339396825553554,-1.9362011443929639,-1.944264034762222,-1.9523269251312867,-1.9603898155001638,-1.9684527058688468,-1.9765155962373411,-1.9845784866056413,-1.9926413769737552,-2.0007042673416739,-2.0087671577094039,-2.0168300480769421,-2.0248929384442866,-2.0329558288114447,-2.0410187191784086,-2.049081609545182,-2.057144499911765,-2.0652073902781569,-2.0732702806443561,-2.1114217499236494,-2.1696327458184252,-2.2278437417129626,-2.286054737607266,-2.3442657335013291,-2.4024767293951572,-2.4606877252887425,-2.5188987211820937,-2.577109717075206,-2.6353207129680807,-2.6935317088607156,-2.7517427047531156,-2.8099537006452784,-2.8681646965371987,-2.9263756924288846,-2.9845866883203294,-3.042797684211541,-3.1010086801025118,-3.159219675993242,-3.2174306718837395,-3.3143221495140995,-3.4277914987685607,-3.541260848022783,-3.65473019727677,-3.7681995465305187,-3.8816688957840273,-3.9951382450372956,-4.1086075942903353,-4.22207694354313,-4.3355462927956951,-4.4490156420480149,-4.5624849913001,-4.6759543405519448,-4.7894236898035585,-4.9028930390549252,-5.0163623883060611,-5.129831737556958,-5.2433010868076186,-5.3567704360580368,-5.4702397853082205,-5.63085916198373,-5.8032666026038084,-5.9756740432235835,-6.1480814838430584,-6.3204889244622224,-6.4928963650810871,-6.6653038056996543,-6.8377112463179106,-7.0101186869358756,-7.1825261275535386,-7.3549335681708836,-7.5273410087879409,-7.6997484494046819,-7.87215589002114,-8.0445633306372777,-8.2169707712531181,-8.3893782118686531,-8.5617856524838931,-8.7341930930988259,-8.9066005337134548,-9.1341199107293,-9.36776341504278,-9.6014069193559379,-9.835050423668763,-10.068693927981263,-10.302337432293443,-10.535980936605291,-10.769624440916804,-11.003267945228014,-11.236911449538892,-11.470554953849438,-11.704198458159674,-11.937841962469584,-12.171485466779153,-12.405128971088402,-12.638772475397328,-12.872415979705931,-13.106059484014201,-13.339702988322159,-13.573346492629783,0,0.012786886341421454,0.02567837564806634,0.042268294585289641,0.065731172381752037,0.096381951238353886,0.13429253851407985,0.17947778892241639,0.23192016982819158,0.29151827609363296,0.33485426327696338,0.43615862073121175
DP 331,168.68810470034467,0.0034076633021509909,-43.185826805881462,-42.338873773500012,-41.491920741117333,-40.644967708733375,-39.798014676348188,-38.951061643961836,-38.104108611574148,-37.257155579185252,-36.410202546795105,-35.563249514403743,-34.716296482011131,-33.869343449617283,-33.0223904172222,-32.175437384825869,-31.328484352428308,-30.481531320029482,-29.634578287629473,-28.787625255228154,-27.940672222825615,-27.093719190421869,-26.25307445160848,-25.469204951405544,-24.685335451201318,-23.90146595099587,-23.117596450789151,-22.333726950581163,-21.549857450371935,-20.765987950161421,-19.982118449949684,-19.198248949736694,-18.414379449522439,-17.630509949306919,-16.846640449090156,-16.062770948872128,-15.278901448652856,-14.495031948432318,-13.711162448210519,-12.927292947987475,-12.14342344776316,-11.359553947537609,-10.601555429037692,-9.9470420601427119,-9.2925286912464351,-8.6380153223488634,-7.9835019534499994,-7.3289885845498288,-6.6744752156483589,-6.0199618467455913,-5.3654484778415261,-4.7109351089361642,-4.0564217400294975,-3.4019083711215319,-2.7473950022122695,-2.0928816333017073,-1.4383682643898474,-0.78385489547668707,-0.12934152656222994,0.52517184235352354,1.1796852112705734,1.8341985801889242,2.4321810935113479,2.8982564959644117,3.3643318984187993,3.8304073008745108,4.2964827033315416,4.7625581057898954,5.228633508249577,5.6947089107105766,6.160784313172897,6.6268597156365407,7.0929351181015008,7.5590105205677851,8.0250859230354017,8.49116132550433,8.9572367279745926,9.4233121304461616,9.8893875329190628,10.355462935393291,10.821538337868823,11.287613740345702,11.657178665262345,11.881975593234195,12.106772521207414,12.331569449181993,12.556366377157929,12.781163305135248,13.005960233113898,13.230757161093916,13.455554089075317,13.680351017058065,13.90514794504216,14.12994487302764,14.354741801014475,14.579538729002673,14.804335656992214,15.02913258498314,15.253929512975422,15.478726440969069,15.703523368964051,15.928320296960431,15.885976158829758,15.824078576004752,15.762180993181124,15.7002834103589,15.638385827538039,15.576488244718613,15.51459066190055,15.452693079083902,15.390795496268625,15.328897913454751,15.267000330642265,15.205102747831186,15.143205165021474,15.081307582213162,15.019409999406255,14.95751241660073,14.895614833796591,14.83371725099386,14.577484822639438,14.19169276908886,13.805900715539797,13.420108661992174,13.034316608446032,12.648524554901325,12.262732501358133,11.876940447816391,11.491148394276109,11.105356340737314,10.719564287199983,10.333772233664137,9.9479801801297381,9.5621881265968334,9.1763960730653729,8.7906040195353938,8.4048119660068732,8.0190199124798358,7.6332278589542719,7.2474358054301726,6.6147097330388185,5.8761514610400285,5.1375931890426854,4.3990349170468006,3.6604766450523449,2.921918373059373,2.1833601010678425,1.4448018290777385,0.70624355708911513,-0.032314714898080577,-0.77087298688380879,-1.5094312588680936,-2.2479895308509152,-2.98654780283231,-3.7251060748122233,-4.4636643467907042,-5.2022226187677241,-5.9407808907432944,-6.679339162717417,-7.4178974346900874,-8.45486333142665,-9.5664346601080421,-10.678005988787868,-11.789577317466108,-12.901148646142781,-14.012719974817875,-15.124291303491413,-16.235862632163339,-17.347433960833712,-18.459005289502535,-19.570576618169756,-20.682147946835411,-21.793719275499488,-22.905290604161994,-24.016861932822913,-25.128433261482272,-26.240004590140046,-27.351575918796271,-28.463147247450866,-29.57471857610394,-31.032987449775344,-32.52978191405618,-34.026576378335456,-35.523370842613055,-37.020165306889048,-38.516959771163457,-40.013754235436288,-41.510548699707414,-43.007343163977012,-44.504137628244933,-46.000932092511292,-47.497726556776072,-48.9945210210392,-50.491315485300674,-51.988109949560524,-53.484904413818846,-54.981698878075555,-56.478493342330545,-57.975287806584085,-59.472082270835777,0,0.034250222980192709,0.091867043562424644,0.18574446595862237,0.32439162624022577,0.50858818872522027,0.73855582211623583,1.0141305047316034,1.33472312711103,1.6991484648344031,1.9696990855480565,2.5983447591396724
DP 332,147.42437789413842,0.0012496759559510703,-14.506170435454649,-14.231335474549788,-13.956500513644517,-13.68166555273887,-13.406830591832806,-13.131995630926371,-12.85716067001953,-12.582325709112302,-12.307490748204682,-12.032655787296667,-11.757820826388262,-11.482985865479469,-11.208150904570276,-10.933315943660689,-10.658480982750717,-10.383646021840345,-10.108811060929586,-9.8339761000184378,-9.5591411391068988,-9.2843061781949565,-9.01149356616109,-8.7568822851940435,-8.50227100422659,-8.24765972325874,-7.9930484422904877,-7.7384371613218441,-7.4838258803528026,-7.22921459938335,-6.9746033184135063,-6.71999203744326,-6.4653807564726185,-6.2107694755015732,-5.9561581945301345,-5.7015469135582935,-5.446935632586051,-5.19232435161341,-4.9377130706403705,-4.6831017896669289,-4.4284905086930895,-4.1738792277188521,-3.9275794728695304,-3.7145262153353564,-3.5014729578007642,-3.2884197002657536,-3.0753664427303247,-2.8623131851944774,-2.6492599276582136,-2.4362066701215315,-2.2231534125844292,-2.0101001550469091,-1.797046897508972,-1.5839936399706149,-1.3709403824318385,-1.1578871248926457,-0.94483386735303432,-0.73178060981300364,-0.51872735227255573,-0.30567409473169088,-0.092620837190407965,0.1204324203512937,0.3152592430057275,0.46755714332060322,0.61985504363590738,0.77215294395163581,0.92445084426779034,1.0767487445843724,1.2290466449013797,1.3813445452188136,1.5336424455366748,1.6859403458549609,1.8382382461736717,1.9905361464928113,2.1428340468123759,2.2951319471323672,2.4474298474527849,2.5997277477736302,2.7520256480949015,2.9043235484165955,3.0566214487387193,3.2089193490612686,3.3299605770509357,3.4041160579260681,3.4782715388016476,3.5524270196776673,3.6265825005541337,3.7007379814310384,3.7748934623083863,3.8490489431861765,3.9232044240644117,3.9973599049430888,4.0715153858222068,4.145670866701769,4.2198263475817743,4.2939818284622211,4.3681373093431128,4.4422927902244416,4.5164482711062144,4.5906037519884348,4.6647592328710967,4.7389147137541991,4.7280628461934109,4.7088908265641676,4.6897188069353755,4.6705467873070354,4.6513747676791537,4.63220274805172,4.6130307284247491,4.5938587087982281,4.5746866891721636,4.5555146695465512,4.5363426499213988,4.5171706302966932,4.4979986106724494,4.4788265910486569,4.4596545714253173,4.4404825518024369,4.4213105321800059,4.4021385125580359,4.31937895829837,4.1942267125406092,4.0690744667833272,3.9439222210265248,3.8187699752702131,3.6936177295143797,3.5684654837590344,3.4433132380041678,3.318160992249783,3.1930087464958863,3.0678565007424723,2.9427042549895428,2.8175520092370925,2.6923997634851333,2.5672475177336507,2.4420952719826547,2.3169430262321393,2.1917907804821093,2.0666385347325651,1.9414862889835027,1.7351514971759772,1.4940230894118041,1.2528946816481068,1.0117662738848889,0.77063786612214313,0.52950945835988383,0.28838105059810049,0.047252642836786173,-0.19387576492404027,-0.43500417268439778,-0.67613258044427083,-0.91726098820367008,-1.1583893959625877,-1.3995178037210347,-1.6406462114789946,-1.8817746192364839,-2.1229030269934905,-2.3640314347500215,-2.6051598425060756,-2.8462882502616509,-3.1858927594965034,-3.5501174576186783,-3.9143421557403282,-4.27856685386146,-4.6427915519820635,-5.007016250102148,-5.3712409482217156,-5.73546564634075,-6.0996903444592645,-6.4639150425772636,-6.8281397406947342,-7.1923644388116816,-7.5565891369281,-7.9208138350440125,-8.28503853315939,-8.649263231274249,-9.0134879293885817,-9.3777126275023974,-9.7419373256156856,-10.106162023728457,-10.585081346865536,-11.076745721798572,-11.568410096731089,-12.060074471663052,-12.551738846594493,-13.043403221525379,-13.535067596455736,-14.02673197138555,-14.518396346314853,-15.010060721243601,-15.501725096171802,-15.993389471099484,-16.485053846026616,-16.976718220953238,-17.4683825958793,-17.960046970804825,-18.451711345729819,-18.943375720654259,-19.435040095578209,-19.926704470501587,0,0.011781542542115504,0.030986915298725468,0.061973491312244618,0.10769971857857673,0.16841988942768907,0.24420156175240873,0.33498991056231114,0.44059406714287275,0.5606298233149376,0.64971516545866792,0.85681681803783794
DP 333,104.7706516128266,0.0045971811157009572,-41.793804215078907,-41.090783266165587,-40.387762317251379,-39.684741368336333,-38.9817204194204,-38.278699470503639,-37.575678521586013,-36.872657572667478,-36.169636623748126,-35.466615674827878,-34.763594725906792,-34.060573776984825,-33.357552828062005,-32.654531879138311,-31.951510930213772,-31.248489981288362,-30.545469032362092,-29.842448083434967,-29.139427134506924,-28.436406185578043,-27.738486638705226,-27.086480192550091,-26.434473746394083,-25.782467300237183,-25.130460854079356,-24.478454407920644,-23.826447961761026,-23.174441515600527,-22.522435069439123,-21.870428623276815,-21.21842217711362,-20.566415730949497,-19.914409284784508,-19.262402838618591,-18.610396392451804,-17.958389946284107,-17.306383500115516,-16.654377053946014,-16.002370607775617,-15.35036416160434,-14.719368301444105,-14.172415778320207,-13.625463255195353,-13.078510732069473,-12.531558208942611,-11.984605685814751,-11.437653162685885,-10.89070063955603,-10.343748116425171,-9.7967955932933179,-9.249843070160475,-8.7028905470266178,-8.1559380238917729,-7.60898550075593,-7.062032977619098,-6.5150804544812519,-5.9681279313424191,-5.421175408202588,-4.8742228850617622,-4.3272703619199371,-3.8265857220352748,-3.4338609342022384,-3.0411361463681739,-2.6484113585330946,-2.2556865706969944,-1.8629617828598706,-1.4702369950217276,-1.0775122071825634,-0.68478741934237841,-0.29206263150117362,0.10066215634105004,0.4933869441842938,0.8861117320285643,1.2788365198738514,1.67156130772016,2.0642860955674904,2.4570108834158422,2.8497356712652131,3.2424604591156063,3.6351852469670147,3.9481648791640138,4.1415248934502955,4.3348849077376714,4.5282449220261469,4.7216049363157291,4.9149649506064046,5.1083249648981788,5.3016849791910516,5.49504499348503,5.6884050077801032,5.8817650220762658,6.0751250363735387,6.2684850506719094,6.4618450649713717,6.655205079271945,6.8485650935736029,7.0419251078763763,7.2352851221802377,7.428645136485204,7.6220051507912672,7.603372872512729,7.5572475056117652,7.5111221387119524,7.4649967718132819,7.418871404915774,7.3727460380194012,7.3266206711241848,7.2804953042301106,7.2343699373371981,7.1882445704454181,7.1421192035547971,7.095993836665321,7.0498684697769978,7.0037431028898149,6.9576177360037894,6.9114923691189034,6.8653670022351792,6.819241635352598,6.6090075584015313,6.2893650894169832,5.9697226204336973,5.650080151451661,5.330437682470885,5.0107952134913614,4.6911527445131105,4.3715102755361128,4.0518678065603728,3.7322253375858878,3.412582868612676,3.0929403996407112,2.7732979306700072,2.453655461700567,2.1340129927323774,1.8143705237654582,1.4947280547997861,1.1750855858353784,0.85544311687223329,0.53580064791034709,0.0055220283909479138,-0.61503207132596638,-1.2355861710416391,-1.8561402707560577,-2.4766943704692443,-3.0972484701811558,-3.71780256989183,-4.3383566696012759,-4.95891076930945,-5.5794648690164,-6.2000189687220866,-6.8205730684265289,-7.4411271681297189,-8.06168126783168,-8.6822353675323676,-9.3027894672318272,-9.9233435669300327,-10.543897666626982,-11.164451766322701,-11.785005866017157,-12.662120357726355,-13.603377978758495,-14.544635599789206,-15.485893220818536,-16.427150841846441,-17.368408462872932,-18.309666083898026,-19.250923704921693,-20.192181325943942,-21.133438946964837,-22.074696567984262,-23.01595418900229,-23.957211810018897,-24.898469431034162,-25.839727052047941,-26.780984673060342,-27.722242294071322,-28.663499915080887,-29.60475753608905,-30.546015157095816,-31.786903296822338,-33.061086863251951,-34.335270429680094,-35.609453996106723,-36.883637562531909,-38.157821128955653,-39.432004695377927,-40.706188261798687,-41.980371828218047,-43.2545553946359,-44.528738961052326,-45.802922527467295,-47.077106093880758,-48.351289660292771,-49.625473226703292,-50.899656793112435,-52.173840359520071,-53.448023925926208,-54.722207492330973,-55.99639105873414,0,0.036859515255122904,0.089704511476141752,0.17143234825608253,0.29155241489356037,0.45075832975468061,0.6491815595500392,0.886675877487765,1.1627833668250338,1.47657223377661,1.7089907124849935,2.2502892195183453
DP 334,174.06608598065554,0.0044949097540261228,-58.114290143931328,-56.96610028274381,-55.817910421554572,-54.6697205603637,-53.5215306991711,-52.373340837976876,-51.225150976780988,-50.076961115583288,-48.928771254383975,-47.780581393183006,-46.632391531980275,-45.48420167077591,-44.33601180956984,-43.187821948362128,-42.039632087152675,-40.891442225941574,-39.743252364728754,-38.595062503514278,-37.446872642298089,-36.298682781080238,-35.15907618597668,-34.096719797243075,-33.034363408507765,-31.972007019770704,-30.909650631031969,-29.847294242291525,-28.784937853549344,-27.72258146480549,-26.660225076059909,-25.597868687312641,-24.535512298563638,-23.473155909812942,-22.410799521060532,-21.348443132306421,-20.286086743550626,-19.223730354793084,-18.161373966033846,-17.099017577272907,-16.036661188510241,-14.974304799745912,-13.947125331420349,-13.060655207365347,-12.174185083308585,-11.287714959250051,-10.401244835189782,-9.5147747111277372,-8.628304587063937,-7.7418344629983631,-6.8553643389310386,-5.9688942148619573,-5.0824240907911022,-4.1959539667184895,-3.3094838426441169,-2.4230137185679808,-1.5365435944900836,-0.65007347041042707,0.23639665367099116,1.1228667777541645,2.0093369018390965,2.8958070259257935,3.7054922352047,4.3360102239652791,4.96652821272766,5.5970462014918221,6.2275641902577794,6.8580821790255362,7.4886001677950773,8.119118156566417,8.7496361453395455,9.38015413411447,10.010672122891174,10.641190111669683,11.271708100449988,11.90222608923208,12.532744078015957,13.163262066801629,13.793780055589108,14.424298044378368,15.054816033169425,15.685334021962273,16.184942789932581,16.488184633200255,16.791426476469759,17.094668319741107,17.39791016301433,17.701152006289352,18.004393849566231,18.307635692844968,18.610877536125546,18.914119379407939,19.217361222692194,19.5206030659783,19.823844909266231,20.127086752556025,20.430328595847637,20.7335704391411,21.036812282436415,21.340054125733584,21.643295969032586,21.946537812333421,21.885545447318506,21.800499398624584,21.715453349932545,21.6304073012424,21.545361252554105,21.460315203867729,21.375269155183226,21.290223106500605,21.205177057819853,21.120131009140998,21.035084960464019,20.950038911788933,20.864992863115713,20.77994681444439,20.694900765774939,20.609854717107382,20.524808668441715,20.439762619777916,20.0919298398549,19.568901765892864,19.045873691932822,18.522845617974745,17.999817544018676,17.476789470064546,16.953761396112437,16.430733322162297,15.907705248214153,15.384677174267988,14.861649100323817,14.338621026381608,13.815592952441408,13.292564878503196,12.76953680456694,12.246508730632705,11.723480656700403,11.200452582770133,10.677424508841833,10.154396434915524,9.2979338276359282,8.2985662036569945,7.2991985796800236,6.2998309557050112,5.300463331731935,4.301095707760858,3.3017280837917324,2.3023604598245311,1.30299283585933,0.30362521189605429,-0.6957424120652399,-1.6951100360245859,-2.6944776599819567,-3.6938452839373985,-4.6932129078908451,-5.6925805318423581,-6.6919481557918976,-7.6913157797394769,-8.6906834036851031,-9.6900510276287619,-11.09189152183386,-12.594354988912695,-14.096818455989402,-15.599281923063987,-17.101745390136447,-18.6042088572068,-20.106672324275031,-21.609135791341124,-23.1115992584051,-24.614062725466979,-26.116526192526695,-27.618989659584329,-29.121453126639789,-30.6239165936932,-32.126380060744431,-33.628843527793549,-35.131306994840536,-36.633770461885433,-38.136233928928171,-39.638697395968848,-41.608413214672026,-43.630050868617872,-45.651688522561528,-47.673326176502925,-49.69496383044229,-51.716601484379389,-53.738239138314341,-55.759876792247127,-57.781514446177745,-59.803152100106168,-61.824789754032459,-63.846427407956611,-65.868065061878553,-67.889702715798322,-69.91134036971593,-71.932978023631321,-73.954615677544638,-75.97625333145568,-77.997890985364663,-80.0195286392713,0,0.045837319205916244,0.12342325996312674,0.25008257909960036,0.43717587077303516,0.68575824949805009,0.99613342066792687,1.3680808794620061,1.8008028736303616,2.2926946165988116,2.6578981267051969,3.506388787120954
DP 335,103.9205767833493,0.0036936277015295459,-33.3693575426238,-32.810070254168039,-32.250782965711593,-31.691495677254494,-31.132208388796663,-30.572921100338196,-30.013633811879021,-29.454346523419165,-28.895059234958651,-28.335771946497431,-27.776484658035553,-27.217197369572961,-26.657910081109698,-26.098622792645759,-25.539335504181125,-24.980048215715804,-24.4207609272498,-23.861473638783121,-23.302186350315768,-22.742899061847719,-22.187669171765908,-21.66895625068841,-21.1502433296102,-20.631530408531283,-20.112817487451636,-19.594104566371282,-19.075391645290246,-18.556678724208467,-18.037965803125989,-17.519252882042796,-17.000539960958903,-16.481827039874279,-15.963114118788967,-15.444401197702927,-14.925688276616183,-14.40697535552872,-13.888262434440552,-13.369549513351672,-12.850836592262077,-12.332123671171786,-11.830124301772614,-11.3949799290458,-10.959835556318195,-10.524691183589789,-10.089546810860593,-9.65440243813063,-9.2192580653998437,-8.78411369266829,-8.3489693199359358,-7.9138249472027935,-7.4786805744688563,-7.0435362017341232,-6.6083918289986059,-6.1732474562622928,-5.7381030835251865,-5.302958710787296,-4.86781433804861,-4.4326699653091373,-3.9975255925688709,-3.5623812198278149,-3.1640420648717522,-2.8515829110540709,-2.539123757235576,-2.2266646034162769,-1.9142054495961673,-1.6017462957752457,-1.2892871419535143,-0.97682798813097171,-0.66436883430762028,-0.35190968048345939,-0.039450526658491324,0.27300862716728974,0.58546778099388141,0.89792693482127972,1.2103860886494915,1.5228452424785122,1.8353043963083429,2.1477635501389862,2.4602227039704379,2.7726818578026959,3.021703637053113,3.1755678553649997,3.3294320736777503,3.48329629199138,3.6371605103058777,3.7910247286212573,3.9448889469375019,4.0987531652546254,4.2526173835726162,4.4064816018914863,4.5603458202112277,4.7142100385318431,4.8680742568533262,5.0219384751756886,5.1758026934989152,5.3296669118230247,5.4835311301480036,5.637395348473861,5.7912595668005862,5.9451237851281826,5.9304001223292735,5.8937374533680424,5.8570747844077315,5.8204121154483257,5.7837494464898427,5.7470867775322656,5.7104241085756104,5.6737614396198595,5.637098770665026,5.6004361017111046,5.5637734327580892,5.527110763806002,5.4904480948548153,5.4537854259045533,5.417122756955191,5.3804600880067532,5.3437974190592259,5.3071347501126116,5.13990345110074,4.8856243417715932,4.6313452324434454,4.3770661231162959,4.1227870137901519,3.8685079044649981,3.614228795140864,3.3599496858177211,3.1056705764955814,2.8513914671744391,2.5971123578543129,2.3428332485351775,2.0885541392170457,1.8342750298999235,1.5799959205837915,1.3257168112686688,1.0714377019545391,0.81715859264142132,0.56287948332930426,0.30860037401818952,-0.11327227814889305,-0.60697299743209321,-1.1006737167143044,-1.5943744359955156,-2.0880751552757495,-2.5817758745549666,-3.0754765938331992,-3.5691773131104569,-4.0628780323866973,-4.5565787516619691,-5.0502794709362329,-5.5439801902095045,-6.0376809094817805,-6.5313816287530813,-7.0250823480233739,-7.5187830672926763,-8.0124837865609742,-8.5061845058282941,-8.9998852250946157,-9.4935859443599533,-10.191430463875173,-10.940313345458204,-11.689196227040112,-12.43807910862088,-13.186961990200547,-13.935844871779082,-14.684727753356494,-15.433610634932764,-16.182493516507918,-16.931376398081987,-17.680259279654887,-18.429142161226679,-19.178025042797334,-19.926907924366894,-20.675790805935314,-21.424673687502615,-22.173556569068797,-22.922439450633849,-23.671322332197779,-24.420205213760592,-25.407509791530906,-26.421308172884466,-27.435106554236832,-28.448904935588022,-29.462703316938054,-30.476501698286938,-31.490300079634633,-32.504098460981133,-33.517896842326522,-34.531695223670745,-35.545493605013768,-36.559291986355646,-37.573090367696359,-38.586888749035893,-39.600687130374268,-40.614485511711486,-41.628283893047524,-42.642082274382368,-43.655880655716146,-44.669679037048624,0,0.029508881303750293,0.071642130769696707,0.13670740813853424,0.23232191137638908,0.35903985163656738,0.51696505744117449,0.70598134171134352,0.92572552162646082,1.1754579622780572,1.3604154368317491,1.7912015267725514
DP 336,81.9554052036233,0.0010443690823038353,-7.7908995161193975,-7.676045414236409,-7.5611913123533192,-7.4463372104701149,-7.3314831085868049,-7.2166290067033811,-7.1017749048198588,-6.9869208029362149,-6.8720667010524705,-6.7572125991686143,-6.6423584972846434,-6.5275043954005643,-6.4126502935163829,-6.2977961916320888,-6.182942089747681,-6.06808798786317,-5.9532338859785474,-5.8383797840938172,-5.723525682208976,-5.6086715803240219,-5.494648472116479,-5.3881043855555406,-5.281560298994485,-5.17501621243331,-5.0684721258720149,-4.9619280393106058,-4.8553839527490759,-4.7488398661874252,-4.6422957796256581,-4.5357516930637773,-4.4292076065017749,-4.3226635199396517,-4.2161194333774095,-4.1095753468150544,-4.0030312602525777,-3.8964871736899829,-3.7899430871272708,-3.6833990005644388,-3.5768549140014851,-3.47031082743842,-3.3671894548996297,-3.2777591002205164,-3.1883287455412539,-3.098898390861851,-3.0094680361822985,-2.9200376815026048,-2.8306073268227654,-2.7411769721427808,-2.6517466174626487,-2.5623162627823723,-2.4728859081019521,-2.383455553421387,-2.294025198740675,-2.2045948440598191,-2.1151644893788157,-2.0257341346976681,-1.9363037800163763,-1.84687342533494,-1.7574430706533573,-1.6680127159716303,-1.5861260606661161,-1.5218416082547797,-1.4575571558432934,-1.3932727034316579,-1.3289882510198738,-1.2647037986079401,-1.200419346195857,-1.1361348937836231,-1.0718504413712413,-1.0075659889587092,-0.94328153654602775,-0.87899708413319688,-0.81471263172021569,-0.75042817930708672,-0.68614372689380709,-0.62185927448037792,-0.55757482206679987,-0.49329036965307121,-0.42900591723919379,-0.36472146482516721,-0.31344989186454,-0.28169794558667238,-0.24994599930863567,-0.21819405303042821,-0.18644210675205092,-0.1546901604735034,-0.12293821419478658,-0.091186267915898872,-0.059434321636842251,-0.027682375357614877,0.0040695709217818442,0.0358215172013484,0.067573463481085949,0.099325409760992814,0.1310773560410696,0.16282930232131629,0.19458124860173306,0.22633319488232004,0.25808514116307713,0.28983708744400372,0.28727669430716046,0.27990207383052296,0.27252745335406725,0.26515283287779295,0.25777821240170196,0.25040359192579142,0.24302897145006527,0.23565435097451884,0.22827973049915537,0.22090511002397473,0.2135304895489753,0.20615586907415909,0.19878124859952348,0.19140662812507087,0.18403200765080058,0.17665738717671181,0.16928276670280526,0.16190814622908103,0.12769358422983842,0.0755853050515771,0.023477025873524807,-0.028631253304322223,-0.080739532481960558,-0.1328478116593925,-0.18495609083661496,-0.23706437001363082,-0.28917264919043917,-0.3412809283670401,-0.3933892075434311,-0.44549748671961686,-0.49760576589559424,-0.54971404507136268,-0.60182232424692561,-0.65393060342227916,-0.7060388825974272,-0.75814716177236541,-0.81025544094709645,-0.86236372012161944,-0.94896004286663227,-1.0503374214093211,-1.1517147999518063,-1.2530921784940818,-1.3544695570361538,-1.4558469355780173,-1.5572243141196727,-1.6586016926611282,-1.7599790712023713,-1.8613564497434125,-1.9627338282842437,-2.064111206824871,-2.1654885853652894,-2.2668659639055049,-2.3682433424455089,-2.4696207209853114,-2.5709980995249047,-2.6723754780642928,-2.7737528566034744,-2.8751302351424481,-3.0185452460574029,-3.1724701617505029,-3.3263950774433626,-3.4803199931359825,-3.6342449088283564,-3.7881698245204851,-3.9420947402123767,-4.09601965590402,-4.2499445715954227,-4.4038694872865829,-4.5577944029775,-4.7117193186681714,-4.8656442343586006,-5.0195691500487927,-5.1734940657387343,-5.3274189814284343,-5.4813438971178936,-5.63526881280711,-5.789193728496083,-5.9431186441848141,-6.1461665169927944,-6.3546730120572263,-6.5631795071214158,-6.7716860021853273,-6.9801924972490035,-7.1886989923124149,-7.3972054873755688,-7.605711982438466,-7.8142184775011216,-8.022724972563509,-8.2312314676256442,-8.4397379626875253,-8.648244457749156,-8.8567509528105237,-9.06525744787164,-9.2737639429324972,-9.4822704379931,-9.6907769330534421,-9.8992834281135522,-10.107789923173375,0,0.0076115255608502352,0.017039212666940994,0.030766140283807419,0.050772696003546378,0.07720605793731164,0.11008762901154195,0.14939713244887387,0.19507181581891286,0.24697551946101967,0.28526014961058921,0.37459130739164026
DP 337,111.8047834626768,0.0049690728209105311,-47.457732594040749,-46.637366217546457,-45.816999841051107,-44.996633464554677,-44.176267088057195,-43.355900711558689,-42.535534335059104,-41.715167958558531,-40.89480158205685,-40.074435205554124,-39.254068829050325,-38.433702452545525,-37.613336076039673,-36.792969699532769,-35.972603323024792,-35.152236946515764,-34.331870570005691,-33.511504193494574,-32.691137816982426,-31.870771440469209,-31.056366410456455,-30.295614062448561,-29.534861714439636,-28.774109366429563,-28.013357018418436,-27.252604670406217,-26.491852322392923,-25.731099974378527,-24.970347626363047,-24.209595278346498,-23.448842930328826,-22.68809058231011,-21.927338234290286,-21.166585886269377,-20.405833538247389,-19.6450811902243,-18.884328842200127,-18.123576494174891,-17.362824146148547,-16.602071798121131,-15.86586898181122,-15.227865452619589,-14.589861923426765,-13.951858394232742,-13.313854865037555,-12.67585133584118,-12.03784780664359,-11.399844277444847,-10.761840748244897,-10.123837219043766,-9.48583368984145,-8.8478301606379386,-8.2098266314332431,-7.5718231022273681,-6.9338195730202976,-6.2958160438120441,-5.6578125146025959,-5.0198089853919754,-4.381805456180162,-3.7438019269671665,-3.1598345069520311,-2.7019530442741715,-2.2440715815950893,-1.7861901189147993,-1.3283086562332973,-0.87042719355057874,-0.41254573086664886,0.045335731818499148,0.50321719450485636,0.96109865719243,1.4189801198812098,1.8768615825712063,2.33474304526242,2.7926245079548471,3.2505059706484838,3.7083874333433404,4.1662688960394041,4.6241503587366877,5.0820318214351756,5.5399132841348822,5.90470744623031,6.1298684577067633,6.3550294691845073,6.5801904806635552,6.8053514921438909,7.0305125036255243,7.2556735151084588,7.4808345265926706,7.7059955380781835,7.931156549565,8.1563175610531,8.3814785725425,8.6066395840331982,8.8318005955251859,9.0569616070184651,9.2821226185130445,9.5072836300089154,9.7324446415060848,9.9576056530045474,10.182766664504301,10.159771102215965,10.105540146832086,10.051309191449548,9.9970782360683526,9.94284728068852,9.88861632531002,9.8343853699328783,9.7801544145570833,9.725923459182626,9.67169250380952,9.6174615484377615,9.5632305930673613,9.5089996376982935,9.4547686823305721,9.4005377269642079,9.346306771599183,9.2920758162355064,9.2378448608731851,8.992268189459379,8.6191246929394971,8.2459811964210914,7.8728376999041378,7.49969420338866,7.1265507068746352,6.7534072103620888,6.3802637138510017,6.0071202173413747,5.6339767208332185,5.2608332243265341,4.8876897278213107,4.5145462313175475,4.141402734815264,3.7682592383144278,3.3951157418150695,3.0219722453171638,2.6488287488207329,2.2756852523257729,1.9025417558322766,1.2839355509262136,0.56012772790343024,-0.16368009511790746,-0.8874879181377836,-1.6112957411562281,-2.3351035641731936,-3.0589113871887132,-3.7827192102028104,-4.5065270332154235,-5.2303348562266105,-5.9541426792363294,-6.6779505022446131,-7.4017583252514205,-8.12556614825681,-8.84937397126072,-9.5731817942632009,-10.296989617264209,-11.020797440263769,-11.74460526326189,-12.46841308625855,-13.491077093892434,-14.588458678739284,-15.685840263584508,-16.783221848428095,-17.880603433270057,-18.977985018110406,-20.075366602949121,-21.172748187786183,-22.270129772621647,-23.367511357455495,-24.464892942287676,-25.562274527118273,-26.659656111947182,-27.757037696774525,-28.854419281600208,-29.951800866424268,-31.049182451246704,-32.146564036067524,-33.243945620886691,-34.341327205704239,-35.787640451046514,-37.272727545518059,-38.757814639987977,-40.242901734456112,-41.727988828922605,-43.213075923387407,-44.698163017850554,-46.183250112311995,-47.668337206771746,-49.153424301229862,-50.63851139568623,-52.123598490140942,-53.60868558459395,-55.093772679045315,-56.578859773494962,-58.063946867942988,-59.549033962389238,-61.034121056833833,-62.519208151276771,-64.004295245717955,0,0.041028411711201168,0.10169367969955465,0.19653536121626416,0.33608871974749516,0.5211412566467174,0.75185565049161152,1.0280614126674703,1.3492123663586295,1.7142030915490394,1.9847041044973546,2.6144343808960375
DP 338,78.192431846859492,0.0026769620515756428,-19.195390889567793,-18.921243133734016,-18.6470953779,-18.372947622065748,-18.09879986623125,-17.824652110396524,-17.550504354561536,-17.276356598726327,-17.002208842890877,-16.728061087055181,-16.453913331219244,-16.179765575383058,-15.905617819546636,-15.631470063709983,-15.357322307873096,-15.083174552035938,-14.809026796198554,-14.534879040360932,-14.26073128452307,-13.986583528684955,-13.714418529378969,-13.460098526282644,-13.205778523186041,-12.951458520089169,-12.697138516992041,-12.442818513894645,-12.188498510796986,-11.934178507699057,-11.679858504600867,-11.425538501502418,-11.171218498403693,-10.916898495304716,-10.662578492205467,-10.408258489105949,-10.153938486006174,-9.8996184829061313,-9.6452984798058239,-9.3909784767052571,-9.1366584736044167,-8.8823384705033188,-8.6361853060956051,-8.4226998824383585,-8.20921445878077,-7.9957290351228405,-7.7822436114645877,-7.5687581878059866,-7.3552727641470552,-7.141787340487797,-6.9283019168281967,-6.7148164931682626,-6.5013310695079847,-6.2878456458473826,-6.0743602221864386,-5.860874798525157,-5.64738937486355,-5.433903951201601,-5.2204185275393131,-5.0069331038766967,-4.7934476802137418,-4.5799622565504547,-4.3844784107146548,-4.230998813660821,-4.0775192166066345,-3.924039619552107,-3.7705600224972327,-3.6170804254420137,-3.4636008283864466,-3.3101212313305313,-3.1566416342742745,-3.0031620372176673,-2.8496824401607186,-2.6962028431034235,-2.5427232460457803,-2.3892436489877937,-2.2357640519294595,-2.0822844548707788,-1.9288048578117523,-1.7753252607523784,-1.6218456636926606,-1.4683660666325979,-1.3459397433449338,-1.2700940645245691,-1.1942483857038058,-1.1184027068826425,-1.0425570280610781,-0.96671134923911506,-0.890865670416753,-0.81501999159399,-0.73917431277083012,-0.66332863394726715,-0.58748295512330639,-0.51163727629894673,-0.43579159747418605,-0.3599459186490267,-0.28410023982346538,-0.20825456099750739,-0.13240888217114913,-0.056563203344389662,0.019282475482769214,0.095128154310326132,0.089210034431508448,0.071673474182645192,0.054136913934209857,0.03660035368620472,0.019063793438634777,0.0015272331914923587,-0.016009327055215624,-0.033545887301497983,-0.0510824475473446,-0.068619007792762879,-0.08615556803774832,-0.1036921282823018,-0.12122868852642736,-0.13876524877011995,-0.15630180901338081,-0.17383836925621193,-0.19137492949861207,-0.2089114897405796,-0.29051043508535135,-0.41481864638560134,-0.539126857685353,-0.66343506898461235,-0.78774328028337282,-0.91205149158163978,-1.0363597028794054,-1.1606679141766749,-1.2849761254734515,-1.4092843367697292,-1.5335925480655055,-1.6579007593607913,-1.7822089706555773,-1.906517181949865,-2.03082539324366,-2.1551336045369545,-2.2794418158297565,-2.403750027122058,-2.5280582384138626,-2.6523664497051711,-2.8590024550489797,-3.1009229123827198,-3.3428433697159692,-3.5847638270487217,-3.8266842843809856,-4.0686047417127451,-4.3105251990440125,-4.552445656374795,-4.7943661137050748,-5.0362865710348688,-5.2782070283641591,-5.520127485692961,-5.7620479430212646,-6.0039684003490876,-6.245888857676392,-6.487809315003223,-6.7297297723295566,-6.9716502296553857,-7.2135706869807281,-7.4554911443055749,-7.7977626291791724,-8.1651230566100779,-8.5324834840404087,-8.8998439114701462,-9.2672043388992922,-9.634564766327852,-10.001925193755833,-10.36928562118322,-10.736646048610012,-11.104006476036242,-11.471366903461851,-11.838727330886893,-12.206087758311325,-12.573448185735202,-12.940808613158463,-13.308169040581149,-13.675529468003244,-14.042889895424757,-14.41025032284568,-14.77761075026601,-15.262246494749732,-15.759914061692774,-16.257581628635197,-16.755249195576969,-17.252916762518154,-17.75058432945869,-18.248251896398635,-18.745919463337948,-19.243587030276647,-19.741254597214741,-20.238922164152186,-20.736589731089044,-21.234257298025248,-21.731924864960849,-22.229592431895814,-22.7272599988302,-23.224927565763945,-23.722595132697055,-24.220262699629568,-24.717930266561453,0,0.019227503407404478,0.042275689607727082,0.075297531447652138,0.12328668320043672,0.1866262178752825,0.26537246152930083,0.3594821945069876,0.46881553620798833,0.593058973417612,0.68457559579530469,0.89819902205872026
DP 339,138.30190669805722,0.0027640876877392043,-30.732548253447291,-30.160850411007718,-29.589152568567346,-29.017454726126171,-28.445756883684172,-27.874059041241381,-27.30236119879779,-26.730663356353425,-26.158965513908196,-25.587267671462218,-25.01556982901543,-24.443871986567828,-23.872174144119406,-23.300476301670216,-22.728778459220198,-22.157080616769406,-21.5853827743178,-21.013684931865388,-20.441987089412176,-19.870289246958155,-19.302780812415097,-18.77297744507797,-18.243174077740012,-17.713370710401254,-17.183567343061647,-16.653763975721237,-16.12396060838001,-15.594157241037967,-15.064353873695106,-14.534550506351419,-14.004747139006925,-13.474943771661598,-12.945140404315467,-12.415337036968506,-11.885533669620735,-11.355730302272136,-10.825926934922721,-10.296123567572494,-9.7663202002214469,-9.2365168328695759,-8.7239435180827236,-8.2802912278746259,-7.8366389376656533,-7.3929866474558352,-6.9493343572451449,-6.5056820670335966,-6.0620297768211753,-5.6183774866078959,-5.1747251963937515,-4.7310729061787411,-4.28742061596287,-3.8437683257461339,-3.4001160355285358,-2.9564637453100722,-2.512811455090743,-2.0691591648705541,-1.6255068746494983,-1.1818545844275834,-0.73820229420480576,-0.29455000398116243,0.11127144996522223,0.4288197606432112,0.74636807132208471,1.0639163820018358,1.3814646926824663,1.6990130033639805,2.0165613140463718,2.3341096247296473,2.6516579354138026,2.9692062460988393,3.2867545567847514,3.6043028674715445,3.9218511781592258,4.2393994888477842,4.55694779953722,4.8744961102275388,5.1920444209187391,5.5095927316108222,5.8271410423037864,6.1446893529976228,6.3972634904004826,6.5523748324854978,6.70748617457144,6.8625975166582922,7.0177088587460688,7.1728202008347628,7.3279315429243734,7.483042885014906,7.6381542271063587,7.7932655691987307,7.9483769112920148,8.1034882533862245,8.25859959548135,8.4137109375773953,8.5688222796743521,8.72393362177224,8.8790449638710456,9.0341563059707681,9.18926764807141,9.344378990172963,9.3238775040776058,9.2846542738448932,9.2454310436131344,9.2062078133823082,9.1669845831524412,9.12776135292352,9.08853812269554,9.0493148924685034,9.01009166224242,8.9708684320172782,8.93164520179309,8.8924219715698385,8.8531987413475335,8.8139755111261717,8.7747522809057621,8.7355290506863028,8.6963058204677885,8.65708259025021,8.4852234893097158,8.2249383850467552,7.9646532807848143,7.7043681765238841,7.4440830722639557,7.1837979680050408,6.9235128637471428,6.6632277594902511,6.4029426552343729,6.1426575509794956,5.8823724467256424,5.6220873424727911,5.3618022382209523,5.1015171339701268,4.8412320297203006,4.580946925471495,4.3206618212236947,4.0603767169769061,3.8000916127311335,3.5398065084863695,3.1099176342532928,2.6073391398459087,2.1047606454395145,1.602182151034127,1.0996036566297269,0.59702516222634594,0.094446667823957192,-0.40813182657745123,-0.91071032097783833,-1.4132888153772452,-1.9158673097756407,-2.4184458041730439,-2.9210242985694412,-3.4236027929648527,-3.9261812873592485,-4.4287597817526612,-4.9313382761450626,-5.4339167705364622,-5.9364952649268723,-6.4390737593162841,-7.14764267059727,-7.9077116199246893,-8.66778056925102,-9.4278495185762576,-10.187918467900392,-10.947987417223423,-11.708056366545383,-12.468125315866198,-13.228194265185946,-13.988263214504606,-14.748332163822141,-15.508401113138598,-16.268470062453929,-17.028539011768206,-17.788607961081357,-18.548676910393418,-19.308745859704366,-20.068814809014238,-20.828883758322991,-21.588952707630657,-22.589131585851472,-23.615991866797781,-24.642852147743003,-25.669712428687021,-26.696572709629962,-27.723432990571752,-28.750293271512437,-29.777153552451917,-30.804013833390353,-31.830874114327621,-32.857734395263776,-33.884594676198788,-34.91145495713269,-35.938315238065464,-36.965175518997093,-37.992035799927613,-39.018896080857012,-40.045756361785195,-41.072616642712354,-42.099476923638321,0,0.025264485973721423,0.06570675347799905,0.13058813893853363,0.22628593261517174,0.35333062080406125,0.511857219231562,0.70175028338723977,0.922614549087624,1.1736542837538217,1.3599247329649609,1.7930776502634813
DP 340,78.380649479236709,0.003138207988792904,-22.548622773595678,-22.226041467224768,-21.903460160853545,-21.580878854482066,-21.258297548110292,-20.935716241738234,-20.613134935365903,-20.290553628993269,-19.967972322620366,-19.645391016247164,-19.322809709873692,-19.000228403499928,-18.67764709712587,-18.355065790751542,-18.03248448437693,-17.70990317800203,-17.387321871626845,-17.064740565251377,-16.742159258875617,-16.419577952499573,-16.099329877086578,-15.800081100890326,-15.500832324693761,-15.201583548496888,-14.902334772299689,-14.603085996102184,-14.303837219904372,-14.004588443706238,-13.7053396675078,-13.40609089130905,-13.106842115109981,-12.807593338910603,-12.508344562710903,-12.209095786510904,-11.909847010310598,-11.610598234109961,-11.311349457909015,-11.012100681707764,-10.712851905506202,-10.41360312930432,-10.12396402338616,-9.872764052770183,-9.6215640821538031,-9.3703641115370342,-9.1191641409198656,-8.8679641703023027,-8.6167641996843436,-8.3655642290659937,-8.114364258447246,-7.8631642878281083,-7.6119643172085683,-7.3607643465886294,-7.1095643759682972,-6.8583644053475732,-6.6071644347264495,-6.35596446410493,-6.1047644934830227,-5.8535645228607152,-5.6023645522380132,-5.3511645816149151,-5.1211468786012277,-4.9405551340761784,-4.7599633895507134,-4.5793716450248487,-4.3987799004985728,-4.2181881559718919,-4.0375964114448024,-3.8570046669173013,-3.6764129223893947,-3.4958211778610808,-3.3152294333323606,-3.1346376888032332,-2.9540459442736973,-2.77345419974375,-2.5928624552133983,-2.4122707106826375,-2.23167896615147,-2.0510872216198939,-1.8704954770879112,-1.68990373255552,-1.5458517998641335,-1.4566104483933573,-1.3673690969221119,-1.2781277454503954,-1.1888863939782075,-1.0996450425055502,-1.0104036910324206,-0.92116233955882143,-0.8319209880847529,-0.74267963661021086,-0.65343828513520075,-0.56419693365971946,-0.47495558218376677,-0.38571423070734456,-0.29647287923045007,-0.20723152775308668,-0.11799017627525293,-0.028748824796944628,0.0604925266818319,0.14973387816107719,0.14275868832611102,0.12212013437689945,0.10148158042819654,0.080843026479997318,0.060204472532308213,0.039565918585124642,0.018927364638453129,-0.0017111893077177908,-0.022349743253375874,-0.042988297198529715,-0.063626851143173679,-0.084265405087310619,-0.10490395903094182,-0.12554251297406513,-0.14618106691667945,-0.16681962085878763,-0.18745817480038859,-0.2080967287414805,-0.30411562790379609,-0.45038927806707496,-0.59666292822976419,-0.7429365783918741,-0.88921022855339871,-1.0354838787143426,-1.1817575288746951,-1.3280311790344665,-1.4743048291936549,-1.6205784793522588,-1.7668521295102722,-1.9131257796677068,-2.0593994298245564,-2.2056730799808175,-2.3519467301364987,-2.4982203802915919,-2.6444940304461064,-2.7907676806000308,-2.9370413307533711,-3.0833149809061249,-3.326460017043174,-3.6111226695247254,-3.8957853220056955,-4.1804479744860821,-4.4651106269658944,-4.7497732794451144,-5.0344359319237579,-5.3190985844018241,-5.6037612368793015,-5.88842388935621,-6.1730865418325278,-6.4577491943082705,-6.7424118467834209,-7.0270744992580019,-7.3117371517319913,-7.5963998042054071,-7.881062456678233,-8.16572510915048,-8.4503877616221565,-8.7350504140932372,-9.1377934677613339,-9.5700580168753717,-10.002322565988729,-10.434587115101392,-10.866851664213355,-11.299116213324634,-11.731380762435228,-12.163645311545119,-12.595909860654325,-13.028174409762851,-13.460438958870661,-13.892703507977801,-14.324968057084225,-14.757232606189984,-15.189497155295037,-15.621761704399413,-16.054026253503082,-16.486290802606071,-16.918555351708353,-17.350819900809967,-17.921077493706864,-18.506669096286206,-19.092260698864816,-19.677852301442684,-20.263443904019837,-20.849035506596252,-21.434627109171934,-22.020218711746871,-22.605810314321126,-23.19140191689462,-23.776993519467396,-24.362585122039459,-24.948176724610782,-25.533768327181388,-26.119359929751244,-26.704951532320376,-27.290543134888793,-27.876134737456475,-28.461726340023432,-29.047317942589618,0,0.022556534876019382,0.049641368540533408,0.0884803109998418,0.14493238245962561,0.2194462346928798,0.31208774215430063,0.42280565462653574,0.551434761973372,0.69760539427832469,0.805281661251235,1.0566209985051791
DP 341,222.93358425970843,0.001364729046796226,-20.602873178278472,-20.17381379335152,-19.744754408423933,-19.315695023495735,-18.886635638566894,-18.457576253637431,-18.028516868707328,-17.599457483776607,-17.170398098845254,-16.741338713913279,-16.312279328980633,-15.883219944047406,-15.454160559113548,-15.025101174179047,-14.596041789243909,-14.166982404308152,-13.737923019371763,-13.308863634434745,-12.879804249497106,-12.450744864558837,-12.025030453361166,-11.629421122015358,-11.233811790668922,-10.838202459321845,-10.442593127974122,-10.046983796625783,-9.6513744652768043,-9.2557651339271967,-8.8601558025769513,-8.4645464712260718,-8.0689371398745546,-7.67332780852241,-7.2777184771696275,-6.8821091458162149,-6.4864998144621708,-6.0908904831074908,-5.6952811517521722,-5.2996718203962239,-4.9040624890396431,-4.5084531576824292,-4.1264492429557267,-3.7988676377639043,-3.4712860325714376,-3.143704427378327,-2.8161228221845742,-2.4885412169901766,-2.1609596117951355,-1.8333780065994496,-1.5057964014031229,-1.17821479620615,-0.85063319100853185,-0.52305158581026789,-0.19546998061136278,0.13211162458818754,0.45969322978838173,0.78727483498921935,1.114856440190702,1.4424380453928252,1.7700196505955932,2.0976012557990056,2.3958471367859824,2.6256420703061925,2.8554370038270585,3.0852319373485795,3.3150268708707542,3.5448218043935826,3.774616737917067,4.0044116714412068,4.2342066049660056,4.4640015384914475,4.6937964720175467,4.9235914055443031,5.1533863390717194,5.3831812725997823,5.6129762061285016,5.8427711396578781,6.0725660731879074,6.3023610067185949,6.5321559402499325,6.7619508737819318,6.9425161928983758,7.0492359270641582,7.1559556612306086,7.26267539539772,7.3693951295655031,7.47611486373395,7.5828345979030534,7.68955433207284,7.7962740662432877,7.9029938004143947,8.00971353458617,8.116433268758616,8.2231530029317277,8.3298727371055019,8.4365924712799369,8.5433122054550559,8.650031939630825,8.7567516738072655,8.8634714079843739,8.9701911421621432,8.9318596771351526,8.8951828732088654,8.8585060692832638,8.82182926535833,8.785152461434075,8.7484756575104985,8.7117988535876059,8.6751220496653829,8.6384452457438332,8.6017684418229621,8.56509163790277,8.5284148339832573,8.4917380300644218,8.4550612261462614,8.4183844222287778,8.38170761831197,8.34503081439584,8.3083540104803983,8.1764295120498627,7.9810050501046188,7.7855805881600793,7.5901561262162582,7.3947316642731389,7.199307202330723,7.0038827403890149,6.8084582784480245,6.6130338165077251,6.4176093545681319,6.2221848926292616,6.0267604306910911,5.8313359687536241,5.6359115068168775,5.4404870448808191,5.2450625829454793,5.0496381210108368,4.85421365907691,4.65878919714369,4.4633647352111794,4.1491827940068262,3.7841031866614241,3.4190235793167112,3.0539439719727057,2.6888643646293815,2.323784757286774,1.9587051499448596,1.5936255426036279,1.2285459352631087,0.863466327923276,0.49838672058414785,0.13330711324571262,-0.23177249409201844,-0.59685210142906442,-0.96193170876539991,-1.3270113161010468,-1.6920909234359915,-2.0571705307702368,-2.4222501381037906,-2.7873297454366455,-3.2937265244921505,-3.8354542661727979,-4.3771820078527,-4.9189097495318617,-5.4606374912102682,-6.002365232887934,-6.5440929745648528,-7.0858207162410158,-7.6275484579164408,-8.16927619959112,-8.7110039412650426,-9.2527316829382329,-9.7944594246106558,-10.336187166282352,-10.877914907953286,-11.419642649623476,-11.961370391292917,-12.503098132961632,-13.044825874629577,-13.586553616296776,-14.290813068221658,-15.013133306040217,-15.73545354385803,-16.45777378167503,-17.180094019491314,-17.902414257306827,-18.624734495121579,-19.34705473293554,-20.069374970748765,-20.791695208561229,-21.514015446372948,-22.236335684183892,-22.958655921994065,-23.68097615980351,-24.403296397612142,-25.12561663542002,-25.847936873227173,-26.570257111033541,-27.292577348839192,-28.014897586643976,0,0.015464643946771188,0.042624096674789044,0.087497272673544,0.15385095421971451,0.24206768984385754,0.35226543456264214,0.48436749282415764,0.63808525715607844,0.81283784106889734,0.94262245744666229,1.2439497974235862
DP 342,83.671999340061262,0.0019063812910982746,-14.469640152620887,-14.253485467947504,-14.037330783273914,-13.821176098600102,-13.605021413926082,-13.388866729251847,-13.172712044577395,-12.956557359902748,-12.74040267522788,-12.524247990552803,-12.308093305877508,-12.091938621202006,-11.875783936526298,-11.659629251850365,-11.443474567174221,-11.227319882497873,-11.011165197821315,-10.795010513144531,-10.578855828467551,-10.362701143790346,-10.148110619601621,-9.9475976876620162,-9.74708475572217,-9.5465718237821111,-9.34605889184181,-9.145545959901284,-8.9450330279605339,-8.7445200960195475,-8.54400716407834,-8.3434942321369014,-8.1429813001952347,-7.9424683682533379,-7.74195543631121,-7.5414425043688613,-7.3409295724262806,-7.1404166404834664,-6.9399037085404309,-6.7393907765971672,-6.5388778446536726,-6.3383649127099417,-6.14429452642804,-5.9759946272777107,-5.8076947281271138,-5.639394828976231,-5.4710949298250782,-5.3027950306736464,-5.1344951315219394,-4.96619523236996,-4.7978953332176948,-4.6295954340651537,-4.4612955349123373,-4.2929956357592474,-4.1246957366058776,-3.956395837452233,-3.7880959382983117,-3.6197960391441089,-3.4514961399896325,-3.2831962408348807,-3.1148963416798492,-2.9465964425245441,-2.7924958802688424,-2.6715275514976597,-2.5505592227261875,-2.4295908939544351,-2.3086225651823979,-2.1876542364100731,-2.066685907637464,-1.9457175788645706,-1.8247492500913931,-1.7037809213179296,-1.5828125925441816,-1.46184426377015,-1.3408759349958321,-1.2199076062212297,-1.0989392774463431,-0.97797094867117074,-0.8570026198957138,-0.73603429111997087,-0.61506596234394484,-0.49409763356763425,-0.39762143431505054,-0.33788400811273994,-0.27814658191010855,-0.21840915570715441,-0.15867172950387745,-0.098934303300279552,-0.039196877096360487,0.020540549107881997,0.080277975312444044,0.14001540151732927,0.19975282772253633,0.25949025392806513,0.31922768013391628,0.37896510634008818,0.43870253254658204,0.49843995875339808,0.55817738496053593,0.617914811167997,0.67765223737577873,0.73738966358388125,0.73250313201654,0.71860089493795953,0.70469865785972263,0.69079642078182768,0.67689418370427945,0.66299194662707273,0.64908970955021228,0.63518747247369212,0.62128523539751945,0.607382998321688,0.59348076124620142,0.57957852417105982,0.56567628709626017,0.551774050021806,0.53787181294769582,0.52396957587392745,0.510067338800504,0.49616510172742556,0.43175067531064559,0.33366066024364693,0.23557064517704174,0.13748063011082357,0.039390615044996552,-0.058699400020441043,-0.1567894150854855,-0.25487943015014131,-0.35296944521440815,-0.45105946027828264,-0.5491494753417645,-0.64723949040485906,-0.74532950546756238,-0.84341952052987323,-0.94150953559179706,-1.0395995506533275,-1.1376895657144712,-1.235779580775221,-1.3338695958355808,-1.4319596108955495,-1.5949519002473931,-1.7857603263929538,-1.9765687525381272,-2.1673771786829081,-2.35818560482731,-2.5489940309713166,-2.7398024571149331,-2.93061088325817,-3.1214193094010136,-3.31222773554347,-3.5030361616855421,-3.6938445878272237,-3.8846530139685123,-4.0754614401094225,-4.2662698662499361,-4.457078292390066,-4.6478867185298078,-4.8386951446691615,-5.0295035708081262,-5.2203119969467053,-5.4902285651084215,-5.7799231034565528,-6.0696176418042347,-6.3593121801514574,-6.6490067184982289,-6.9387012568445439,-7.2283957951904076,-7.5180903335358114,-7.80778487188076,-8.09747941022527,-8.3871739485693055,-8.67686848691289,-8.9665630252560113,-9.2562575635987034,-9.54595210194092,-9.8356466402826843,-10.125341178623996,-10.415035716964852,-10.704730255305252,-10.994424793645207,-11.376557012400239,-11.768961055353961,-12.161365098307222,-12.553769141259986,-12.946173184212279,-13.338577227164089,-13.730981270115427,-14.123385313066274,-14.515789356016672,-14.908193398966571,-15.300597441915995,-15.693001484864967,-16.085405527813442,-16.477809570761437,-16.870213613708955,-17.262617656655991,-17.655021699602564,-18.04742574254864,-18.439829785494286,-18.832233828439374,0,0.013989567211978594,0.03156192044043863,0.057316465040108178,0.0948941224510085,0.14456255153131309,0.20636083315560616,0.2802495034322498,0.36610744556041708,0.463674904651523,0.53567958342498567,0.70366226483166072
DP 343,60.792153484499089,0.001647707471483984,-9.52191400901564,-9.4125318428885727,-9.303149676761473,-9.1937675106343359,-9.0843853445071616,-8.9750031783799677,-8.86562101225273,-8.7562388461254521,-8.6468566799981534,-8.5374745138708086,-8.42809234774343,-8.31871018161603,-8.2093280154885928,-8.0999458493611129,-7.9905636832336056,-7.8811815171060688,-7.771799350978486,-7.6624171848508773,-7.5530350187232358,-7.4436528525955667,-7.3350611572722606,-7.2335837739073847,-7.1321063905424547,-7.0306290071774749,-6.9291516238124418,-6.8276742404473589,-6.7261968570822308,-6.6247194737170476,-6.5232420903518129,-6.4217647069865293,-6.3202873236212058,-6.2188099402558183,-6.11733255689038,-6.0158551735249057,-5.9143777901593726,-5.81290040679379,-5.7114230234281571,-5.6099456400624739,-5.5084682566967391,-5.4069908733309537,-5.3087659831007725,-5.2235512191304947,-5.1383364551601094,-5.0531216911896264,-4.9679069272190439,-4.8826921632483611,-4.797477399277577,-4.7122626353067014,-4.6270478713357175,-4.5418331073646376,-4.4566183433934556,-4.3714035794221786,-4.2861888154507977,-4.2009740514793208,-4.1157592875077409,-4.0305445235360651,-3.9453297595642858,-3.86011499559241,-3.7749002316204359,-3.68968546764836,-3.6116426428978605,-3.5503345689674415,-3.489026495036915,-3.4277184211062841,-3.36641034717555,-3.30510227324471,-3.24379419931377,-3.18248612538272,-3.1211780514515715,-3.0598699775203149,-2.9985619035889535,-2.9372538296574922,-2.8759457557259189,-2.8146376817942467,-2.7533296078624709,-2.6920215339305882,-2.6307134599985993,-2.5694053860665091,-2.5080973121343142,-2.4467892382020144,-2.397850868379483,-2.3674673470255945,-2.3370838256715651,-2.306700304317395,-2.2763167829630833,-2.2459332616086276,-2.2155497402540343,-2.1851662188993006,-2.1547826975444244,-2.1243991761894079,-2.09401565483425,-2.0636321334789507,-2.0332486121235109,-2.0028650907679313,-1.9724815694122095,-1.9420980480563474,-1.9117145267003457,-1.8813310053442,-1.8509474839879161,-1.8205639626314876,-1.8224410627507468,-1.8292686774144968,-1.8360962920780846,-1.8429239067415124,-1.8497515214047786,-1.8565791360678845,-1.8634067507308265,-1.8702343653936118,-1.877061980056234,-1.8838895947186953,-1.8907172093809925,-1.8975448240431314,-1.9043724387051086,-1.911200053366926,-1.9180276680285808,-1.9248552826900727,-1.9316828973514071,-1.938510512012577,-1.9708679271953264,-2.0202456115815441,-2.069623295967558,-2.1190009803533703,-2.16837866473898,-2.2177563491243908,-2.2671340335095946,-2.3165117178945986,-2.3658894022794015,-2.415267086664,-2.4646447710483947,-2.5140224554325918,-2.5634001398165842,-2.6127778242003741,-2.6621555085839614,-2.7115331929673481,-2.7609108773505309,-2.8102885617335129,-2.8596662461162907,-2.9090439304988651,-2.99124389224501,-3.0875109874928226,-3.1837780827404347,-3.2800451779878452,-3.3763122732350555,-3.4725793684820618,-3.5688464637288626,-3.6651135589754666,-3.7613806542218664,-3.8576477494680681,-3.9539148447140628,-4.0501819399598542,-4.1464490352054435,-4.2427161304508347,-4.3389832256960226,-4.43525032094101,-4.5315174161857907,-4.6277845114303675,-4.7240516066747462,-4.8203187019189224,-4.956592935176328,-5.10286942563042,-5.2491459160842551,-5.3954224065378211,-5.5416988969911412,-5.6879753874441974,-5.83425187789699,-5.9805283683495247,-6.1268048588018056,-6.2730813492538209,-6.4193578397055813,-6.5656343301570814,-6.71191082060832,-6.8581873110592992,-7.0044638015100249,-7.150740291960485,-7.2970167824106831,-7.4432932728606325,-7.5895697633103172,-7.7358462537597452,-7.92888622815187,-8.1271226363339562,-8.3253590445157641,-8.5235954526972861,-8.72183186087853,-8.9200682690595041,-9.1183046772401983,-9.316541085420603,-9.5147774936007377,-9.71301390178059,-9.9112503099601668,-10.109486718139472,-10.307723126318471,-10.505959534497221,-10.704195942675671,-10.902432350853857,-11.100668759031754,-11.298905167209378,-11.497141575386726,-11.695377983563779,0,0.011205926931795623,0.022350435169310828,0.036544581812827381,0.056550970318626249,0.082649738446764889,0.11490794567719873,0.15334294941505749,0.19794561340493969,0.24863482960946609,0.28543070708691615,0.37144727173388054
DP 344,96.94662970818041,0.0011294053705385263,-9.6635371280179729,-9.5067831216158361,-9.3500291152135215,-9.1932751088110312,-9.03652110240835,-8.8797670960054944,-8.7230130896024622,-8.5662590831992311,-8.4095050767958348,-8.25275107039225,-8.0959970639884844,-7.9392430575845374,-7.78248905118041,-7.6257350447761025,-7.4689810383716129,-7.3122270319669305,-7.15547302556208,-6.99871901915705,-6.8419650127518308,-6.6852110063464316,-6.5295930674487694,-6.3841998435081573,-6.2388066195673542,-6.0934133956263681,-5.9480201716851786,-5.8026269477438017,-5.6572337238022383,-5.5118404998604857,-5.36644727591854,-5.2210540519764059,-5.0756608280340778,-4.9302676040915632,-4.7848743801488576,-4.6394811562059628,-4.4940879322628779,-4.3486947083196,-4.2033014843761336,-4.0579082604324759,-3.9125150364886272,-3.76712181254459,-3.6264077973378881,-3.5044108382270034,-3.3824138791159037,-3.2604169200045869,-3.1384199608930525,-3.016423001781305,-2.89442604266934,-2.7724290835571583,-2.6504321244447597,-2.5284351653321488,-2.4064382062193159,-2.2844412471062707,-2.1624442879930088,-2.0404473288795311,-1.9184503697658353,-1.7964534106519237,-1.6744564515377982,-1.5524594924234549,-1.4304625333088985,-1.3084655741941238,-1.1967770283786898,-1.1091417717206167,-1.0215065150623208,-0.93387125840380392,-0.84623600174506619,-0.758600745086106,-0.67096548842692483,-0.5833302317675213,-0.4956949751078969,-0.40805971844805089,-0.32042446178798373,-0.23278920512769546,-0.14515394846718438,-0.057518691806453005,0.030116564854500726,0.11775182151567591,0.20538707817707266,0.29302233483869145,0.38065759150053091,0.4682928481625917,0.538154184576006,0.581354220607337,0.62455425663890907,0.667754292670724,0.71095432870278052,0.75415436473508,0.79735440076761843,0.84055443680039987,0.88375447283342257,0.92695450886668884,0.97015454490019537,1.0133545809339424,1.0565546169679325,1.0997546530021645,1.1429546890366382,1.1861547250713533,1.2293547611063087,1.2725547971415103,1.3157548331769497,1.358954869212631,1.3550382581897871,1.3448315056121627,1.3346247530347934,1.324418000457676,1.3142112478808166,1.30400449530421,1.2937977427278575,1.2835909901517575,1.2733842375759132,1.2631774850003239,1.2529707324249879,1.2427639798499077,1.2325572272750784,1.2223504747005065,1.2121437221261884,1.2019369695521243,1.1917302169783142,1.1815234644047583,1.1347022861851959,1.0634709140552239,0.99223954192553476,0.92100816979612454,0.84977679766699676,0.77854542553814865,0.70731405340958575,0.63608268128130208,0.56485130915329951,0.49361993702557821,0.42238856489814108,0.35115719277098384,0.2799258206441077,0.20869444851751484,0.13746307639120089,0.066231704265170957,-0.0049996678605801082,-0.076231039986047813,-0.1474624121112332,-0.21869378423613742,-0.33694350858107736,-0.47534459020027875,-0.61374567181920192,-0.75214675343784432,-0.89054783505621149,-1.0289489166742933,-1.1673499982920981,-1.3057510799096277,-1.4441521615268735,-1.582553243143844,-1.7209543247605328,-1.8593554063769446,-1.9977564879930727,-2.1361575696089288,-2.2745586512244969,-2.4129597328397918,-2.5513608144548057,-2.6897618960695397,-2.8281629776839941,-2.9665640592981735,-3.1622543164330654,-3.3722675443327454,-3.5822807722321039,-3.7922940001311463,-4.0023072280298679,-4.2123204559282694,-4.4223336838263547,-4.6323469117241167,-4.842360139621559,-5.05237336751869,-5.2623865954154976,-5.4723998233119886,-5.682413051208151,-5.8924262791040043,-6.1024395069995352,-6.3124527348947437,-6.5224659627896333,-6.732479190684213,-6.9424924185784711,-7.1525056464724068,-7.4294413157681793,-7.7138135147338982,-7.9981857136992911,-8.28255791266433,-8.566930111629059,-8.8513023105934483,-9.1356745095575,-9.42004670852122,-9.7044189074846177,-9.9887911064476747,-10.273163305410401,-10.557535504372794,-10.841907703334869,-11.126279902296599,-11.410652101257993,-11.695024300219057,-11.979396499179806,-12.263768698140192,-12.548140897100275,-12.83251309606,0,0.0087598685813963777,0.020811418154489048,0.039166075910107456,0.066094605685564023,0.10175984360737744,0.14618942976008384,0.19935121060788413,0.26114661186902877,0.33137305095729996,0.38334116813495434,0.50443972440395313
DP 345,207.57179417537159,0.0020203143064644147,-29.168783452392081,-28.570006935346839,-27.971230418300681,-27.37245390125366,-26.773677384205769,-26.174900867156953,-25.576124350107278,-24.977347833056736,-24.3785713160053,-23.779794798952995,-23.181018281899775,-22.582241764845683,-21.983465247790708,-21.384688730734862,-20.785912213678134,-20.187135696620505,-19.588359179562012,-18.989582662502627,-18.390806145442365,-17.792029628381194,-17.19785296830441,-16.645075455892236,-16.092297943479178,-15.539520431065226,-14.986742918650396,-14.433965406234668,-13.881187893818028,-13.328410381400539,-12.775632868982129,-12.222855356562828,-11.670077844142657,-11.117300331721568,-10.56452281929962,-10.011745306876763,-9.4589677944530148,-8.9061902820283745,-8.3534127696028513,-7.8006352571764417,-7.2478577447491181,-6.695080232320926,-6.1610616000647,-5.7020793750698155,-5.2430971500740231,-4.7841149250773212,-4.3251327000797168,-3.8661504750812004,-3.4071682500817735,-2.9481860250814402,-2.4892038000802006,-2.0302215750780519,-1.5712393500749935,-1.1122571250710227,-0.65327490006614741,-0.19429267506036221,0.26468954994633093,0.7236717749539322,1.1826539999624424,1.6416362249718577,2.1006184499821821,2.5596006749934128,2.9779612766236174,3.3015368104792704,3.6251123443358488,3.9486878781933594,4.27226341205178,4.5958389459111313,4.9194144797714054,5.2429900136326015,5.5665655474947258,5.8901410813577693,6.2137166152217391,6.5372921490866309,6.8608676829524393,7.1844432168191794,7.5080187506868459,7.8315942845554343,8.1551698184249464,8.47874535229538,8.8023208861667346,9.125896420039016,9.3809198393571318,9.5331134669135782,9.6853070944709749,9.8375007220293043,9.9896943495885786,10.1418879771488,10.294081604709955,10.446275232272059,10.598468859835094,10.75066248739909,10.902856114964015,11.055049742529896,11.207243370096712,11.359436997664456,11.511630625233158,11.663824252802799,11.816017880373378,11.968211507944911,12.120405135517373,12.272598763090784,12.226759383214485,12.177984525834111,12.129209668454692,12.080434811076227,12.03165995369873,11.982885096322184,11.934110238946616,11.885335381571984,11.836560524198324,11.787785666825618,11.739010809453868,11.69023595208308,11.641461094713257,11.592686237344386,11.543911379976473,11.495136522609519,11.446361665243529,11.397586807878492,11.21442160062319,10.941660709627628,10.668899818633069,10.396138927639511,10.12337803664696,9.8506171456553968,9.57785625466486,9.30509536367532,9.0323344726867774,8.7595735816992431,8.4868126907127142,8.2140517997271925,7.9412909087426673,7.668530017759152,7.3957691267766323,7.1230082357951252,6.8502473448146137,6.5774864538351157,6.3047255628566088,6.0319646718791233,5.5905777024596883,5.0769201367305481,4.563262571002392,4.0496050052752386,3.5359474395490582,3.0222898738238873,2.5086323080997039,1.9949747423764896,1.4813171766542916,0.96765961093306219,0.45400204521283544,-0.059655520506406316,-0.57331308622464949,-1.0869706519419198,-1.6006282176581799,-2.1142857833734623,-2.6279433490877477,-3.1416009148010411,-3.6552584805133539,-4.1689160462246715,-4.8842798871221085,-5.6500726800215446,-6.4158654729199105,-7.1816582658172088,-7.9474510587134537,-8.713243851608631,-9.4790366445027576,-10.244829437395792,-11.010622230287781,-11.776415023178712,-12.542207816068572,-13.308000608957373,-14.073793401845093,-14.839586194731774,-15.605378987617367,-16.371171780501907,-17.136964573385381,-17.902757366267807,-18.668550159149149,-19.434342952029439,-20.432921388247841,-21.45736734076068,-22.481813293272456,-23.506259245783088,-24.530705198292676,-25.555151150801183,-26.579597103308572,-27.604043055814873,-28.628489008320134,-29.6529349608243,-30.677380913327358,-31.701826865829339,-32.726272818330287,-33.750718770830069,-34.775164723328814,-35.799610675826436,-36.824056628323014,-37.848502580818469,-38.872948533312886,-39.897394485806153,0,0.022248092309384522,0.06097868800044496,0.12478113258325296,0.21910008040766318,0.34447610401633544,0.50107326302457156,0.68878204556094769,0.90719410870315464,1.1554878217905344,1.3398775043138995,1.7680585890445744
DP 346,152.69907271219586,0.0024554221974934509,-29.173532785890611,-28.615533453844606,-28.057534121797804,-27.499534789750218,-26.941535457701811,-26.3835361256526,-25.825536793602577,-25.267537461551768,-24.709538129500157,-24.151538797447714,-23.59353946539451,-23.03554013334049,-22.477540801285674,-21.919541469230019,-21.361542137173583,-20.803542805116344,-20.245543473058312,-19.687544140999464,-19.129544808939823,-18.571545476879344,-18.017663106883312,-17.5008337846264,-16.98400446236867,-16.467175140110129,-15.950345817850772,-15.43351649559059,-14.916687173329594,-14.399857851067791,-13.883028528805157,-13.366199206541721,-12.849369884277467,-12.332540562012381,-11.815711239746488,-11.298881917479774,-10.782052595212249,-10.265223272943912,-9.7483939506747515,-9.23156462840478,-8.71473530613399,-8.197905983862384,-7.6979889588874846,-7.2657219224005445,-6.8334548859127571,-6.4011878494241108,-5.968920812934627,-5.5366537764442771,-5.1043867399530853,-4.6721197034610382,-4.239852666968142,-3.8075856304743905,-3.3753185939797876,-2.943051557484333,-2.5107845209880266,-2.0785174844908694,-1.646250447992859,-1.2139834114939954,-0.78171637499428281,-0.34944933849371962,0.082817698007692911,0.51508473450995984,0.91029368566547064,1.219032603404524,1.5277715211444485,1.8365104388852387,2.1452493566268944,2.4539882743694208,2.762727192112814,3.0714661098570764,3.3802050276022042,3.6889439453482007,3.997682863095064,4.306421780842796,4.6151606985913958,4.9238996163408633,5.2326385340912021,5.5413774518424068,5.85011636959448,6.15885528734742,6.4675942051012205,6.7763331228558981,7.0215834816294915,7.1715995016561012,7.3216155216836132,7.471631541712016,7.621647561741324,7.7716635817715343,7.9216796018026443,8.07169562183465,8.2217116418675538,8.3717276619013514,8.5217436819360621,8.6717597019716575,8.8217757220081587,8.9717917420455571,9.12180776208386,9.27182378212305,9.4218398021631522,9.5718558222041477,9.7218718422460366,9.8718878622888386,9.8485532110484719,9.8092157885859468,9.7698783661243489,9.7305409436636712,9.6912035212039154,9.65186609874508,9.6125286762871731,9.573191253830176,9.5338538313741168,9.4945164089189618,9.4551789864647411,9.41584156401145,9.37650414155906,9.3371667191076071,9.29782929665707,9.2584918742074631,9.21915445175877,9.1798170293110015,9.0116103641556364,8.7574888403597466,8.503367316564832,8.2492457927709015,7.9951242689779427,7.74100274518595,7.4868812213949534,7.2327596976049335,6.9786381738158845,6.7245166500278168,6.4703951262407342,6.2162736024546241,5.9621520786694981,5.7080305548853474,5.45390903110217,5.1997875073199831,4.9456659835387615,4.6915444597585285,4.4374229359792725,4.1833014122009962,3.7648228901494383,3.275903435220628,2.7869839802927809,2.2980645253659056,1.8091450704399845,1.3202256155150509,0.831306160591078,0.34238670566805435,-0.14653274925398205,-0.6354522041750682,-1.1243716590951753,-1.613291114014322,-2.1022105689324935,-2.5911300238497144,-3.08004947876595,-3.5689689336812314,-4.05788838859554,-4.54680784350888,-5.0357272984212571,-5.5246467533326644,-6.2127717019305928,-6.9507003776082934,-7.6886290532849522,-8.4265577289605478,-9.1644864046350918,-9.90241508030858,-10.640343755981014,-11.378272431652393,-12.116201107322702,-12.854129782991986,-13.59205845866018,-14.329987134327352,-15.067915809993425,-15.805844485658493,-16.543773161322477,-17.281701836985416,-18.019630512647296,-18.757559188308125,-19.4954878639679,-20.2334165396266,-21.20323381619858,-22.198818928263314,-23.194404040327015,-24.189989152389568,-25.1855742644511,-26.181159376511502,-27.176744488570822,-28.172329600629055,-29.16791471268629,-30.163499824742367,-31.159084936797367,-32.154670048851287,-33.15025516090413,-34.145840272955915,-35.141425385006578,-36.137010497056195,-37.1325956091047,-38.128180721152106,-39.12376583319849,-40.1193509452437,0,0.02354404994738107,0.062272954475481479,0.12493582977778969,0.21742805371877205,0.34026528340513806,0.49358731158813035,0.677283654046086,0.89096618723262511,1.1338538441434876,1.3141328796909637,1.7331779854139393
DP 347,68.284561505988478,0.0058624903560819,-37.440416566403961,-36.959551180178757,-36.47868579395324,-35.997820407727396,-35.516955021501275,-35.036089635274884,-34.555224249048173,-34.0743588628212,-33.5934934765939,-33.112628090366293,-32.631762704138431,-32.150897317910257,-31.670031931681773,-31.189166545453,-30.708301159223897,-30.227435772994561,-29.746570386764891,-29.265705000534922,-28.784839614304683,-28.303974228074104,-27.826584936835381,-27.38048082910101,-26.934376721366288,-26.488272613631189,-26.042168505895788,-25.596064398159971,-25.149960290423817,-24.703856182687332,-24.257752074950481,-23.811647967213293,-23.365543859475753,-22.919439751737848,-22.473335643999597,-22.027231536260977,-21.581127428522038,-21.135023320782736,-20.688919213043075,-20.242815105303052,-19.796710997562705,-19.350606889821982,-18.918813443087718,-18.544263316721949,-18.16971319035569,-17.79516306398887,-17.420612937621542,-17.046062811253716,-16.671512684885336,-16.296962558516476,-15.922412432147091,-15.547862305777169,-15.173312179406738,-14.798762053035786,-14.424211926664318,-14.049661800292332,-13.675111673919826,-13.3005615475468,-12.926011421173248,-12.551461294799189,-12.176911168424617,-11.802361042049522,-11.459362716575422,-11.189986253988202,-10.920609791400434,-10.651233328812138,-10.381856866223297,-10.112480403633921,-9.8431039410439976,-9.57372747845354,-9.3043510158625455,-9.0349745532710184,-8.7655980906789459,-8.4962216280863441,-8.2268451654931916,-7.9574687028995044,-7.6880922403052825,-7.4187157777105215,-7.149339315115216,-6.8799628525193723,-6.610586389923,-6.34120992732608,-6.1262597319648648,-5.992950223584609,-5.8596407152037004,-5.7263312068221159,-5.5930216984398688,-5.4597121900569672,-5.3264026816733949,-5.1930931732891628,-5.0597836649042724,-4.9264741565187071,-4.7931646481324872,-4.6598551397456056,-4.5265456313580543,-4.3932361229698467,-4.25992661458097,-4.1266171061914365,-3.9933075978012349,-3.8599980894103685,-3.7266885810188386,-3.5933790726266528,-3.6027146930609995,-3.6331111523865509,-3.6635076117113674,-3.6939040710354551,-3.7243005303588017,-3.7546969896814208,-3.7850934490032975,-3.8154899083244516,-3.8458863676448654,-3.8762828269645482,-3.9066792862834947,-3.9370757456017054,-3.9674722049191886,-3.9978686642359356,-4.0282651235519467,-4.0586615828672272,-4.0890580421817724,-4.1194545014955812,-4.2621695745608159,-4.4797654928952575,-4.69736141122881,-4.9149573295615,-5.1325532478933038,-5.3501491662242291,-5.5677450845542706,-5.7853410028834418,-6.0029369212117327,-6.22053283953914,-6.4381287578656634,-6.6557246761913209,-6.8733205945160893,-7.0909165128399749,-7.3085124311629919,-7.5261083494851153,-7.74370426780638,-7.9613001861267545,-8.1788961044462472,-8.3964920227648623,-8.7584627353083189,-9.1823103091719691,-9.6061578830347241,-10.030005456896609,-10.45385303075763,-10.877700604617756,-11.301548178477006,-11.725395752335396,-12.149243326192908,-12.573090900049538,-12.996938473905292,-13.420786047760172,-13.844633621614154,-14.268481195467288,-14.692328769319525,-15.116176343170896,-15.540023917021392,-15.963871490871007,-16.387719064719743,-16.811566638567609,-17.411409978808887,-18.055254340078353,-18.699098701346728,-19.342943062614037,-19.986787423880248,-20.630631785145383,-21.274476146409459,-21.918320507672423,-22.562164868934325,-23.206009230195146,-23.849853591454863,-24.493697952713518,-25.137542313971093,-25.7813866752276,-26.425231036483012,-27.069075397737347,-27.712919758990573,-28.356764120242776,-29.000608481493845,-29.644452842743856,-30.493987408213826,-31.366378601063886,-32.238769793912837,-33.1111609867606,-33.983552179607223,-34.855943372452664,-35.728334565296983,-36.600725758140172,-37.4731169509822,-38.345508143823082,-39.217899336662782,-40.090290529501395,-40.9626817223388,-41.835072915175061,-42.707464108010178,-43.579855300844159,-44.452246493676988,-45.3246376865086,-46.19702887933915,-47.0694200721685,0,0.040686487667758543,0.08483441312819,0.14459905397442913,0.2303669359377897,0.34305223048444067,0.4828194031882615,0.6496444469203474,0.84336099491404326,1.0634998002692824,1.2246968822960307,1.6013637922277886
DP 348,188.0875104114036,0.0026886268873677964,-36.500096454478708,-35.766262696804226,-35.032428939128629,-34.298595181451994,-33.564761423774222,-32.830927666095405,-32.0970939084155,-31.363260150734515,-30.629426393052423,-29.895592635369248,-29.161758877685028,-28.42792511999971,-27.694091362313326,-26.960257604625795,-26.226423846937216,-25.49259008924756,-24.758756331556814,-24.024922573864991,-23.291088816172064,-22.557255058478077,-21.828965105559611,-21.150569919653968,-20.472174733747256,-19.793779547839407,-19.11538436193047,-18.43698917602045,-17.758593990109325,-17.080198804197103,-16.401803618283793,-15.723408432369405,-15.045013246453886,-14.3666180605373,-13.688222874619607,-13.009827688700824,-12.331432502780956,-11.653037316859981,-10.974642130937911,-10.296246945014751,-9.6178517590904917,-8.939456573165149,-8.2837378653458327,-7.7187261416758641,-7.1537144180047774,-6.5887026943325617,-6.0236909706592279,-5.4586792469847687,-4.8936675233091886,-4.3286557996324824,-3.7636440759546583,-3.198632352275709,-2.6336206285956352,-2.0686089049144352,-1.5035971812321156,-0.93858545754867118,-0.373573733864105,0.19143798982158552,0.75644971350839685,1.3214614371963298,1.8864731608853835,2.4514848845755619,2.9671506853733658,3.3676744446560005,3.7681982039397806,4.1687219632247,4.5692457225107566,4.9697694817979636,5.3702932410863138,5.7708170003758035,6.1713407596664327,6.5718645189582121,6.9723882782511239,7.3729120375451789,7.7734357968403867,8.1739595561367313,8.5744833154342182,8.97500707473284,9.3755308340326167,9.7760545933335372,10.176578352635589,10.577102111938791,10.893824506416774,11.084842873376926,11.275861240338255,11.466879607300752,11.657897974264424,11.848916341229264,12.039934708195274,12.230953075162448,12.421971442130811,12.612989809100316,12.804008176071013,12.995026543042881,13.186044910015909,13.377063276990107,13.568081643965474,13.759100010942017,13.950118377919726,14.141136744898619,14.332155111878668,14.523173478859894,14.477588092863316,14.42114979727104,14.364711501679944,14.308273206090039,14.251834910501337,14.195396614913824,14.138958319327507,14.082520023742365,14.02608172815844,13.969643432575701,13.913205136994161,13.856766841413807,13.800328545834653,13.743890250256687,13.687451954679904,13.631013659104328,13.57457536352994,13.518137067956763,13.294984985112658,12.960687751060469,12.626390517009531,12.29209328295984,11.957796048911414,11.623498814864227,11.289201580818309,10.954904346773631,10.620607112730211,10.286309878688046,9.9520126446471462,9.61771541060749,9.28341817656909,8.9491209425319482,8.6148237084960542,8.2805264744614142,7.9462292404280168,7.6119320063958922,7.2776347723650154,6.9433375383353981,6.3983979561312152,5.7631802375242307,5.12796251891848,4.4927448003139725,3.8575270817106877,3.2223093631086663,2.5870916445078742,1.9518739259082942,1.31665620730998,0.68143848871288459,0.046220770117037693,-0.588996948477579,-1.2242146670709468,-1.8594323856630979,-2.4946501042539886,-3.1298678228436576,-3.7650855414320805,-4.4003032600192649,-5.0355209786052191,-5.6707386971899369,-6.5593504140145615,-7.5113136243068181,-8.46327683459774,-9.4152400448873266,-10.367203255175585,-11.319166465462501,-12.271129675748103,-13.223092886032333,-14.175056096315242,-15.127019306596845,-16.078982516877076,-17.030945727156,-17.982908937433528,-18.934872147709804,-19.8868353579847,-20.838798568258269,-21.790761778530516,-22.742724988801424,-23.694688199070978,-24.646651409339214,-25.892139668320144,-27.170244904325628,-28.448350140329786,-29.72645537633251,-31.00456061233394,-32.282665848333927,-33.5607710843326,-34.838876320329867,-36.11698155632584,-37.395086792320392,-38.673192028313615,-39.951297264305509,-41.229402500295969,-42.507507736285106,-43.785612972272844,-45.063718208259218,-46.341823444244284,-47.619928680227943,-48.898033916210281,-50.176139152191141,0,0.02838918561178403,0.077100724798309817,0.15696773355354068,0.27498596902530664,0.431825930304945,0.6276856833385791,0.86242707869568358,1.1355432344511496,1.4460142390747688,1.6765509738261426,2.2120367624969415
DP 349,81.745530747740432,0.0014860171496240606,-11.061782110922671,-10.89898050972139,-10.736178908519964,-10.573377307318379,-10.410575706116642,-10.247774104914745,-10.084972503712706,-9.9221709025105049,-9.7593693013081531,-9.5965677001056449,-9.4337660989029839,-9.27096449770016,-9.1081628964971948,-8.9453612952940649,-8.7825596940907857,-8.61975809288736,-8.4569564916837674,-8.29415489048002,-8.1313532892761238,-7.9685516880720764,-7.8069278947013387,-7.6559044831630887,-7.5048810716246726,-7.3538576600860965,-7.2028342485473482,-7.0518108370084311,-6.90078742546935,-6.7497640139300961,-6.5987406023906772,-6.4477171908511,-6.2966937793113438,-6.1456703677714284,-5.9946469562313425,-5.84362354469109,-5.6926001331506777,-5.5415767216100829,-5.3905533100693317,-5.2395298985284073,-5.0885064869873187,-4.9374830754460666,-4.7913112809810787,-4.6645461841158147,-4.5377810872503472,-4.41101599038467,-4.2842508935187906,-4.157485796652705,-4.030720699786408,-3.9039556029199165,-3.7771905060532154,-3.6504254091863051,-3.5236603123191945,-3.3968952154518779,-3.2701301185843539,-3.1433650217166216,-3.0165999248486894,-2.8898348279805468,-2.7630697311122021,-2.6363046342436522,-2.5095395373748968,-2.382774440505933,-2.2667020694703961,-2.1755797289471164,-2.0844573884236208,-1.9933350478999139,-1.9022127073759947,-1.811090366851867,-1.7199680263275263,-1.6288456858029732,-1.5377233452782089,-1.4466010047532332,-1.3554786642280454,-1.2643563237026474,-1.1732339831770362,-1.0821116426512156,-0.990989302125182,-0.89986696159893642,-0.80874462107248046,-0.71762228054581145,-0.62649994001893194,-0.53537759949184094,-0.46270021050181181,-0.41769068468337239,-0.37268115886469322,-0.32767163304577263,-0.28266210722661078,-0.23765258140720871,-0.19264305558756589,-0.1476335297676821,-0.10262400394755856,-0.057614478127192871,-0.0126049523065876,0.03240457351425885,0.077414099335346445,0.12242362515667334,0.16743315097824263,0.21244267680005183,0.25745220262210183,0.30246172844439434,0.3474712542669256,0.39248078008969733,0.3888576206051817,0.37840634680251561,0.36795507300010721,0.35750379919795722,0.34705252539606518,0.33660125159442966,0.32614997779305477,0.31569870399193467,0.30524743019107525,0.29479615639047207,0.2843448825901283,0.273893608790043,0.2634423349902133,0.25299106119064274,0.24253978739133067,0.2320885135922762,0.22163723979347952,0.2111859659949416,0.16269004818778177,0.088830435030558041,0.014970821873630849,-0.058888791283004671,-0.1327484044393453,-0.2066080175953931,-0.28046763075114328,-0.3543272439066007,-0.42818685706176474,-0.50204647021663407,-0.57590608337120641,-0.64976569652548677,-0.72362530967947292,-0.79748492283316175,-0.87134453598655992,-0.94520414913966055,-1.0190637622924708,-1.0929233754449839,-1.1667829885972008,-1.2406426017491257,-1.363388223621756,-1.5070856522024,-1.6507830807827504,-1.7944805093628093,-1.938177937942579,-2.0818753665220497,-2.22557279510123,-2.3692702236801231,-2.5129676522587165,-2.6566650808370231,-2.8003625094150344,-2.9440599379927521,-3.0877573665701776,-3.2314547951473127,-3.375152223724148,-3.5188496523007005,-3.6625470808769536,-3.8062445094529176,-3.9499419380285894,-4.0936393666039645,-4.296924509031931,-4.5151072839653956,-4.7332900588985138,-4.9514728338312892,-5.1696556087637155,-5.3878383836958044,-5.6060211586275406,-5.8242039335589384,-6.0423867084899863,-6.2605694834206966,-6.4787522583510553,-6.6969350332810782,-6.9151178082107387,-7.1333005831400715,-7.35148335806905,-7.5696661329976971,-7.7878489079259818,-8.0060316828539335,-8.2242144577815353,-8.44239723270879,-8.7302108946939949,-9.0257620532005891,-9.3213132117068209,-9.616864370212685,-9.9124155287181974,-10.20796668722334,-10.503517845728121,-10.799069004232525,-11.094620162736595,-11.390171321240285,-11.685722479743623,-11.981273638246599,-12.276824796749207,-12.572375955251454,-12.867927113753339,-13.163478272254856,-13.459029430756015,-13.754580589256813,-14.050131747757261,-14.345682906257311,0,0.010821336990616907,0.024201234578908867,0.04366639791196162,0.0720321971100041,0.10950816951179533,0.15612477675552211,0.21185342287914885,0.27660542820460809,0.35018819551207209,0.40445974203310392,0.53109656916162362
DP 350,113.19427499801789,0.0011763077073150185,-11.338488847077469,-11.141528239039827,-10.944567631001917,-10.747607022963772,-10.550646414925366,-10.353685806886711,-10.156725198847795,-9.9597645908086214,-9.762803982769201,-9.56584337472953,-9.3688827666895946,-9.17192215864941,-8.97496155060897,-8.7780009425682817,-8.5810403345273265,-8.38407972648613,-8.1871191184446737,-7.9901585104029627,-7.7931979023610047,-7.5962372943187875,-7.4007083320319422,-7.2180643168707039,-7.0354203017092081,-6.8527762865474573,-6.6701322713854321,-6.487488256223152,-6.3048442410606089,-6.1222002258978039,-5.9395562107347333,-5.7569121955714051,-5.5742681804078131,-5.3916241652439583,-5.2089801500798378,-5.0263361349154589,-4.8436921197508163,-4.6610481045859142,-4.4784040894207457,-4.2957600742553153,-4.1131160590896272,-3.9304720439236709,-3.753723702637831,-3.60055833551096,-3.4473929683837992,-3.29422760125635,-3.1410622341286234,-2.9878968670006092,-2.8347314998723077,-2.6815661327437184,-2.5284007656148457,-2.3752353984856867,-2.2220700313562411,-2.0689046642265083,-1.9157392970964915,-1.7625739299661871,-1.6094085628355974,-1.4562431957047217,-1.3030778285735605,-1.1499124614421141,-0.99674709431038178,-0.84358172717836322,-0.70339237915363906,-0.59348081788774742,-0.48356925662156247,-0.37365769535508586,-0.26374613408831743,-0.15383457282125618,-0.043923011553902824,0.065988549713743086,0.17590011098168129,0.28581167224991083,0.39572323351843286,0.50563479478724693,0.61554635605635533,0.72545791732575371,0.83536947859544608,0.94528103986542977,1.0551926011357062,1.1651041624062752,1.2750157236771364,1.3849272849482872,1.4724880371262055,1.5265220475003307,1.5805560578747671,1.6345900682495156,1.6886240786245761,1.7426580889999448,1.7966920993756272,1.8507261097516206,1.9047601201279254,1.9587941305045407,2.012828140881469,2.066862151258706,2.120896161636256,2.174930172014117,2.2289641823922897,2.2829981927707723,2.3370322031495676,2.3910662135286738,2.4451002239080935,2.4991342342878213,2.4935489048315285,2.4805078441729065,2.4674667835146074,2.45442572285663,2.44138466219898,2.4283436015416529,2.4153025408846478,2.4022614802279669,2.3892204195716111,2.3761793589155769,2.3631382982598685,2.350097237604484,2.3370561769494209,2.3240151162946838,2.3109740556402696,2.2979329949861786,2.2848919343324114,2.271850873678968,2.2128784783632307,2.1232844696836652,2.0336904610044537,1.9440964523255884,1.8545024436470787,1.7649084349689164,1.675314426291109,1.5857204176136535,1.4961264089365476,1.4065324002597939,1.3169383915833952,1.2273443829073449,1.137750374231647,1.0481563655563018,0.95856235688130609,0.8689683482066648,0.77937433953237056,0.68978033085843149,0.6001863221848458,0.51059231351161094,0.36208379893239168,0.18832541486407889,0.014567030796113628,-0.15919135327150127,-0.332949737338773,-0.50670812140568888,-0.68046650547225929,-0.85422488953848685,-1.0279832736043593,-1.2017416576698896,-1.3755000417350685,-1.5492584257999009,-1.7230168098643817,-1.8967751939285191,-2.0705335779923018,-2.2442919620557422,-2.41805034611883,-2.591808730181572,-2.765567114243964,-2.93932549830601,-3.1848074409489242,-3.4482211206671867,-3.7116348003850566,-3.9750484801025388,-4.23846215981963,-4.5018758395363312,-4.7652895192526428,-5.0287031989685618,-5.2921168786840962,-5.5555305583992416,-5.8189442381139873,-6.0823579178283511,-6.3457715975423117,-6.6091852772559028,-6.8725989569690933,-7.1360126366818921,-7.3994263163942993,-7.6628399961063192,-7.9262536758179456,-8.1896673555292,-8.5368173297902832,-8.893272216212802,-9.2497271026349281,-9.606181989056628,-9.9626368754779335,-10.319091761898834,-10.675546648319331,-11.032001534739424,-11.388456421159111,-11.744911307578398,-12.101366193997286,-12.457821080415776,-12.81427596683384,-13.170730853251518,-13.527185739668793,-13.883640626085661,-14.240095512502121,-14.596550398918188,-14.953005285333855,-15.309460171749086,0,0.00976811783815876,0.024290990271901024,0.047037996671170007,0.080515032270917913,0.12491042317703244,0.18026368134452145,0.24653388408982815,0.32358948479950855,0.41116431714622753,0.47607377234914611,0.62717271461536539
DP 351,296.56256657476632,0.0032941327085839627,-59.8245828056516,-58.509287259154576,-57.193991712655617,-55.878696166154931,-54.563400619652455,-53.248105073148153,-51.932809526642046,-50.617513980134191,-49.302218433624489,-47.98692288711301,-46.671627340599741,-45.356331794084653,-44.0410362475678,-42.725740701049105,-41.410445154528638,-40.095149608006366,-38.7798540614823,-37.464558514956416,-36.149262968428765,-34.833967421899295,-33.529800518973211,-32.325792460419159,-31.121784401863327,-29.917776343305647,-28.713768284746187,-27.509760226184902,-26.305752167621865,-25.101744109057,-23.8977360504903,-22.693727991921811,-21.489719933351537,-20.285711874779441,-19.08170381620555,-17.87769575762983,-16.673687699052333,-15.469679640473016,-14.2656715818919,-13.061663523308976,-11.857655464724248,-10.65364740613771,-9.4942466936541816,-8.5132774737933676,-7.5323082539307338,-6.5513390340662889,-5.5703698142000269,-4.589400594331952,-3.6084313744620622,-2.6274621545903534,-1.6464929347168349,-0.66552371484150152,0.31544550503565216,1.2964147249146272,2.2773839447954107,3.2583531646780122,4.2393223845624277,5.22029160444866,6.2012608243367016,7.1822300442265625,8.1631992641182212,9.1441684840117148,10.031224823408055,10.69914814935208,11.367071475297958,12.034994801245679,12.702918127195236,13.370841453146634,14.038764779099894,14.706688105054972,15.374611431011923,16.042534756970696,16.710458082931307,17.378381408893762,18.046304734858069,18.714228060824222,19.382151386792213,20.05007471276204,20.717998038733722,21.385921364707229,22.053844690682606,22.721768016659805,23.236990761640509,23.52315902671393,23.809327291789213,24.095495556866393,24.381663821945388,24.667832087026245,24.954000352108984,25.240168617193568,25.526336882280017,25.812505147368341,26.098673412458528,26.384841677550561,26.671009942644492,26.957178207740231,27.243346472837857,27.529514737937344,27.8156830030387,28.101851268141917,28.38801953324699,28.674187798353916,28.461583468268149,28.31930727327147,28.177031078276702,28.034754883283838,27.892478688292826,27.750202493303703,27.607926298316496,27.465650103331129,27.323373908347666,27.181097713366118,27.0388215183864,26.896545323408624,26.754269128432693,26.611992933458612,26.46971673848649,26.327440543516229,26.185164348547861,26.042888153581334,25.627246713238371,25.029357469460592,24.431468225684785,23.833578981910907,23.235689738138991,22.637800494369046,22.039911250601051,21.442022006835014,20.844132763070888,20.246243519308756,19.648354275548577,19.050465031790345,18.452575788034078,17.854686544279765,17.256797300527381,16.658908056776987,16.061018813028504,15.463129569282017,14.865240325537471,14.267351081794873,13.341699020953023,12.275572755535125,11.209446490119136,10.143320224705093,9.0771939592929431,8.0110676938827687,6.94494142847449,5.8788151630681185,4.8126888976637137,3.7465626322611949,2.6804363668606275,1.614310101461977,0.54818383606526644,-0.51794242932955248,-1.5840686947224034,-2.6501949601133568,-3.7163212255023712,-4.7824474908894512,-5.84857375627463,-6.9147000216578656,-8.3581277703230779,-9.8958853477114683,-11.433642925097821,-12.971400502482135,-14.509158079864397,-16.046915657244604,-17.584673234622784,-19.122430811998893,-20.660188389372983,-22.197945966745053,-23.73570354411499,-25.273461121482967,-26.811218698848815,-28.348976276212703,-29.886733853574508,-31.424491430934257,-32.962249008291984,-34.500006585647668,-36.037764163001263,-37.575521740352833,-39.537605029872552,-41.546840077190673,-43.556075124506776,-45.565310171820776,-47.574545219132666,-49.583780266442524,-51.593015313750257,-53.602250361055894,-55.611485408359556,-57.620720455661036,-59.629955502960449,-61.6391905502579,-63.648425597553178,-65.657660644846459,-67.6668956921375,-69.6761307394266,-71.685365786713589,-73.694600833998422,-75.703835881281378,-77.713070928562018,0,0.041099098800825878,0.11509525219762937,0.23845382927138606,0.42102484958315961,0.66388081124588916,0.96736682954829012,1.3312747895068469,1.754799124732048,2.2363184261100257,2.5939864331230549,3.4239458032939982
DP 352,195.7884223009217,0.0012899644295811159,-17.957284853136137,-17.593122977836895,-17.228961102537134,-16.8647992272368,-16.500637351935936,-16.136475476634555,-15.772313601332614,-15.408151726030145,-15.043989850727145,-14.6798279754236,-14.315666100119515,-13.95150422481489,-13.587342349509727,-13.223180474204026,-12.859018598897794,-12.494856723591029,-12.130694848283712,-11.766532972975869,-11.402371097667475,-11.038209222358551,-10.676815814145902,-10.340338871491527,-10.003861928836612,-9.66738498618114,-9.3309080435251435,-8.99443110086859,-8.6579541582115009,-8.3214772155538661,-7.9850002728956841,-7.64852333023696,-7.3120463875777,-6.9755694449178867,-6.63909250225754,-6.30261555959664,-5.9661386169352095,-5.6296616742732271,-5.2931847316107019,-4.956707788947635,-4.6202308462840254,-4.2837539036198722,-3.958588793965788,-3.6786715509665715,-3.3987543079668,-3.118837064966471,-2.838919821965586,-2.5590025789641477,-2.2790853359621535,-1.9991680929596005,-1.7192508499564947,-1.4393336069528322,-1.1594163639486141,-0.8794991209438382,-0.599581877938508,-0.31966463493262165,-0.039747391926179168,0.24016985108081909,0.52008709408837273,0.80000433709648067,1.0799215801051434,1.3598388231143632,1.6151864598811212,1.813204241288787,2.01122202269702,2.20923980410582,2.4072575855151808,2.60527536692511,2.8032931483356025,3.0013109297466611,3.1993287111582864,3.3973464925704739,3.5953642739832277,3.79338205539655,3.991399836810432,4.1894176182248843,4.3874353996399,4.5854531810554811,4.7834709624716245,4.9814887438883391,5.1795065253056141,5.3775243067234584,5.5339158456772291,5.6278670372801036,5.721818228883552,5.8157694204875794,5.9097206120921868,6.0036718036973733,6.0976229953031353,6.1915741869094756,6.2855253785163878,6.3794765701238836,6.47342776173196,6.5673789533406168,6.6613301449498472,6.755281336559654,6.8492325281700417,6.9431837197810022,7.0371349113925437,7.1310861030046677,7.2250372946173655,7.3189884862306371,7.2943824069176015,7.2657495051341163,7.2371166033512182,7.2084837015689027,7.1798507997871788,7.1512178980060463,7.1225849962255072,7.09395209444555,7.0653191926661805,7.0366862908873991,7.0080533891092172,6.979420487331617,6.9507875855546075,6.9221546837781789,6.8935217820023471,6.8648888802271033,6.8362559784524537,6.807623076678385,6.6966343370692405,6.5307404081599723,6.3648464792513231,6.1989525503432867,6.03305862143587,5.86716469252906,5.7012707636228841,5.5353768347173213,5.3694829058123794,5.203588976908045,5.0376950480043368,4.8718011191012458,4.7059071901987739,4.5400132612969175,4.374119332395674,4.2082254034950557,4.0423314745950476,3.8764375456956652,3.7105436167968993,3.5446496878987506,3.2749694764536219,2.9608080281930427,2.6466465799330678,2.3324851316737072,2.0183236834149469,1.7041622351568111,1.3900007868992785,1.0758393386423464,0.76167789038603628,0.44751644213032554,0.13335499387523098,-0.18080645437925738,-0.494967902633131,-0.80912935088640525,-1.1232907991390577,-1.4374522473911093,-1.7516136956425477,-2.0657751438933736,-2.3799365921435958,-2.6940980403932042,-3.1328478673143576,-3.6027462609433858,-4.0726446545717607,-4.5425430481994784,-5.01244144182654,-5.4823398354529456,-5.9522382290787066,-6.4221366227037882,-6.8920350163282249,-7.36193340995201,-7.8318318035751329,-8.3017301971976067,-8.7716285908194074,-9.2415269844405756,-9.7114253780610582,-10.181323771680905,-10.651222165300087,-11.121120558918626,-11.591018952536496,-12.060917346153724,-12.674936070863669,-13.304969679307202,-13.935003287750067,-14.56503689619224,-15.19507050463376,-15.825104113074605,-16.455137721514763,-17.085171329954264,-17.715204938393121,-18.345238546831279,-18.975272155268776,-19.605305763705605,-20.235339372141748,-20.865372980577238,-21.495406589012042,-22.125440197446203,-22.755473805879667,-23.385507414312485,-24.015541022744632,-24.645574631176082,0,0.013860373111028668,0.037791652966380838,0.077108406337336746,0.13521636322705069,0.21244683941082942,0.30889888253555658,0.4245047357248965,0.55901397562897071,0.71192263378097353,0.82546923263420824,1.0891827694307936
DP 353,140.3250727214793,0.0019015385179672686,-21.352387912226064,-20.953476092258871,-20.554564272291085,-20.155652452322752,-19.756740632353861,-19.357828812384408,-18.958916992414412,-18.560005172443809,-18.161093352472676,-17.762181532500982,-17.363269712528719,-16.964357892555888,-16.5654460725825,-16.166534252608553,-15.767622432634054,-15.368710612658978,-14.969798792683337,-14.570886972707148,-14.171975152730388,-13.773063332753081,-13.377077201301889,-13.007422543138924,-12.637767884975409,-12.268113226811323,-11.898458568646658,-11.528803910481413,-11.159149252315608,-10.789494594149213,-10.419839935982262,-10.050185277814736,-9.680530619646623,-9.3108759614779526,-8.9412213033087014,-8.5715666451388746,-8.2019119869684829,-7.8322573287975006,-7.4626026706259676,-7.0929480124538431,-6.7232933542811564,-6.3536386961078941,-5.9960152717164128,-5.686517351066616,-5.3770194304162189,-5.0675215097652124,-4.7580235891136073,-4.4485256684613956,-4.1390277478085791,-3.8295298271551643,-3.5200319065011434,-3.2105339858465176,-2.9010360651912865,-2.5915381445354533,-2.2820402238790174,-1.9725423032219744,-1.6630443825643302,-1.3535464619060817,-1.0440485412472293,-0.73455062058777476,-0.42505269992771744,-0.11555477926705543,0.16753388230719662,0.38900010725695244,0.61046633220732649,0.83193255715831449,1.0533987821099173,1.2748650070621363,1.4963312320149718,1.7177974569684231,1.9392636819224895,2.16072990687717,2.382196131832464,2.6036623567883783,2.8251285817449063,3.0465948067020494,3.2680610316598084,3.4895272566181821,3.7109934815771735,3.9324597065367839,4.1539259314970032,4.3753921564578384,4.5515150671839608,4.6596219350664247,4.7677288029495335,4.8758356708332835,4.9839425387176695,5.092049406602702,5.2001562744883776,5.3082631423746891,5.4163700102616419,5.5244768781492457,5.6325837460374846,5.7406906139263629,5.84879748181589,5.95690434970605,6.0650112175968562,6.17311808548831,6.2812249533803959,6.3893318212731272,6.4974386891664988,6.6055455570605117,6.5909378512912928,6.5634731391173782,6.53600842694412,6.5085437147715171,6.4810790025995848,6.4536142904283107,6.426149578257693,6.3986848660877378,6.371220153918439,6.3437554417498037,6.3162907295818229,6.2888260174145092,6.2613613052478492,6.2338965930818535,6.206431880916524,6.1789671687518446,6.15150245658783,6.1240377444244771,6.0040761264647289,5.8224484474712019,5.6408207684783944,5.4591930894862761,5.2775654104948675,5.095937731504157,4.9143100525141579,4.7326823735248595,4.5510546945362655,4.3694270155483785,4.1877993365611959,4.00617165757472,3.824543978588939,3.6429162996038742,3.4612886206195044,3.2796609416358429,3.0980332626528835,2.916405583670632,2.7347779046890843,2.5531502257082428,2.2532851527719306,1.9027453144243514,1.5522054760774673,1.2016656377312838,0.85112579938578681,0.50058596104100062,0.15004612269690604,-0.20049371564650412,-0.55103355398920351,-0.90157339233121869,-1.2521132306725302,-1.6026530690131484,-1.9531929073530665,-2.3037327456922978,-2.6542725840308203,-3.0048124223686572,-3.3553522607057915,-3.7058920990422242,-4.0564319373779734,-4.40697177571302,-4.9010792768036939,-5.4310803898678088,-5.9610815029311626,-6.491082615993748,-7.0210837290555688,-7.551084842116631,-8.0810859551769347,-8.61108706823646,-9.1410881812952223,-9.6710892943532354,-10.201090407410465,-10.731091520466943,-11.261092633522649,-11.7910937465776,-12.321094859631776,-12.851095972685195,-13.381097085737837,-13.911098198789729,-14.441099311840853,-14.971100424891219,-15.668422204454661,-16.384336926458008,-17.100251648460603,-17.816166370462351,-18.532081092463347,-19.247995814463575,-19.963910536462972,-20.679825258461623,-21.395739980459481,-22.111654702456548,-22.827569424452829,-23.543484146448332,-24.259398868443046,-24.975313590436965,-25.691228312430095,-26.407143034422472,-27.123057756414031,-27.83897247840477,-28.554887200394827,-29.270801922383978,0,0.017503570473371522,0.045644322139310564,0.090851824361039391,0.15753909348109163,0.24607599208539571,0.35655768458755549,0.48890378864909256,0.64283816995689336,0.81780488441454069,0.94763646238669841,1.2495268099094246
DP 354,194.57395401656314,0.0039753328501153712,-55.124957800962584,-54.008540104838232,-52.892122408712247,-51.775704712584556,-50.659287016455231,-49.542869320324336,-48.426451624191706,-47.310033928057493,-46.193616231921581,-45.077198535784021,-43.960780839644848,-42.84436314350399,-41.7279454473615,-40.611527751217359,-39.495110055071585,-38.378692358924141,-37.262274662775056,-36.145856966624343,-35.029439270471954,-33.913021574317938,-32.805082366744351,-31.773450357830871,-30.741818348915775,-29.710186339998984,-28.678554331080527,-27.646922322160435,-26.615290313238638,-25.583658304315211,-24.552026295390089,-23.520394286463322,-22.488762277534892,-21.457130268604779,-20.425498259673006,-19.39386625073957,-18.362234241804479,-17.330602232867722,-16.298970223929292,-15.267338214989184,-14.235706206047411,-13.204074197104003,-12.207091936525245,-11.348710307005476,-10.490328677483998,-9.6319470479608142,-8.7735654184359291,-7.9151837889093422,-7.0568021593810446,-6.1984205298510471,-5.34003890031935,-4.4816572707859468,-3.6232756412508325,-2.7648940117140106,-1.9065123821754879,-1.0481307526352595,-0.18974912309332612,0.668632506450312,1.5270141359956539,2.3853957655426963,3.2437773950914375,4.1021590246418915,4.885257654413377,5.4926935793887273,6.1001295043658148,6.7075654293446352,7.3150013543251893,7.9224372793074762,8.529873204291496,9.1373091292772539,9.74474505426474,10.352180979253971,10.959616904244914,11.567052829237602,12.174488754232028,12.781924679228192,13.389360604226084,13.996796529225721,14.60423245422707,15.21166837923017,15.819104304234996,16.426540229241553,16.906381697006339,17.19482846376961,17.483275230534638,17.771721997301455,18.060168764070045,18.348615530840405,18.637062297612548,18.925509064386436,19.213955831162121,19.502402597939593,19.79084936471882,20.079296131499813,20.367742898282597,20.656189665067135,20.944636431853453,21.233083198641548,21.521529965431412,21.809976732223053,22.098423499016477,22.386870265811645,22.31241971271993,22.224949427482464,22.137479142246832,22.05000885701299,21.962538571780975,21.87506828655075,21.787598001322305,21.700127716095729,21.612657430870925,21.525187145647934,21.437716860426747,21.350246575207372,21.262776289989795,21.175306004774036,21.087835719560072,21.000365434347923,20.912895149137583,20.825424863929044,20.485287943208373,19.976702618375779,19.468117293545088,18.959531968716259,18.450946643889367,17.94236131906435,17.433775994241234,16.925190669420012,16.416605344600669,15.908020019783232,15.399434694967718,14.890849370154077,14.382264045342337,13.87367872053248,13.365093395724529,12.85650807091848,12.347922746114305,11.839337421312047,11.330752096511679,10.822166771713215,9.9950307111080612,9.031368605158308,8.0677064992104235,7.1040443932644184,6.1403822873202536,5.1767201813780135,4.2130580754376235,3.2493959694990755,2.285733863562434,1.3220717576276348,0.35840965169472594,-0.60525245423632235,-1.5689145601654837,-2.5325766660928068,-3.4962387720182195,-4.459900877941787,-5.4235629838634738,-6.3872250897832767,-7.3508871957012341,-8.3145493016173084,-9.6607391127264322,-11.102565369785559,-12.544391626842666,-13.986217883897751,-15.42804414095083,-16.869870398001893,-18.311696655050952,-19.753522912097967,-21.19534916914299,-22.637175426186012,-24.079001683226974,-25.520827940265971,-26.962654197302875,-28.404480454337861,-29.846306711370747,-31.288132968401683,-32.729959225430569,-34.171785482457459,-35.613611739482323,-37.055437996505191,-38.93986325887623,-40.873470836868542,-42.807078414858786,-44.740685992846949,-46.674293570833122,-48.607901148817156,-50.541508726799172,-52.475116304779057,-54.408723882757066,-56.342331460732822,-58.275939038706646,-60.209546616678374,-62.143154194648012,-64.076761772615683,-66.010369350581243,-67.943976928544743,-69.87758450650621,-71.8111920844655,-73.744799662422935,-75.678407240378121,0,0.04259990352582297,0.11608404743693836,0.23677467194102275,0.41514388250636014,0.65220817236418427,0.94827087277630329,1.3031238389317836,1.7159987713354186,2.1853494697493963,2.533876458353332,3.3433488745232278
DP 355,196.10783662417941,0.0032106243330108758,-44.739867692474967,-43.832257924286843,-42.924648156097341,-42.017038387906545,-41.109428619714357,-40.201818851520827,-39.294209083326,-38.386599315129807,-37.478989546932311,-36.571379778733437,-35.663770010533234,-34.756160242331688,-33.848550474128785,-32.940940705924575,-32.033330937719029,-31.125721169512094,-30.218111401303855,-29.310501633094272,-28.40289186488334,-27.495282096671094,-26.594574279802977,-25.755984677445323,-24.917395075086329,-24.078805472725989,-23.240215870364263,-22.401626268001181,-21.563036665636787,-20.724447063270997,-19.885857460903871,-19.047267858535406,-18.20867825616558,-17.3700886537944,-16.53149905142185,-15.692909449047962,-14.854319846672722,-14.015730244296119,-13.177140641918168,-12.33855103953886,-11.499961437158193,-10.661371834776189,-9.8509810622426777,-9.1533869418231948,-8.45579282140233,-7.75819870098007,-7.0606045805564426,-6.3630104601314157,-5.6654163397050077,-4.9678222192772177,-4.270228098848043,-3.5726339784174823,-2.8750398579855325,-2.1774457375521958,-1.4798516171174796,-0.78225749668137523,-0.084663376243886965,0.61293074419498728,1.310524864635245,2.0081189850768841,2.7057131055199091,3.4033072259643165,4.0396571631416327,4.5331020763784222,5.0265469896166293,5.5199919028562441,6.0134368160972551,6.5068817293396934,7.00032664258352,7.493771555828765,7.9872164690754266,8.4806613823234862,8.9741062955729465,9.4675512088238349,9.9609961220761214,10.45444103532982,10.94788594858492,11.441330861841442,11.934775775099364,12.428220688358689,12.921665601619431,13.415110514881587,13.804804567298159,14.038869876746991,14.272935186197287,14.507000495648994,14.741065805102144,14.975131114556747,15.209196424012793,15.443261733470273,15.677327042929193,15.911392352389564,16.145457661851363,16.379522971314596,16.613588280779279,16.847653590245418,17.081718899712971,17.315784209181981,17.549849518652426,17.783914828124306,18.017980137597622,18.252045447072405,18.190508327217938,18.119079839869112,18.047651352521761,17.97622286517587,17.904794377831475,17.833365890488523,17.761937403147051,17.690508915807037,17.619080428468497,17.547651941131413,17.476223453795818,17.404794966461665,17.333366479129005,17.26193799179779,17.190509504468054,17.119081017139784,17.047652529812986,16.976224042487654,16.699578282320605,16.286117773992128,15.872657265665207,15.459196757339811,15.045736249015956,14.632275740693634,14.21881523237286,13.805354724053627,13.391894215735922,12.978433707419756,12.564973199105141,12.151512690792067,11.738052182480528,11.324591674170536,10.911131165862056,10.497670657555146,10.084210149249756,9.6707496409459122,9.25728913264361,8.8438286243428514,8.171778325893909,7.3889003398993252,6.6060223539062575,5.8231443679147192,5.0402663819246749,4.2573883959361813,3.4745104099492017,2.6916324239637079,1.9087544379797685,1.1258764519973212,0.34299846601641149,-0.43987951996298974,-1.2227575059408593,-2.0056354919172348,-2.7885134778920637,-3.5713914638653921,-4.3542694498371919,-5.1371474358074689,-5.9200254217762405,-6.7029034077434835,-7.7961708856483751,-8.9670394038600278,-10.137907922070044,-11.308776440278423,-12.479644958485169,-13.650513476690286,-14.82138199489378,-15.992250513095598,-17.163119031295786,-18.333987549494395,-19.504856067691311,-20.675724585886631,-21.846593104080267,-23.017461622272322,-24.188330140462714,-25.359198658651472,-26.5300671768386,-27.700935695024103,-28.871804213207945,-30.042672731390162,-31.572571615921305,-33.142366534067513,-34.7121614522121,-36.28195637035499,-37.851751288496196,-39.421546206635739,-40.991341124773641,-42.561136042909808,-44.130930961044349,-45.70072587917727,-47.270520797308457,-48.840315715438024,-50.410110633565857,-51.979905551692077,-53.549700469816642,-55.119495387939459,-56.68929030606062,-58.259085224180161,-59.828880142298111,-61.398675060414142,0,0.034521552319293436,0.09414084703166696,0.19209725272652303,0.3368723522297275,0.52929170180822893,0.76960223583361209,1.0576351756569462,1.3927665020532218,1.7737404090038733,2.0566436803816104,2.7136878980211079
DP 356,163.42338633361851,0.0042601074753643242,-52.901797858337225,-51.872253159173077,-50.842708460007337,-49.813163760840126,-48.783619061671423,-47.754074362501214,-46.724529663329477,-45.694984964156255,-44.665440264981576,-43.635895565805427,-42.60635086662765,-41.576806167448453,-40.547261468267735,-39.517716769085482,-38.488172069901779,-37.458627370716592,-36.429082671529869,-35.399537972341669,-34.369993273151955,-33.340448573960735,-32.318546501557172,-31.365428792668443,-30.412311083778203,-29.459193374886443,-28.506075665993166,-27.552957957098346,-26.599840248202003,-25.646722539304132,-24.693604830404759,-23.740487121503879,-22.787369412601432,-21.834251703697518,-20.881133994792037,-19.928016285885057,-18.974898576976553,-18.021780868066518,-17.068663159154966,-16.11554545024191,-15.162427741327306,-14.209310032411206,-13.287554776380103,-12.491250814126781,-11.694946851871878,-10.898642889615394,-10.10233892735735,-9.3060349650977088,-8.5097310028365,-7.7134270405737153,-6.9171230783093494,-6.12081911604341,-5.3245151537758861,-4.5282111915067844,-3.7319072292361062,-2.935603266963851,-2.1392993046900197,-1.3429953424146088,-0.54669138013762275,0.24961258214093693,1.0459165444210725,1.8422205067027888,2.5699278297483783,3.1375741666015347,3.705220503456307,4.2728668403126875,4.8405131771706689,5.408159514030257,5.9758058508914562,6.5434521877542595,7.1110985246186749,7.6787448614846792,8.2463911983523,8.8140375352215283,9.3816838720923652,9.9493302089648044,10.516976545838851,11.084622882714504,11.652269219591764,12.219915556470626,12.787561893351105,13.355208230233174,13.805598775367427,14.080102862050335,14.354606948734922,14.629111035421161,14.903615122109054,15.178119208798631,15.452623295489833,15.727127382182697,16.001631468877221,16.276135555573411,16.550639642271232,16.825143728970744,17.099647815671904,17.374151902374724,17.648655989079174,17.923160075785308,18.197664162493083,18.472168249202522,18.746672335913651,19.021176422626375,18.9726642169521,18.898357857941068,18.824051498931741,18.749745139924094,18.675438780918149,18.601132421913924,18.526826062911358,18.452519703910511,18.378213344911334,18.303906985913894,18.229600626918131,18.155294267924059,18.080987908931672,18.006681549941003,17.932375190952026,17.858068831964744,17.783762472979145,17.709456113995262,17.398372077845224,16.929432526790656,16.46049297573791,15.991553424686934,15.522613873637741,15.053674322590357,14.584734771544774,14.115795220500983,13.646855669458965,13.177916118418755,12.708976567380338,12.240037016343718,11.771097465308879,11.302157914275851,10.833218363244598,10.364278812215153,9.8953392611874875,9.4263997101616255,8.9574601591375647,8.4885206081152962,7.7183223539600876,6.8190091591025119,5.9196959642466913,5.0203827693926639,4.1210695745403765,3.2217563796899027,2.3224431848411875,1.4231299899942134,0.52381679514904733,-0.37549639969438148,-1.2748095945360156,-2.17412278937589,-3.0734359842139769,-3.9727491790503224,-4.8720623738848641,-5.7713755687176613,-6.67068876354867,-7.5700019583779037,-8.4693151532053825,-9.368628348031077,-10.632384469374916,-11.987255628324219,-13.342126787271614,-14.696997946217065,-16.051869105160613,-17.406740264102208,-18.761611423041916,-20.116482581979668,-21.471353740915507,-22.826224899849453,-24.181096058781414,-25.535967217711498,-26.890838376639611,-28.245709535565858,-29.60058069449013,-30.9554518534125,-32.310323012332915,-33.665194171251471,-35.020065330168038,-36.374936489082693,-38.153514158161428,-39.979174778312881,-41.804835398462416,-43.6304960186099,-45.456156638755452,-47.281817258899046,-49.10747787904068,-50.933138499180245,-52.7587991193179,-54.584459739453607,-56.41012035958736,-58.235780979719131,-60.061441599848884,-61.88710221997674,-63.712762840102542,-65.538423460226369,-67.364084080348363,-69.189744700468154,-71.015405320586211,-72.841065940702165,0,0.042187943847598837,0.11268771274754066,0.22731707300563297,0.39658309425684479,0.62143488238606759,0.90213842757328844,1.2384931993956638,1.6297823192942149,2.0745641388429039,2.4047501329906567,3.172047841821199
DP 357,158.8652961087744,0.0032873062364061614,-40.0813850974233,-39.306843244102559,-38.5323013907807,-37.757759537457758,-36.983217684133628,-36.208675830808374,-35.434133977482027,-34.65959212415455,-33.885050270825936,-33.110508417496227,-32.335966564165396,-31.561424710833403,-30.786882857500323,-30.012341004166103,-29.23779915083075,-28.463257297494298,-27.688715444156717,-26.914173590818002,-26.139631737478151,-25.365089884137227,-24.596282185831654,-23.87908242487055,-23.161882663908337,-22.444682902944948,-21.727483141980446,-21.0102833810148,-20.293083620048005,-19.575883859080079,-18.858684098111,-18.141484337140785,-17.424284576169416,-16.707084815196939,-15.9898850542233,-15.27268529324853,-14.555485532272614,-13.838285771295556,-13.121086010317377,-12.403886249338033,-11.686686488357553,-10.969486727375941,-10.275828892681336,-9.6763398757623129,-9.0768508588421071,-8.47736184192073,-7.8778728249981675,-7.2783838080744045,-6.67889479114947,-6.0794057742233374,-5.4799167572960323,-4.8804277403675389,-4.280938723437858,-3.6814497065069856,-3.0819606895749363,-2.4824716726416978,-1.8829826557072733,-1.2834936387716627,-0.68400462183486976,-0.084515604896893318,0.51497341204226621,1.1144624289826131,1.6624198884911405,2.0901354236952372,2.5178509589005493,2.9455664941070623,3.3732820293147827,3.8009975645237128,4.22871309973385,4.6564286349451924,5.0841441701577477,5.5118597053715073,5.9395752405864615,6.36729077580264,6.7950063110200176,7.2227218462385956,7.6504373814583992,8.0781529166793966,8.5058684519016055,8.9335839871250275,9.3612995223496434,9.78901505757548,10.128554973074314,10.335829375336225,10.5431037775994,10.7503781798638,10.957652582129461,11.164926984396363,11.372201386664514,11.579475788933919,11.786750191204568,11.994024593476464,12.201298995749612,12.408573398024,12.615847800299628,12.823122202576506,13.030396604854662,13.23767100713402,13.444945409414668,13.65221981169652,13.85949421397966,14.066768616264032,14.032087410440898,13.976759551225809,13.921431692011986,13.866103832799455,13.810775973588198,13.75544811437822,13.700120255169532,13.644792395962106,13.589464536755953,13.534136677551087,13.47880881834751,13.423480959145202,13.368153099944159,13.312825240744402,13.257497381545933,13.202169522348733,13.146841663152808,13.091513803958168,12.857722591556875,12.504952998891037,12.152183406226564,11.799413813563433,11.446644220901662,11.09387462824124,10.741105035582169,10.388335442924456,10.035565850268094,9.6827962576130879,9.3300266649594388,8.9772570723071361,8.6244874796561817,8.2717178870066,7.9189482943583585,7.56617870171147,7.2134091090659309,6.8606395164217524,6.5078699237789266,6.155100331137457,5.575023660229542,4.8975266007108145,4.22002954119342,3.5425324816773709,2.86503542216264,2.1875383626492724,1.5100413031372342,0.83254424362650925,0.15504718411715043,-0.52244987539089693,-1.1999469348975913,-1.8774439944029568,-2.5549410539069726,-3.2324381134096782,-3.9099351729110188,-4.5874322324110413,-5.2649292919097155,-5.9424263514070548,-6.6199234109030636,-7.2974204703977277,-8.2501290183603473,-9.2716436901261954,-10.293158361890594,-11.314673033653531,-12.336187705415011,-13.357702377175048,-14.379217048933633,-15.400731720690732,-16.422246392446393,-17.443761064200629,-18.465275735953352,-19.486790407704664,-20.508305079454484,-21.5298197512029,-22.551334422949829,-23.57284909469529,-24.594363766439329,-25.615878438181891,-26.637393109923025,-27.658907781662659,-29.000567565755155,-30.377802391296164,-31.755037216835731,-33.132272042373721,-34.509506867910282,-35.886741693445316,-37.263976518978872,-38.6412113445109,-40.018446170041507,-41.395680995570551,-42.772915821098167,-44.150150646624276,-45.527385472148865,-46.904620297672025,-48.2818551231936,-49.659089948713756,-51.036324774232412,-52.413559599749576,-53.790794425265275,-55.168029250779369,0,0.03212195677152526,0.085463186663317536,0.17202311492959491,0.29981965497629026,0.4695675969784423,0.68146471047819368,0.93535893189742592,1.2307112340148303,1.5664366951559481,1.8156479918533845,2.3948335661558939
DP 358,107.31235597720361,0.0018855418896691258,-17.459174116015053,-17.16242759172949,-16.865681067443578,-16.56893454315728,-16.272188018870619,-15.97544149458359,-15.67869497029619,-15.381948446008398,-15.085201921720266,-14.788455397431751,-14.491708873142873,-14.194962348853615,-13.898215824563978,-13.601469300273985,-13.304722775983624,-13.007976251692879,-12.71122972740177,-12.414483203110295,-12.117736678818456,-11.820990154526225,-11.526398042489017,-11.251195844394122,-10.975993646298855,-10.700791448203187,-10.425589250107146,-10.150387052010727,-9.8751848539139182,-9.5999826558167154,-9.3247804577191342,-9.0495782596211711,-8.7743760615228261,-8.4991738634240921,-8.2239716653249744,-7.9487694672254641,-7.6735672691255843,-7.398365071025311,-7.1231628729246594,-6.847960674823617,-6.5727584767221963,-6.2975562786203856,-6.0312267492000444,-5.8003883138413741,-5.5695498784822783,-5.3387114431227616,-5.1078730077628167,-4.87703457240245,-4.6461961370416587,-4.4153577016804411,-4.1845192663188024,-3.9536808309567379,-3.7228423955942529,-3.4920039602313384,-3.2611655248680012,-3.030327089504242,-2.7994886541400588,-2.5686502187754452,-2.337811783410412,-2.1069733480449551,-1.8761349126790741,-1.64529647731277,-1.4339932403655957,-1.2682727485681577,-1.1025522567702819,-0.9368317649719744,-0.7711112731732328,-0.60539078137405677,-0.43967028957444715,-0.27394979777440226,-0.10822930597392444,0.057491185826987333,0.22321167762833216,0.38893216943011166,0.55465266123232682,0.72037315303497351,0.88609364483805553,1.0518141366415719,1.2175346284455224,1.383255120249907,1.5489756120547236,1.7146961038599744,1.8467520986949504,1.928310552560885,2.0098690064272868,2.0914274602941529,2.1729859141614853,2.2545443680292827,2.3361028218975481,2.4176612757662763,2.4992197296354721,2.5807781835051324,2.6623366373752568,2.7438950912458471,2.8254535451169063,2.9070119989884273,2.9885704528604173,3.07012890673287,3.1516873606057891,3.2332458144791723,3.3148042683530261,3.396362722227344,3.388340999332196,3.3688204283173042,3.3492998573029018,3.3297792862889786,3.3102587152755483,3.2907381442626003,3.2712175732501394,3.2516970022381608,3.2321764312266748,3.2126558602156687,3.1931352892051503,3.17361471819512,3.1540941471855723,3.1345735761765088,3.1150530051679373,3.0955324341598462,3.0760118631522437,3.0564912921451257,2.9677185523856147,2.8327766091458635,2.6978346659066434,2.5628927226679532,2.4279507794297936,2.2930088361921634,2.1580668929550697,2.0231249497185031,1.8881830064824661,1.7532410632469591,1.61829912001199,1.483357176777546,1.348415233543635,1.2134732903102561,1.0785313470774056,0.94358940384508827,0.80864746061329773,0.673705517382041,0.53876357415131781,0.40382163092112539,0.1800099911622409,-0.08188986141244263,-0.34378971398660174,-0.605689566560231,-0.867589419133342,-1.1294892717059164,-1.3913891242779683,-1.6532889768495027,-1.9151888294205011,-2.1770886819909814,-2.4389885345609295,-2.7008883871303544,-2.9627882396992504,-3.2246880922676273,-3.4865879448354704,-3.748487797402793,-4.0103876499695854,-4.2722875025358489,-4.5341873551015972,-4.7960872076668135,-5.1662178469529287,-5.5634074616905762,-5.9605970764276393,-6.3577866911641019,-6.75497630589997,-7.1521659206352535,-7.5493555353699389,-7.9465451501040283,-8.3437347648375262,-8.740924379570453,-9.138113994302751,-9.535303609034484,-9.9324932237656025,-10.329682838496153,-10.72687245322609,-11.124062067955443,-11.521251682684193,-11.918441297412368,-12.315630912139929,-12.712820526866913,-13.236398620697305,-13.774021206257283,-14.311643791816676,-14.849266377375423,-15.386888962933552,-15.924511548491083,-16.462134134048,-16.999756719604292,-17.537379305159966,-18.07500189071504,-18.612624476269502,-19.15024706182335,-19.687869647376573,-20.225492232929181,-20.763114818481185,-21.300737404032549,-21.838359989583321,-22.375982575133481,-22.913605160683048,-23.451227746231957,0,0.015280388679341126,0.037447009677732651,0.071872681931710619,0.1224929873918081,0.18959735089890339,0.27324242805481846,0.37336648892800095,0.4897745547360246,0.62207069023104455,0.72008307847929409,0.94831638484259473
DP 359,169.70178810071866,0.0041776756279846786,-53.147253730914692,-52.103447974156943,-51.059642217397773,-50.015836460637011,-48.972030703874687,-47.928224947110827,-46.884419190345461,-45.840613433578653,-44.796807676810218,-43.753001920040248,-42.709196163268835,-41.665390406495824,-40.621584649721271,-39.57777889294524,-38.533973136167681,-37.490167379388559,-36.446361622607924,-35.402555865825761,-34.358750109042084,-33.314944352256845,-32.278918420479776,-31.312911649170896,-30.346904877860513,-29.380898106548536,-28.414891335235033,-27.448884563919993,-26.482877792603361,-25.516871021285194,-24.550864249965485,-23.584857478644249,-22.618850707321446,-21.652843935997083,-20.686837164671193,-19.720830393343736,-18.754823622014747,-17.7888168506842,-16.822810079352102,-15.856803308018446,-14.890796536683261,-13.924789765346519,-12.990684330163054,-12.184185747298828,-11.377687164432986,-10.571188581565536,-9.7646899986965074,-8.9581914158258673,-8.15169283295363,-7.3451942500797953,-6.5386956672043564,-5.7321970843273213,-4.9256985014486805,-4.1191999185684338,-3.3127013356865915,-2.5062027528031465,-1.699704169918101,-0.89320558703145336,-0.086707004143208116,0.7197915787466358,1.5262901616380757,2.3327887445311219,3.0695923384778165,3.6437720956353292,4.2179518527944788,4.792131609955252,5.3663113671176479,5.9404911242816816,6.5146708814473477,7.0888506386146446,7.6630303957835615,8.23721015295412,8.8113899101262874,9.3855696673001,9.9597494244755449,10.53392918165261,11.108108938831313,11.682288696011648,12.256468453193602,12.830648210377189,13.40482796756241,13.979007724749255,14.434234223000043,14.711028021904969,14.987821820811572,15.264615619719848,15.541409418629804,15.818203217541427,16.094997016454748,16.371790815369732,16.648584614286403,16.925378413204747,17.202172212124768,17.478966011046474,17.755759809969845,18.0325536088949,18.309347407821633,18.586141206750046,18.862935005680143,19.139728804611909,19.416522603545349,19.693316402480459,19.640529539690732,19.564055366962457,19.487581194235869,19.411107021511004,19.334632848787869,19.258158676066433,19.181684503346727,19.105210330628715,19.02873615791243,18.952261985197865,18.875787812485015,18.799313639773874,18.722839467064439,18.646365294356748,18.569891121650755,18.493416948946496,18.416942776243914,18.340468603543066,18.024602860019655,17.549138964642264,17.073675069266677,16.598211173892885,16.122747278520905,15.647283383150729,15.171819487782392,14.696355592415843,14.220891697051108,13.745427801688175,13.269963906327073,12.794500010967772,12.319036115610272,11.843572220254609,11.368108324900732,10.892644429548675,10.417180534198419,9.9417166388499787,9.4662527435033468,8.990788848158541,8.2112203899107286,7.3013172983454036,6.3914142067818629,5.4815111152201226,4.5716080236601435,3.6617049321019879,2.7518018405456064,1.8418987489909866,0.9319956574381898,0.02209256588714981,-0.88781052566208385,-1.7977136172095391,-2.7076167087551912,-3.617519800299088,-4.5274228918411614,-5.4373259833814709,-6.3472290749199782,-7.2571321664567066,-8.1670352579916514,-9.0769383495247986,-10.354261360856015,-11.723443693286544,-13.092626025715139,-14.461808358141802,-15.830990690566525,-17.200173022989311,-18.569355355410149,-19.938537687829051,-21.307720020246013,-22.676902352661081,-24.046084685074131,-25.415267017485306,-26.7844493498945,-28.153631682301789,-29.522814014707112,-30.891996347110535,-32.261178679511985,-33.630361011911539,-34.999543344309075,-36.368725676704734,-38.164726259051484,-40.00815557401701,-41.851584888980625,-43.695014203942129,-45.538443518901758,-47.381872833859347,-49.225302148814947,-51.068731463768565,-52.912160778720214,-54.755590093669845,-56.599019408617544,-58.442448723563231,-60.285878038506958,-62.129307353448681,-63.97273666838845,-65.816165983326172,-67.659595298261991,-69.503024613195791,-71.34645392812763,-73.189883243057338,0,0.042106493925695231,0.11302501146495034,0.22861924762428631,0.39934534975685715,0.62616391915052239,0.90934858315972822,1.24869768767555,1.6434853512478247,2.092250858295817,2.4254198693279543,3.199548692125961
DP 360,289.53900860751156,0.0037425765554284355,-66.88034011176002,-65.416426965672244,-63.952513819582386,-62.488600673490595,-61.024687527396736,-59.560774381300888,-58.096861235202951,-56.6329480891031,-55.169034943001122,-53.70512179689716,-52.2412086507912,-50.777295504683217,-49.3133823585732,-47.849469212461187,-46.385556066347142,-44.921642920231086,-43.457729774112984,-41.993816627992885,-40.529903481870747,-39.065990335746584,-37.614361951603037,-36.273297586509607,-34.932233221414165,-33.591168856316649,-32.250104491217137,-30.909040126115588,-29.567975761011997,-28.226911395906416,-26.885847030798786,-25.544782665689134,-24.203718300577432,-22.862653935463726,-21.521589570348,-20.180525205230211,-18.839460840110441,-17.498396474988628,-16.157332109864782,-14.816267744738903,-13.475203379611001,-12.134139014481073,-10.842387865988959,-9.74789191466542,-8.65339596333984,-7.558900012012213,-6.4644040606825621,-5.36990810935086,-4.2754121580171232,-3.1809162066813421,-2.0864202553435267,-0.99192430400367049,0.102571647338231,1.1970675986821784,2.2915635500281604,3.3860595013761827,4.4805554527262457,5.5750514040783461,6.66954735543249,7.7640433067886692,8.85853925814688,9.9530352095071457,10.943460965444769,11.691052986405813,12.438645007368924,13.186237028334103,13.933829049301362,14.681421070270694,15.429013091242064,16.176605112215537,16.924197133191072,17.671789154168692,18.419381175148352,19.166973196130108,19.914565217113928,20.662157238099827,21.409749259087786,22.157341280077826,22.904933301069914,23.652525322064122,24.400117343060369,25.147709364058695,25.725540372562847,26.048725850764328,26.371911328967876,26.695096807173528,27.018282285381247,27.341467763591108,27.664653241802995,27.987838720017024,28.311024198233131,28.634209676451352,28.957395154671627,29.280580632894054,29.60376611111851,29.926951589345091,30.250137067573771,30.573322545804562,30.8965080240374,31.219693502272371,31.542878980509403,31.866064458748543,31.640207907913815,31.48522728799626,31.330246668080914,31.175266048167583,31.020285428256404,30.865304808347364,30.710324188440417,30.555343568535605,30.4003629486329,30.245382328732337,30.090401708833877,29.935421088937542,29.78044046904332,29.625459849151227,29.470479229261255,29.3154986093734,29.160517989487669,29.005537369604056,28.544161370935004,27.878516959544708,27.212872548156618,26.547228136770702,25.881583725387003,25.215939314005468,24.550294902626174,23.884650491249062,23.219006079874141,22.553361668501424,21.887717257130923,21.222072845762611,20.556428434396494,19.890784023032595,19.225139611670862,18.559495200311371,17.893850788954033,17.228206377598937,16.562561966246005,15.896917554895294,14.862343605024066,13.669652014088687,12.47696042315544,11.284268832224381,10.091577241295456,8.8988856503687526,7.7061940594442015,6.51350246852178,5.3208108776015735,4.1281192866834928,2.9354276957676042,1.7427361048538741,0.55004451394232878,-0.64264707696708767,-1.83533866787429,-3.0280302587793582,-4.2207218496822367,-5.4134134405829517,-6.6061050314815137,-7.7987966223778944,-9.4177480114092518,-11.143269386330649,-12.868790761249752,-14.59431213616654,-16.319833511081029,-18.045354885993227,-19.770876260903119,-21.496397635810691,-23.221919010715951,-24.947440385618954,-26.6729617605196,-28.398483135417994,-30.124004510314009,-31.849525885207793,-33.575047260099218,-35.300568634988423,-37.026090009875226,-38.751611384759791,-40.477132759642025,-42.202654134522,-44.408777530077217,-46.668306197635815,-48.927834865192054,-51.187363532745863,-53.446892200297469,-55.706420867846624,-57.965949535393527,-60.225478202937943,-62.485006870480213,-64.744535538020031,-67.00406420555754,-69.2635928730928,-71.523121540625482,-73.782650208156028,-76.042178875684115,-78.301707543209929,-80.5612362107334,-82.820764878254423,-85.080293545773259,-87.339822213289608,0,0.04637346961471419,0.12973306023520706,0.26861618466352871,0.47415021608110614,0.747541006384814,1.089175566967989,1.4988193218230434,1.9755663899830855,2.517593047879072,2.92020205354207,3.8544822667020462
DP 361,66.972518585508908,0.00434003042396127,-27.258164084695736,-26.914048140390488,-26.569932196085027,-26.225816251779381,-25.881700307473523,-25.537584363167493,-25.193468418861233,-24.849352474554788,-24.505236530248162,-24.161120585941319,-23.817004641634274,-23.472888697327043,-23.128772753019636,-22.784656808712018,-22.440540864404184,-22.096424920096183,-21.752308975787944,-21.408193031479566,-21.06407708717094,-20.719961142862161,-20.378332286256175,-20.059087454067431,-19.739842621878456,-19.420597789689236,-19.101352957499778,-18.782108125310081,-18.462863293120147,-18.143618460929964,-17.824373628739554,-17.5051287965489,-17.18588396435802,-16.86663913216691,-16.547394299975526,-16.228149467783926,-15.908904635592096,-15.589659803400011,-15.270414971207694,-14.951170139015151,-14.631925306822362,-14.312680474629333,-14.003675326782588,-13.7356294002634,-13.46758347374386,-13.199537547223938,-12.931491620703667,-12.663445694183039,-12.395399767662047,-12.127353841140671,-11.859307914618949,-11.591261988096857,-11.323216061574408,-11.055170135051593,-10.787124208528427,-10.51907828200488,-10.251032355480987,-9.9829864289567229,-9.7149405024320963,-9.4468945759071072,-9.1788486493817576,-8.9108027228560474,-8.6653338728112352,-8.4725455792353745,-8.2797572856591337,-8.0869689920825163,-7.8941806985055267,-7.7013924049281615,-7.50860411135041,-7.31581581777229,-7.1230275241937893,-6.930239230614915,-6.7374509370356579,-6.5446626434560269,-6.3518743498760184,-6.1590860562956333,-5.9662977627148761,-5.7735094691337379,-5.5807211755522239,-5.3879328819703254,-5.1951445883880574,-5.0023562948054128,-4.8485111554583327,-4.75308166771617,-4.6576521799735433,-4.5622226922304456,-4.4667932044868763,-4.3713637167428372,-4.2759342289983291,-4.1805047412533467,-4.0850752535079016,-3.9896457657619839,-3.8942162780155933,-3.7987867902687387,-3.7033573025214079,-3.6079278147736127,-3.5124983270253454,-3.4170688392766055,-3.3216393515274003,-3.226209863777719,-3.1307803760275705,-3.0353508882769589,-3.0419124833148281,-3.0636232403246075,-3.0853339973338652,-3.1070447543426045,-3.1287555113508172,-3.150466268358509,-3.1721770253656723,-3.193887782372324,-3.2155985393784485,-3.2373092963840495,-3.2590200533891278,-3.2807308103936852,-3.302441567397719,-3.3241523244012314,-3.3458630814042221,-3.3675738384066891,-3.3892845954086335,-3.4109953524100551,-3.5130756508020653,-3.66873690957295,-3.8243981683432038,-3.9800594271128293,-4.1357206858818261,-4.2913819446501948,-4.4470432034179268,-4.6027044621850361,-4.7583657209515113,-4.9140269797173568,-5.0696882384825663,-5.2253494972471559,-5.3810107560111131,-5.5366720147744317,-5.6923332735371313,-5.8479945322991913,-6.0036557910606279,-6.1593170498214347,-6.3149783085816038,-6.470639567341153,-6.7296131538708437,-7.0328648473403241,-7.3361165408091775,-7.639368234277403,-7.9426199277450058,-8.24587162121197,-8.5491233146783046,-8.8523750081440173,-9.155626701609096,-9.4588783950735618,-9.7621300885373881,-10.065381782000586,-10.368633475463154,-10.671885168925101,-10.975136862386405,-11.278388555847082,-11.581640249307149,-11.884891942766576,-12.188143636225375,-12.491395329683543,-12.920581427086571,-13.381252613419269,-13.841923799751218,-14.30259498608236,-14.763266172412751,-15.223937358742345,-15.684608545071171,-16.1452797313992,-16.605950917726464,-17.066622104052957,-17.527293290378637,-17.987964476703556,-18.448635663027705,-18.909306849351086,-19.369978035673665,-19.830649221995458,-20.291320408316487,-20.751991594636742,-21.212662780956208,-21.673333967274889,-22.281197261264165,-22.90541677975656,-23.529636298248164,-24.153855816738911,-24.778075335228859,-25.402294853717923,-26.026514372206194,-26.650733890693616,-27.274953409180235,-27.89917292766599,-28.523392446150932,-29.147611964635079,-29.771831483118351,-30.396051001600803,-31.020270520082374,-31.64449003856317,-32.268709557043145,-32.892929075522261,-33.517148594000574,-34.141368112478006,0,0.03000126514696886,0.062083073289802865,0.10510656843009436,0.166697357544833,0.24754251939964619,0.34777118184810507,0.46737484417010688,0.60624612084019314,0.76406016522988363,0.8794854895646298,1.1492299205800658
DP 362,179.37294715185857,0.0021009382987055591,-27.683820394669638,-27.133077920635419,-26.582335446600382,-26.031592972564546,-25.4808504985279,-24.930108024490412,-24.379365550452157,-23.828623076413074,-23.277880602373177,-22.727138128332463,-22.176395654290964,-21.62565318024863,-21.074910706205483,-20.524168232161532,-19.973425758116765,-19.422683284071194,-18.871940810024817,-18.32119833597762,-17.770455861929623,-17.219713387880805,-16.673103564497247,-16.163687987743309,-15.65427241098854,-15.14485683423295,-14.635441257476531,-14.126025680719321,-13.616610103961269,-13.107194527202397,-12.597778950442711,-12.088363373682215,-11.578947796920888,-11.069532220158736,-10.560116643395768,-10.050701066631982,-9.5412854898673789,-9.0318699131019375,-8.522454336335695,-8.0130387595686265,-7.5036231828007285,-6.994207606032024,-6.5017179549556765,-6.076932806594054,-5.65214765823158,-5.2273625098682679,-4.8025773615041087,-4.3777922131391049,-3.9530070647732565,-3.5282219164065616,-3.1034367680390273,-2.6786516196706476,-2.2538664713014214,-1.829081322931349,-1.4042961745604345,-0.97951102618867558,-0.55472587781607152,-0.12994072944262294,0.29484441893166913,0.71962956730680427,1.1444147156827817,1.5691998640596052,1.9570807059505615,2.258850336612328,2.5606199672749552,2.8623895979384422,3.1641592286027826,3.4659288592679904,3.7676984899340535,4.0694681206009742,4.371237751268759,4.6730073819373983,4.9747770126068964,5.276546643277257,5.5783162739484711,5.8800859046205538,6.18185553529349,6.483625165967287,6.7853947966419446,7.0871644273174574,7.38893405799383,7.690703688671066,7.9296443509988963,8.0743400761138062,8.2190358012295981,8.3637315263462764,8.5084272514638339,8.6531229765822779,8.7978187017016065,8.942514426821802,9.0872101519428927,9.2319058770648574,9.3766016021877068,9.5212973273114443,9.6659930524360576,9.81068877756155,9.9553845026879326,10.100080227815191,10.244775952943336,10.389471678072367,10.53416740320227,10.678863128333056,10.647809912968432,10.606449130071205,10.565088347174859,10.523727564279421,10.482366781384885,10.441005998491251,10.399645215598513,10.358284432706677,10.316923649815742,10.275562866925711,10.234202084036571,10.192841301148343,10.151480518261012,10.110119735374578,10.068758952489043,10.027398169604414,9.98603738672069,9.944676603837852,9.77760286885365,9.5267185186896821,9.2758341685266785,9.0249498183645986,8.77406546820348,8.5231811180433,8.2722967678840718,8.0214124177257968,7.7705280675684625,7.519643717412074,7.2687593672566511,7.0178750171021624,6.7669906669486206,6.5161063167960345,6.26522196664438,6.0143376164936893,5.7634532663439337,5.512568916195141,5.2616845660472933,5.0108002159003915,4.6006482975218423,4.1222366992927544,3.6438251010646088,3.1654135028373989,2.6870019046111131,2.2085903063857804,1.7301787081613784,1.2517671099378982,0.7733555117153712,0.29494391349376481,-0.18346768472689484,-0.6618792829466249,-1.1402908811654116,-1.6187024793832776,-2.097114077600188,-2.5755256758161753,-3.0539372740312225,-3.5323488722453313,-4.0107604704585116,-4.4891720686707526,-5.1595940052314564,-5.8780207950250452,-6.5964475848176161,-7.3148743746091789,-8.0333011643997274,-8.751727954189267,-9.47015474397781,-10.188581533765305,-10.907008323551807,-11.625435113337309,-12.343861903121782,-13.062288692905268,-13.780715482687691,-14.499142272469156,-15.217569062249574,-15.935995852029004,-16.654422641807408,-17.372849431584807,-18.091276221361184,-18.80970301113657,-19.750866979122925,-20.716781861745275,-21.682696744366631,-22.648611626986895,-23.614526509606172,-24.580441392224404,-25.546356274841596,-26.512271157457718,-27.47818604007287,-28.444100922686925,-29.41001580529997,-30.375930687912028,-31.341845570523,-32.30776045313295,-33.273675335741871,-34.239590218349733,-35.205505100956614,-36.171419983562394,-37.137334866167194,-38.1032497487709,0,0.021719371352056618,0.058686584650810114,0.11914154596871537,0.20845515587899177,0.32713254735615444,0.47532067389930172,0.652914586833378,0.85953231295709187,1.0944053791094215,1.26879516551954,1.673922371012609
DP 363,223.32835249500053,0.0011027456303363335,-16.66627991025679,-16.319079048873974,-15.971878187490654,-15.624677326106829,-15.277476464722486,-14.930275603337643,-14.583074741952279,-14.235873880566421,-13.888673019180041,-13.541472157793168,-13.194271296405768,-12.847070435017875,-12.499869573629459,-12.152668712240548,-11.805467850851105,-11.458266989461174,-11.111066128070727,-10.763865266679785,-10.41666440528831,-10.06946354389634,-9.7249705761510121,-9.404848907191246,-9.0847272382309683,-8.7646055692701879,-8.44448390030889,-8.1243622313470762,-7.8042405623847593,-7.48411889342192,-7.163997224458571,-6.8438755554947068,-6.5237538865303328,-6.2036322175654481,-5.8835105486000465,-5.5633888796341333,-5.243267210667713,-4.9231455417007739,-4.603023872733325,-4.28290220376536,-3.9627805347968823,-3.6426588658278978,-3.3335505656546305,-3.0684962611729061,-2.803441956690659,-2.538387652207895,-2.2733333477246096,-2.0082790432408,-1.7432247387564743,-1.4781704342716246,-1.2131161297862556,-0.94806182530036465,-0.68300752081395311,-0.41795321632701787,-0.15289891183956389,0.1121553926484115,0.37720969713690844,0.64226400162592545,0.907318306115463,1.1723726106055217,1.4374269150960988,1.7024812195871994,1.9437919953707303,2.1297004560709047,2.3156089167716076,2.5015173774728408,2.6874258381746046,2.8733342988768942,3.0592427595797185,3.2451512202830708,3.4310596809869502,3.616968141691363,3.8028766023962968,3.9887850631017678,4.1746935238077683,4.3606019845142967,4.5465104452213545,4.73241890592894,4.9183273666370582,5.1042358273457058,5.290144288054881,5.4760527487645847,5.6221212804773284,5.7084289772515691,5.7947366740263373,5.8810443708016509,5.9673520675775045,6.0536597643538945,6.1399674611308246,6.22627515790829,6.3125828546862968,6.3988905514648495,6.4851982482439308,6.5715059450235538,6.6578136418037186,6.7441213385844145,6.8304290353656532,6.9167367321474345,7.0030444289297513,7.0893521257126126,7.1756598224960069,7.2619675192799447,7.230830978153989,7.2011146030123934,7.1713982278713413,7.1416818527308434,7.1119654775908794,7.08224910245148,7.0525327273126228,7.0228163521743081,6.993099977036545,6.9633836018993351,6.9336672267626653,6.9039508516265435,6.8742344764909715,6.8445181013559422,6.8148017262214609,6.785085351087532,6.7553689759541564,6.7256526008213191,6.6188830332721436,6.4607434569050177,6.3026038805384639,6.1444643041724794,5.9863247278070713,5.8281851514422245,5.6700455750779541,5.5119059987142567,5.35376642235113,5.1956268459885724,5.0374872696265971,4.8793476932651876,4.7212081169043483,4.5630685405440854,4.4049289641843865,4.2467893878252694,4.0886498114667136,3.9305102351087373,3.7723706587513308,3.6142310823945,3.3600368486359011,3.0646750360965478,2.7693132235577544,2.4739514110195255,2.1785895984818557,1.88322778594476,1.5878659734082263,1.2925041608722461,0.99714234833684179,0.7017805358019924,0.40641872326771328,0.11105691073399458,-0.18430490179915537,-0.47966671433175068,-0.77502852686377122,-1.070390339395235,-1.3657521519261293,-1.661113964456461,-1.9564757769862322,-2.2518375895154374,-2.6614853385683568,-3.0997059220665077,-3.5379265055640516,-3.9761470890609893,-4.4143676725573284,-4.8525882560530622,-5.2908088395481956,-5.7290294230427126,-6.1672500065366309,-6.60547059002996,-7.04369117352266,-7.4819117570147764,-7.9201323405062745,-8.35835292399718,-8.79657350748748,-9.2347940909771715,-9.67301467446625,-10.111235257954741,-10.549455841442626,-10.987676424929893,-11.557326885774611,-12.141582046657366,-12.725837207539533,-13.310092368421051,-13.894347529301971,-14.478602690182266,-15.062857851061969,-15.647113011941016,-16.231368172819497,-16.815623333697332,-17.399878494574548,-17.984133655451174,-18.568388816327165,-19.152643977202544,-19.736899138077302,-20.321154298951463,-20.905409459824984,-21.489664620697884,-22.073919781570204,-22.658174942441885,0,0.012504530327653916,0.034469785113909593,0.070763545114258614,0.12443124102378295,0.19578231004760116,0.28491222678474942,0.39175897833918877,0.51608903431764341,0.65743263107826577,0.76240528789457718,1.0061246007350855
DP 364,108.16105400616085,0.0018586493239357322,-17.313523421375123,-17.01827239865419,-16.723021375932866,-16.427770353211184,-16.132519330489103,-15.837268307766678,-15.542017285043881,-15.246766262320714,-14.951515239597169,-14.656264216873257,-14.361013194148962,-14.065762171424307,-13.770511148699276,-13.475260125973886,-13.180009103248125,-12.88475808052198,-12.589507057795469,-12.294256035068598,-11.999005012341343,-11.703753989613727,-11.410646740851714,-11.136833660421818,-10.863020579991536,-10.58920749956088,-10.315394419129822,-10.041581338698389,-9.76776825826658,-9.4939551778343763,-9.2201420974017925,-8.9463290169688232,-8.672515936535472,-8.3987028561017372,-8.1248897756676133,-7.851076695233103,-7.5772636147982224,-7.3034505343629439,-7.0296374539272861,-6.7558243734912393,-6.4820112930548133,-6.2081982126180035,-5.943214596313914,-5.7135492538346089,-5.4838839113548721,-5.2542185688747178,-5.0245532263941373,-4.7948878839131392,-4.5652225414317087,-4.3355571989498625,-4.10589185646759,-3.8762265139848986,-3.6465611715017787,-3.4168958290182352,-3.1872304865342729,-2.9575651440498865,-2.7278998015650728,-2.4982344590798391,-2.2685691165941826,-2.0389037741081038,-1.8092384316216037,-1.5795730891346775,-1.3693466194972002,-1.2044781323118874,-1.0396096451261383,-0.87474115793995832,-0.70987267075334548,-0.54500418356629943,-0.38013569637882094,-0.21526720919090789,-0.050398722002563366,0.11446976518621407,0.2793382523754222,0.44420673956506568,0.60907522675514181,0.7739437139456492,0.93881220113659059,1.1036806883279651,1.268549175519772,1.4334176627120137,1.5982861499046852,1.7631546370977902,1.8945271686204803,1.9756549751066588,2.0567827815933031,2.1379105880804112,2.2190383945679852,2.3001662010560229,2.3812940075445224,2.4624218140334864,2.5435496205229127,2.6246774270128053,2.7058052335031615,2.7869330399939791,2.868060846485263,2.949188652977011,3.0303164594692196,3.1114442659618917,3.1925720724550288,3.2736998789486313,3.3548276854426962,3.4359554919372268,3.4279195772488342,3.4084794599587953,3.3890393426692391,3.3695992253801692,3.3501591080915842,3.330718990803482,3.3112788735158647,3.2918387562287275,3.2723986389420756,3.252958521655906,3.2335184043702263,3.2140782870850271,3.1946381698003079,3.1751980525160763,3.1557579352323275,3.1363178179490609,3.1168777006662816,3.0974375833839822,3.0091008931508658,2.8748320689071791,2.74056324466402,2.6062944204213894,2.472025596179285,2.3377567719377064,2.20348794769666,2.0692191234561412,1.934950299216148,1.800681474976686,1.6664126507377528,1.5321438264993474,1.3978750022614677,1.2636061780241195,1.1293373537872935,0.99506852955100311,0.86079970531523387,0.72653088107999808,0.59226205684528954,0.45799323261110991,0.23531686504742405,-0.025249643434760129,-0.28581615191642262,-0.54638266039755912,-0.80694916887817847,-1.0675156773582655,-1.3280821858378313,-1.5886486943168847,-1.8492152027954016,-2.1097817112734063,-2.3703482197508809,-2.6309147282278347,-2.8914812367042639,-3.1520477451801767,-3.4126142536555566,-3.6731807621304191,-3.9337472706047558,-4.19431377907857,-4.45488028755186,-4.7154467960246276,-5.08367727038302,-5.4788250082870071,-5.8739727461904057,-6.26912048409322,-6.6642682219954379,-7.0594159598970725,-7.4545636977981236,-7.849711435698568,-8.24485917359843,-8.64000691149772,-9.0351546493963983,-9.43030238729449,-9.8254501251919937,-10.220597863088928,-10.615745600985262,-11.010893338881004,-11.406041076776145,-11.801188814670713,-12.196336552564681,-12.591484290458064,-13.112353357829859,-13.647192782188451,-14.182032206546436,-14.716871630903798,-15.251711055260559,-15.786550479616702,-16.321389903972229,-16.85622932832716,-17.391068752681484,-17.925908177035179,-18.460747601388281,-18.995587025740775,-19.530426450092641,-20.065265874443906,-20.600105298794567,-21.134944723144606,-21.669784147494049,-22.204623571842859,-22.73946299619109,-23.274302420538678,0,0.015116025435334881,0.037127006360863385,0.07135621475946255,0.12169469879405129,0.1884294378693579,0.27161721703683794,0.37119660292818185,0.48697309825884494,0.6185519434967145,0.71603992304369157,0.94304062700259073
DP 365,75.887510414437742,0.00525313011811739,-36.723979707639337,-36.210630855618845,-35.697282003597856,-35.183933151576468,-34.67058429955469,-34.157235447532429,-33.643886595509777,-33.130537743486734,-32.617188891463186,-32.103840039439284,-31.590491187414933,-31.07714233539015,-30.563793483364957,-30.050444631339342,-29.53709577931328,-29.023746927286822,-28.510398075259911,-27.997049223232587,-27.483700371204851,-26.970351519176667,-26.460715366066715,-25.984493854164253,-25.508272342261343,-25.032050830357981,-24.555829318454119,-24.079607806549784,-23.603386294644991,-23.127164782739712,-22.650943270833974,-22.174721758927756,-21.698500247021077,-21.222278735113914,-20.746057223206268,-20.269835711298164,-19.7936141993896,-19.317392687480542,-18.841171175571038,-18.36494966366104,-17.888728151750573,-17.412506639839627,-16.951573627890127,-16.551795338343478,-16.152017048796196,-15.752238759248311,-15.352460469699817,-14.952682180150713,-14.55290389060101,-14.153125601050659,-13.7533473114997,-13.353569021948145,-12.95379073239596,-12.554012442843163,-12.154234153289767,-11.754455863735744,-11.354677574181109,-10.954899284625867,-10.55512099507,-10.155342705513528,-9.7555644159564476,-9.3557861263987547,-8.9897114432179936,-8.7022795701660218,-8.41484769711341,-8.1274158240601615,-7.8399839510062943,-7.552552077951793,-7.2651202048966388,-6.9776883318408647,-6.6902564587844555,-6.4028245857274131,-6.1153927126697374,-5.8279608396114293,-5.5405289665524835,-5.2530970934929071,-4.9656652204326983,-4.6782333473718518,-4.3908014743103756,-4.1033696012482572,-3.8159377281855131,-3.5285058551221362,-3.2992124143954742,-3.1571279960221772,-3.0150435776481452,-2.8729591592733703,-2.7308747408978538,-2.588790322521596,-2.4467059041446038,-2.304621485766865,-2.1625370673883921,-2.0204526490091705,-1.8783682306292138,-1.736283812248516,-1.5941993938670753,-1.4521149754848997,-1.3100305571019775,-1.1679461387183183,-1.0258617203339186,-0.8837773019487748,-0.74169288356289309,-0.59960846517627409,-0.61044656054240232,-0.64319901288162684,-0.67595146522005223,-0.70870391755767492,-0.7414563698944926,-0.77420882223051213,-0.8069612745657202,-0.839713726900137,-0.87246617923374359,-0.90521863156655358,-0.93797108389855732,-0.97072353622975593,-1.0034759885601594,-1.0362284408897546,-1.0689808932185489,-1.10173334554654,-1.13448579787373,-1.1672382502001135,-1.3199447826513098,-1.5526225915742438,-1.78530040049624,-2.0179782094173118,-2.25065601833745,-2.4833338272566645,-2.7160116361749336,-2.9486894450922763,-3.1813672540086944,-3.4140450629241736,-3.6467228718387141,-3.8794006807523322,-4.1120784896650182,-4.3447562985767645,-4.5774341074875888,-4.8101119163974788,-5.0427897253064362,-5.2754675342144592,-5.5081453431215488,-5.7408231520277058,-6.1276602968997214,-6.580567810245566,-7.0334753235904985,-7.4863828369344851,-7.93929035027756,-8.3921978636196926,-8.8451053769609036,-9.298012890301198,-9.7509204036405457,-10.203827916978986,-10.656735430316491,-11.109642943653071,-11.562550456988717,-12.01545797032345,-12.468365483657243,-12.921272996990098,-13.374180510322049,-13.827088023653051,-14.279995536983144,-14.732903050312308,-15.373725303924402,-16.061528462862448,-16.749331621799378,-17.43713478073521,-18.124937939669934,-18.812741098603546,-19.500544257536045,-20.188347416467433,-20.87615057539772,-21.563953734326891,-22.251756893254928,-22.9395600521819,-23.62736321110771,-24.315166370032447,-25.002969528956044,-25.690772687878557,-26.37857584679994,-27.066379005720226,-27.7541821646394,-28.441985323557464,-29.349399720260649,-30.281217672055774,-31.213035623849777,-32.144853575642522,-33.076671527434165,-34.008489479224622,-34.940307431013885,-35.872125382801975,-36.803943334588908,-37.735761286374654,-38.667579238159234,-39.599397189942643,-40.531215141724886,-41.46303309350597,-42.394851045285833,-43.326668997064544,-44.258486948842119,-45.19030490061845,-46.122122852393673,-47.053940804167652,0,0.037408638463802574,0.0812997097597513,0.14348423468405416,0.2336573409651489,0.35258163796787911,0.50037202995826513,0.67695563115701629,0.88208476848809225,1.1151880457725878,1.2867130324013381,1.6871956035368338
DP 366,102.32425545086323,0.0032874788311108311,-29.346278610995661,-28.85784458052543,-28.369410550054653,-27.880976519583243,-27.392542489111268,-26.9041084586387,-26.415674428165531,-25.927240397691776,-25.438806367217421,-24.950372336742486,-24.461938306266962,-23.973504275790852,-23.485070245314155,-22.996636214836862,-22.508202184358971,-22.019768153880495,-21.531334123401425,-21.042900092921776,-20.554466062441534,-20.066032031960695,-19.581140722673766,-19.128134239009949,-18.675127755345521,-18.222121271680468,-17.769114788014807,-17.316108304348539,-16.863101820681628,-16.410095337014127,-15.957088853345992,-15.504082369677269,-15.051075886007908,-14.598069402337932,-14.145062918667362,-13.692056434996152,-13.239049951324347,-12.786043467651904,-12.333036983978863,-11.880030500305191,-11.427024016630916,-10.974017532956031,-10.53560287077203,-10.15555618418321,-9.7755094975936974,-9.3954628110035,-9.01541612441262,-8.6353694378210459,-8.25532275122879,-7.875276064635842,-7.4952293780422119,-7.1151826914478882,-6.7351360048528814,-6.355089318257189,-5.9750426316608038,-5.59499594506373,-5.2149492584659711,-4.8349025718675271,-4.4548558852683975,-4.0748091986685742,-3.6947625120680687,-3.314715825466878,-2.9668065421516183,-2.6938855457391337,-2.4209645493259417,-2.1480435529120476,-1.8751225564974516,-1.60220156008215,-1.329280563666146,-1.0563595672494346,-0.7834385708320234,-0.51051757441390688,-0.23759657799508788,0.035324418424434331,0.30824541484466217,0.58116641126559432,0.8540874076872278,1.127008404109566,1.3999294005326113,1.6728503969563588,1.9457713933808081,2.2186923898059625,2.43621777469967,2.5706484332624382,2.7050790918259637,2.8395097503902536,2.9739404089553054,3.108371067521118,3.2428017260876869,3.3772323846550232,3.5116630432231113,3.6460937017919681,3.780524360361583,3.9149550189319586,4.049385677503091,4.1838163360749885,4.3182469946476454,4.4526776532210581,4.5871083117952383,4.7215389703701813,4.8559696289458767,4.9904002875223368,4.9776955845527384,4.9457272570853759,4.9137589296188029,4.8817906021530231,4.8498222746880444,4.8178539472238588,4.7858856197604789,4.7539172922978858,4.7219489648360931,4.6899806373750934,4.6580123099148967,4.6260439824554922,4.5940756549968844,4.5621073275390707,4.53013900008206,4.4981706726258386,4.4662023451704149,4.4342340177157968,4.2882223744751142,4.0661800574383022,3.8441377404023784,3.6220954233673188,3.400053106333135,3.1780107892998251,2.9559684722673985,2.7339261552358449,2.5118838382051627,2.2898415211753562,2.0677992041464326,1.8457568871183776,1.6237145700911975,1.4016722530648995,1.1796299360394698,0.95758761901492251,0.73554530199123935,0.51350298496844127,0.29146066794651931,0.06941835092547205,-0.29902123692925348,-0.7302044891034023,-1.161387741276686,-1.5925709934490961,-2.0237542456206503,-2.4549374977913194,-2.8861207499611274,-3.3173040021300819,-3.74848725429815,-4.1796705064653663,-4.6108537586317038,-5.0420370107971788,-5.47322026296178,-5.9044035151255274,-6.33558676728839,-6.7667700194503952,-7.1979532716115289,-7.6291365237717912,-8.06031977593119,-8.49150302808972,-9.1010283141761228,-9.755141215896078,-10.409254117615061,-11.063367019333056,-11.717479921050062,-12.371592822766091,-13.025705724481144,-13.679818626195187,-14.333931527908272,-14.98804442962037,-15.642157331331465,-16.296270233041593,-16.950383134750716,-17.6044960364589,-18.258608938166059,-18.912721839872233,-19.566834741577441,-20.220947643281669,-20.875060544984883,-21.529173446687146,-22.391579877218849,-23.277132220761985,-24.162684564304136,-25.048236907845183,-25.933789251385246,-26.819341594924303,-27.704893938462341,-28.590446281999288,-29.475998625535304,-30.361550969070258,-31.247103312604203,-32.132655656137089,-33.018207999669,-33.903760343199878,-34.78931268672973,-35.674865030258545,-36.56041737378635,-37.445969717313105,-38.331522060838886,-39.217074404363622,0,0.026087304788080735,0.063040511215929435,0.11994170543571726,0.20353175855169434,0.31429896765436605,0.45233288270479394,0.61753213062502055,0.80958159588301259,1.0278382793922944,1.1894572069366252,1.5659251295926733
DP 367,81.862747007329162,0.0011704421968248,-8.7231321647248574,-8.5946295921849885,-8.4661270196449951,-8.3376244471048739,-8.2091218745646426,-8.0806193020242763,-7.9521167294838024,-7.8236141569432007,-7.6951115844024764,-7.56660901186163,-7.4381064393206575,-7.3096038667795682,-7.1811012942383519,-7.0525987216970183,-6.9240961491555639,-6.7955935766139834,-6.6670910040722866,-6.538588431530461,-6.4100858589885163,-6.2815832864464491,-6.1540104395189772,-6.03480521100545,-5.91559998249181,-5.7963947539780261,-5.6771895254641134,-5.5579842969500746,-5.4387790684358954,-5.3195738399215866,-5.2003686114071419,-5.0811633828925684,-4.9619581543778626,-4.8427529258630253,-4.723547697348053,-4.6043424688329528,-4.4851372403177168,-4.36593201180235,-4.2467267832868529,-4.1275215547712207,-4.008316326255458,-3.8891110977395638,-3.7737351528445084,-3.6736765234104909,-3.5736178939763055,-3.4735592645419593,-3.37350063510745,-3.273442005672782,-3.1733833762379486,-3.0733247468029528,-2.973266117367797,-2.873207487932476,-2.7731488584969921,-2.6730902290613474,-2.5730315996255415,-2.4729729701895717,-2.3729143407534403,-2.2728557113171455,-2.172797081880689,-2.0727384524440713,-1.9726798230072913,-1.8726211935703483,-1.7810031160409374,-1.7090799255696945,-1.6371567350982805,-1.5652335446267025,-1.4933103541549546,-1.42138716368304,-1.34946397321096,-1.277540782738712,-1.2056175922662971,-1.1336944017937141,-1.0617712113209661,-0.98984802084804946,-0.91792483037496486,-0.8460016399017144,-0.77407844942829662,-0.70215525895471176,-0.63023206848095914,-0.5583088780070391,-0.48638568753295264,-0.4144624970586992,-0.35709798929110553,-0.32157184961447927,-0.28604570993766454,-0.25051957026065896,-0.21499343058346337,-0.17946729090607688,-0.14394115122850115,-0.10841501155073506,-0.072888871872779454,-0.037362732194632507,-0.0018365925162964118,0.033689547162229862,0.0692156868409469,0.10474182651985255,0.14026796619895007,0.17579410587823649,0.21132024555771342,0.24684638523738128,0.28237252491723847,0.31789866459728466,0.31503607148127427,0.306785723542833,0.2985353756045957,0.29028502766656178,0.28203467972873186,0.27378433179110534,0.26553398385368421,0.25728363591646419,0.24903328797944935,0.24078294004263692,0.23253259210603003,0.22428224416962575,0.21603189623342481,0.20778154829742804,0.19953120036163541,0.19128085242604534,0.18303050449066063,0.17478015655547874,0.13650055696123595,0.078200983188810011,0.019901409416617312,-0.038398164355344461,-0.09669773812707351,-0.15499731189857135,-0.21329688566983507,-0.2715964594408668,-0.32989603321166772,-0.38819560698223526,-0.446495180752569,-0.50479475452267153,-0.56309432829254258,-0.62139390206217882,-0.67969347583158568,-0.737993049600758,-0.79629262336970008,-0.85459219713840839,-0.912891770906883,-0.97119134467512624,-1.0680777024001118,-1.1815017742912182,-1.2949258461820958,-1.4083499180727415,-1.5217739899631575,-1.6351980618533395,-1.7486221337432895,-1.8620462056330143,-1.9754702775225037,-2.088894349411766,-2.2023184213007942,-2.3157424931895925,-2.4291665650781584,-2.5425906369664975,-2.6560147088546,-2.7694387807424756,-2.8828628526301165,-2.9962869245175336,-3.1097109964047123,-3.2231350682916613,-3.3835920722672572,-3.5558078649697706,-3.7280236576720109,-3.9002394503739795,-4.0724552430756757,-4.2446710357771,-4.4168868284782539,-4.5891026211791317,-4.7613184138797413,-4.9335342065800827,-5.1057499992801407,-5.2779657919799359,-5.4501815846794521,-5.6223973773787073,-5.7946131700776791,-5.9668289627763871,-6.1390447554748162,-6.3112605481729807,-6.4834763408708662,-6.6556921335684853,-6.8828691039774688,-7.1161534491352461,-7.3494377942927374,-7.5827221394499329,-7.8160064846068567,-8.0492908297634855,-8.2825751749198346,-8.5158595200758871,-8.74914386523166,-8.98242821038716,-9.2157125555423676,-9.4489969006972743,-9.6822812458519039,-9.91556559100626,-10.148849936160314,-10.382134281314082,-10.61541862646758,-10.848702971620771,-11.081987316773697,-11.315271661926316,0,0.0085272378135177913,0.019080969372993677,0.034441787530454418,0.056828280932903825,0.086405437317154263,0.12319724013658975,0.16718106036901059,0.21828678832306592,0.27636218604514251,0.3191978139866869,0.41914901926390458
DP 368,70.641716108918757,0.0022581371803440629,-14.848412985141305,-14.652130907254094,-14.455848829366765,-14.259566751479309,-14.063284673591701,-13.867002595703978,-13.670720517816097,-13.47443843992809,-13.278156362039951,-13.08187428415166,-12.88559220626326,-12.689310128374707,-12.493028050486011,-12.296745972597199,-12.100463894708243,-11.90418181681915,-11.707899738929928,-11.511617661040564,-11.315335583151064,-11.119053505261437,-10.924190549072302,-10.742099822330132,-10.560009095587819,-10.377918368845336,-10.195827642102708,-10.013736915359924,-9.8316461886169826,-9.6495554618738684,-9.4674647351306138,-9.2853740083872029,-9.1032832816436269,-8.9211925548999051,-8.7391018281560164,-8.55701110141197,-8.37492037466778,-8.1928296479234248,-8.01073892117892,-7.8286481944342485,-7.646557467689429,-7.4644667409444514,-7.2882187467413573,-7.13534195884193,-6.9824651709422723,-6.8295883830424051,-6.6767115951423071,-6.5238348072419976,-6.3709580193414661,-6.2180812314407152,-6.0652044435397432,-5.9123276556385491,-5.7594508677371437,-5.6065740798355117,-5.4536972919336586,-5.3008205040315959,-5.147943716129304,-4.9950669282267963,-4.84219014032406,-4.689313352421121,-4.53643656451795,-4.3835597766145655,-4.2435642214330374,-4.1336252817911125,-4.0236863421489524,-3.9137474025065684,-3.803808462863957,-3.6938695232211178,-3.5839305835780495,-3.473991643934752,-3.3640527042912312,-3.2541137646474794,-3.1441748250035007,-3.0342358853592977,-2.9242969457148624,-2.8143580060702016,-2.7044190664253143,-2.5944801267801956,-2.4845411871348517,-2.3746022474892796,-2.2646633078434792,-2.1547243681974551,-2.0670062213332647,-2.0126197887333479,-1.9582333561331584,-1.9038469235326938,-1.8494604909319516,-1.7950740583309355,-1.7406876257296449,-1.6863011931280785,-1.6319147605262379,-1.5775283279241215,-1.5231418953217319,-1.4687554627190655,-1.4143690301161245,-1.3599825975129087,-1.3055961649094177,-1.251209732305653,-1.1968232997016113,-1.1424368670972935,-1.0880504344927027,-1.0336640018878376,-1.0375885900642674,-1.0500358381996733,-1.0624830863347783,-1.0749303344695815,-1.0873775826040806,-1.0998248307382796,-1.1122720788721732,-1.1247193270057703,-1.1371665751390614,-1.1496138232720521,-1.16206107140474,-1.1745083195371249,-1.1869555676692098,-1.1994028158009922,-1.2118500639324705,-1.2242973120636496,-1.2367445601945253,-1.2491918083250977,-1.3074923132150948,-1.3963623783036403,-1.485232443391826,-1.574102508479658,-1.6629725735671297,-1.7518426386542454,-1.8407127037409996,-1.929582768827399,-2.0184528339134422,-2.1073228989991253,-2.1961929640844473,-2.2850630291694141,-2.3739330942540229,-2.4628031593382738,-2.5516732244221685,-2.6405432895057017,-2.7294133545888815,-2.8182834196716984,-2.90715348475416,-2.99602354983626,-3.1438318485020713,-3.3169001859821088,-3.48996852346179,-3.6630368609411117,-3.8361051984200771,-4.0091735358986877,-4.1822418733769364,-4.3553102108548352,-4.5283785483323733,-4.7014468858095615,-4.8745152232863873,-5.0475835607628587,-5.2206518982389669,-5.3937202357147305,-5.5667885731901228,-5.7398569106651749,-5.9129252481398593,-6.085993585614184,-6.2590619230881632,-6.4321302605617765,-6.6770435940027193,-6.9399190253003882,-7.2027944565976192,-7.4656698878944168,-7.72854531919078,-7.9914207504867,-8.2542961817821929,-8.5171716130772488,-8.7800470443718712,-9.0429224756660673,-9.3057979069598087,-9.5686733382531255,-9.8315487695460035,-10.094424200838453,-10.357299632130465,-10.620175063422032,-10.883050494713176,-11.145925926003883,-11.408801357294145,-11.671676788583985,-12.018520375131271,-12.37469463857586,-12.730868902020028,-13.087043165463689,-13.443217428906909,-13.799391692349655,-14.155565955791941,-14.511740219233761,-14.867914482675129,-15.22408874611604,-15.580263009556482,-15.936437272996466,-16.292611536435984,-16.648785799875057,-17.004960063313629,-17.361134326751781,-17.717308590189432,-18.07348285362664,-18.429657117063396,-18.785831380499662,0,0.015789861218368857,0.033364393778910921,0.057531727018427604,0.092348337463575347,0.13815747044129539,0.19501669468544136,0.26290894526765324,0.34175612505606773,0.43135687855753674,0.49708629513141517,0.65063956019350777
DP 369,75.274246069447543,0.0039592019899729472,-27.487783662967825,-27.105843601602089,-26.723903540236055,-26.341963478869669,-25.96002341750302,-25.578083356136055,-25.196143294768781,-24.814203233401173,-24.432263172033238,-24.050323110665023,-23.668383049296498,-23.286442987927664,-22.904502926558507,-22.522562865189066,-22.140622803819262,-21.758682742449182,-21.376742681078788,-20.994802619708082,-20.612862558337092,-20.230922496965754,-19.851744793357561,-19.497428570729962,-19.143112348102033,-18.788796125473748,-18.434479902845116,-18.080163680216142,-17.72584745758682,-17.371531234957136,-17.017215012327139,-16.662898789696772,-16.308582567066068,-15.954266344435018,-15.599950121803598,-15.245633899171855,-14.891317676539773,-14.537001453907324,-14.182685231274537,-13.828369008641404,-13.474052786007919,-13.119736563374088,-12.776794794951845,-12.479351380949396,-12.181907966946504,-11.884464552943149,-11.587021138939336,-11.28957772493507,-10.992134310930366,-10.69469089692519,-10.397247482919571,-10.099804068913501,-9.8023606549069644,-9.5049172409,-9.2074738268925511,-8.9100304128846624,-8.6125869988763188,-8.31514358486752,-8.0177001708582729,-7.7202567568485767,-7.4228133428384213,-7.1253699288278112,-6.8530002103609213,-6.6391365715051807,-6.4252729326489533,-6.2114092937922605,-5.9975456549351032,-5.7836820160774787,-5.5698183772193879,-5.3559547383608184,-5.1420910995017941,-4.92822746064229,-4.7143638217823245,-4.5005001829218871,-4.2866365440609817,-4.07277290519961,-3.8589092663377684,-3.645045627475457,-3.431181988612678,-3.2173183497494287,-3.0034547108857139,-2.7895910720215311,-2.6189816946265649,-2.5132547315612479,-2.4075277684953842,-2.3018008054289689,-2.196073842362003,-2.0903468792944881,-1.9846199162264282,-1.8788929531578167,-1.7731659900886563,-1.6674390270189448,-1.5617120639486868,-1.4559851008778786,-1.3502581378065193,-1.2445311747346146,-1.1388042116621566,-1.033077248589152,-0.92735028551559773,-0.82162332244149061,-0.71589635936683771,-0.6101693962916358,-0.61819041363062588,-0.64254445908925162,-0.66689850454728139,-0.69125255000471775,-0.71560659546155292,-0.73996064091779745,-0.76431468637343869,-0.7886687318284924,-0.81302277728294559,-0.8373768227368048,-0.86173086819006517,-0.88608491364272879,-0.91043895909480121,-0.93479300454627434,-0.95914704999715128,-0.983501095447433,-1.0078551408971168,-1.0322091863462042,-1.1458075703024977,-1.3189035858597398,-1.4919996014162844,-1.6650956169721414,-1.8381916325273044,-2.0112876480817761,-2.1843836636355469,-2.3574796791886281,-2.5305756947410196,-2.7036717102927148,-2.8767677258437083,-3.0498637413940148,-3.2229597569436321,-3.3960557724925473,-3.5691517880407764,-3.7422478035883047,-3.9153438191351495,-4.0884398346812905,-4.2615358502267364,-4.4346318657714949,-4.7224243153534244,-5.0593739282819215,-5.3963235412097275,-5.7332731541368371,-6.0702227670632718,-6.4071723799889968,-6.7441219929140415,-7.0810716058384013,-7.41802121876206,-7.75497083168504,-8.0919204446073234,-8.4288700575289255,-8.76581967044982,-9.1027692833700424,-9.4397188962895573,-9.7766685092083918,-10.113618122126534,-10.450567735043983,-10.787517347960746,-11.124466960876807,-11.601227331960295,-12.112942044481407,-12.624656757001691,-13.136371469521134,-13.648086182039767,-14.159800894557572,-14.671515607074554,-15.183230319590686,-15.694945032106011,-16.206659744620506,-16.718374457134153,-17.23008916964698,-17.741803882158973,-18.253518594670151,-18.765233307180484,-19.276948019690007,-19.788662732198691,-20.300377444706548,-20.812092157213577,-21.323806869719789,-21.998917187131816,-22.692184287804643,-23.385451388476653,-24.078718489147704,-24.77198558981792,-25.465252690487262,-26.158519791155733,-26.851786891823291,-27.545053992490022,-28.238321093155843,-28.9315881938208,-29.624855294484934,-30.318122395148105,-31.011389495810441,-31.704656596471906,-32.397923697132484,-33.091190797792187,-33.784457898451,-34.477724999108979,-35.170992099766032,0,0.028131485426890625,0.060944225326346496,0.10728631803501189,0.17444332684134825,0.26299258007825438,0.37302185694931167,0.50447878444606964,0.65718226087727138,0.83071042705293363,0.95835951262874852,1.2564189615726109
DP 370,206.50784822486619,0.0037750697446767003,-54.329043239385882,-53.214953284933756,-52.100863330479989,-50.986773376024559,-49.872683421567523,-48.758593467108774,-47.644503512648484,-46.530413558186488,-45.416323603722887,-44.302233649257595,-43.188143694790689,-42.074053740322142,-40.959963785851905,-39.845873831380054,-38.73178387690659,-37.617693922431471,-36.50360396795466,-35.389514013476273,-34.2754240589962,-33.161334104514495,-32.055794284436487,-31.027206482200341,-29.998618679962526,-28.970030877723044,-27.941443075481892,-26.912855273239124,-25.884267470994683,-24.855679668748557,-23.8270918665008,-22.798504064251393,-21.769916262000319,-20.741328459747592,-19.712740657493214,-18.684152855237144,-17.655565052979448,-16.626977250720088,-15.598389448459063,-14.569801646196389,-13.54121384393205,-12.512626041666058,-11.518913569849374,-10.664704068091629,-9.8104945663321743,-8.9562850645710377,-8.1020755628082046,-7.24786606104369,-6.3936565592774786,-5.539447057509574,-4.6852375557399863,-3.8310280539687049,-2.9768185521957258,-2.1226090504210564,-1.2683995486446962,-0.41419004686664473,0.44001945491309824,1.2942289566945326,2.1484384584776555,3.0026479602624643,3.8568574620489642,4.7110669638371627,5.48973462157124,6.0921355963783386,6.69453657118715,7.2969375459976833,7.8993385208099447,8.5017394956239247,9.1041404704396136,9.7065414452570273,10.308942420076161,10.91134339489701,11.513744369719587,12.116145344543865,12.71854631936989,13.320947294197612,13.923348269027068,14.525749243858238,15.128150218691129,15.730551193525745,16.33295216836207,16.935353143200121,17.410223796595474,17.693795954203498,17.977368111813284,18.260940269424818,18.544512427038114,18.828084584653162,19.111656742269961,19.395228899888526,19.678801057508817,19.962373215130892,20.245945372754726,20.529517530380296,20.813089688007615,21.0966618456367,21.380234003267553,21.663806160900137,21.947378318534497,22.230950476170587,22.514522633808454,22.798094791448076,22.713745501518545,22.623290646950043,22.532835792383334,22.44238093781841,22.351926083255261,22.261471228693921,22.17101637413435,22.080561519576559,21.990106665020569,21.899651810466356,21.809196955913926,21.718742101363286,21.628287246814441,21.537832392267369,21.447377537722087,21.356922683178588,21.266467828636873,21.176012974096967,20.835330163235319,20.327824772806924,19.820319382380426,19.312813991955782,18.805308601533003,18.29780321111209,17.790297820693056,17.2827924302759,16.775287039860586,16.267781649447166,15.760276259035621,15.252770868625932,14.745265478218119,14.23776008781218,13.730254697408094,13.2227493070059,12.715243916605541,12.207738526207077,11.700233135810487,11.19272774541577,10.371120868693444,9.4148948279105955,8.4586687871295911,7.50244274635044,6.5462167055731024,5.5899906647976518,4.6337646240240371,3.67753858325223,2.7213125424823121,1.765086501714201,0.80886046094795949,-0.14736557981645215,-1.1035916205790004,-2.0598176613397357,-3.0160437020985924,-3.9722697428556288,-4.9284957836108045,-5.8847218243641315,-6.840947865115635,-7.7971739058652867,-9.1292455621363349,-10.555283062989067,-11.981320563839821,-13.407358064688585,-14.833395565535376,-16.259433066380179,-17.685470567223014,-19.111508068063856,-20.537545568902711,-21.963583069739634,-23.389620570574497,-24.81565807140743,-26.241695572238317,-27.667733073067332,-29.093770573894272,-30.519808074719272,-31.945845575542275,-33.371883076363332,-34.797920577182332,-36.223958077999434,-38.083850463175381,-39.991953503139335,-41.900056543101321,-43.808159583061226,-45.716262623019112,-47.624365662974959,-49.532468702928853,-51.440571742880635,-53.348674782830486,-55.256777822778218,-57.164880862724061,-59.072983902667815,-60.981086942609508,-62.8891899825492,-64.797293022486954,-66.7053960624226,-68.613499102356229,-70.52160214228779,-72.429705182217432,-74.337808222144957,0,0.041483732721969729,0.11365131388284361,0.23250890730282034,0.40821213040348042,0.64176754584508322,0.93348031686669675,1.2831463345027081,1.6900052104745742,2.1525268659500787,2.4960062117360944,3.2936283193901486
DP 371,70.728898185164724,0.002310710573494492,-15.210210719080248,-15.00894132797146,-14.807671936862542,-14.60640254575347,-14.405133154644268,-14.203863763534937,-14.002594372425435,-13.801324981315828,-13.600055590206065,-13.398786199096158,-13.19751680798611,-12.996247416875935,-12.794978025765614,-12.593708634655158,-12.392439243544555,-12.191169852433815,-11.989900461322934,-11.788631070211924,-11.587361679100772,-11.386092287989463,-11.186278056506044,-10.999560399222526,-10.812842741938862,-10.626125084655026,-10.439407427371028,-10.25268977008688,-10.065972112802566,-9.879254455518085,-9.6925367982334425,-9.5058191409486472,-9.3191014836636867,-9.1323838263785735,-8.9456661690932879,-8.7589485118078425,-8.5722308545222443,-8.3855131972364738,-8.1987955399505559,-8.0120778826644639,-7.8253602253782182,-7.6386425680918091,-7.4579161152791587,-7.301154763514651,-7.1443934117499133,-6.9876320599849482,-6.8308707082197628,-6.6741093564543492,-6.5173480046887073,-6.3605866529228434,-6.20382530115675,-6.0470639493904379,-5.8903025976238963,-5.7335412458571282,-5.5767798940901363,-5.4200185423229152,-5.2632571905554757,-5.1064958387878034,-4.9497344870199083,-4.7929731352517866,-4.6362117834834455,-4.4794504317148736,-4.33589801981413,-4.2231668837854528,-4.11043574775654,-3.9977046117273942,-3.8849734756980161,-3.7722423396684044,-3.6595112036385573,-3.5467800676084762,-3.4340489315781633,-3.3213177955476132,-3.2085866595168353,-3.0958555234858216,-2.983124387454573,-2.8703932514230894,-2.7576621153913741,-2.6449309793594233,-2.5321998433272412,-2.4194687072948238,-2.3067375712621718,-2.194006435229289,-2.1040607529064013,-2.0482937895833233,-1.9925268262599656,-1.936759862936325,-1.8809928996124001,-1.8252259362881944,-1.7694589729637071,-1.7136920096389363,-1.657925046313885,-1.6021580829885504,-1.5463911196629352,-1.4906241563370368,-1.4348571930108545,-1.3790902296843934,-1.3233232663576473,-1.2675563030306209,-1.2117893397033119,-1.1560223763757191,-1.1002554130478461,-1.0444884497196902,-1.0485154896886051,-1.0612798278948832,-1.0740441661008502,-1.0868085043065103,-1.0995728425118569,-1.112337180716896,-1.1251015189216236,-1.1378658571260458,-1.150630195330153,-1.1633945335339526,-1.1761588717374429,-1.188923209940622,-1.2016875481434921,-1.2144518863460529,-1.2272162245483031,-1.2399805627502429,-1.2527449009518747,-1.2655092391531932,-1.325292759314884,-1.4164231415100716,-1.5075535237048865,-1.598683905899339,-1.6898142880934248,-1.7809446702871445,-1.8720750524804943,-1.9632054346734784,-2.054335816866097,-2.1454661990583466,-2.2365965812502275,-2.3277269634417443,-2.4188573456328948,-2.5099877278236744,-2.6011181100140912,-2.6922484922041381,-2.7833788743938208,-2.8745092565831349,-2.9656396387720787,-3.0567700209606574,-3.2083356058927914,-3.3858028080642595,-3.5632700102353652,-3.7407372124061031,-3.9182044145764778,-4.0956716167464808,-4.27313881891612,-4.450606021085397,-4.6280732232543036,-4.8055404254228558,-4.9830076275910358,-5.1604748297588463,-5.3379420319262927,-5.5154092340933758,-5.6928764362600877,-5.8703436384264407,-6.0478108405924234,-6.22527804275804,-6.4027452449232962,-6.5802124470881829,-6.8313514983126495,-7.1009093822515945,-7.3704672661900883,-7.6400251501281335,-7.9095830340657454,-8.1791409180029,-8.4486988019396119,-8.7182566858758719,-8.98781456981169,-9.25737245374707,-9.5269303376819838,-9.796488221616471,-10.066046105550503,-10.33560398948409,-10.605161873417229,-10.874719757349924,-11.144277641282173,-11.413835525213981,-11.683393409145339,-11.952951293076257,-12.308610559486965,-12.673837550445969,-13.039064541404516,-13.404291532362565,-13.769518523320157,-14.134745514277272,-14.499972505233899,-14.865199496190057,-15.23042648714576,-15.59565347810098,-15.960880469055715,-16.326107460009986,-16.691334450963787,-17.056561441917111,-17.421788432869942,-17.787015423822321,-18.152242414774225,-18.517469405725642,-18.882696396676607,-19.247923387627058,0,0.01616210756747764,0.034167525007849191,0.058941033373439089,0.094635583964661874,0.14160208030910795,0.19989926212026476,0.26950935354870581,0.35035199311961873,0.44222031247264426,0.50961730951444018,0.66706479692171
DP 372,101.39804193212656,0.0026934970584639624,-23.874501305019059,-23.47879779444995,-23.083094283880364,-22.687390773310337,-22.291687262739785,-21.895983752168792,-21.500280241597316,-21.104576731025372,-20.70887322045294,-20.313169709880043,-19.91746619930667,-19.521762688732821,-19.126059178158492,-18.730355667583691,-18.334652157008421,-17.938948646432671,-17.543245135856445,-17.147541625279732,-16.751838114702579,-16.356134604124918,-15.963300627713465,-15.596292730042256,-15.229284832370553,-14.862276934698372,-14.495269037025672,-14.128261139352478,-13.761253241678796,-13.394245344004624,-13.02723744632997,-12.660229548654803,-12.293221650979131,-11.926213753302974,-11.559205855626312,-11.192197957949164,-10.825190060271522,-10.458182162593383,-10.091174264914748,-9.7241663672356164,-9.3571584695559817,-8.9901505718758656,-8.6349627575641446,-8.3270558353610955,-8.019148913157494,-7.7112419909533294,-7.4033350687486159,-7.0954281465433553,-6.78752122433753,-6.4796143021311536,-6.171707379924217,-5.8638004577167289,-5.5558935355086865,-5.2479866133000819,-4.940079691090931,-4.6321727688812206,-4.3242658466709578,-4.0163589244601337,-3.7084520022487588,-3.4005450800368306,-3.0926381578243505,-2.7847312356113108,-2.5028577165244958,-2.281729624979413,-2.0606015334337595,-1.8394734418875378,-1.6183453503407474,-1.3972172587933904,-1.1760891672454628,-0.95496107569696709,-0.73383298414790366,-0.5127048925982719,-0.29157680104807249,-0.070448709497305,0.15067938205403308,0.37180747360593841,0.592935565158412,0.81406365671145509,1.035191748265065,1.2563198398192483,1.4774479313739948,1.6985760229293088,1.8748265679954585,1.9837597328427017,2.0926928976905588,2.2016260625390309,2.3105592273881208,2.4194923922378235,2.528425557088144,2.6373587219390804,2.7462918867906261,2.8552250516427931,2.9641582164955742,3.0730913813489678,3.18202454620298,3.2909577110576032,3.3998908759128446,3.5088240407687006,3.6177572056251717,3.7266903704822623,3.8356235353399666,3.9445567001982824,3.934338198955488,3.9084639106437833,3.882589622332723,3.8567153340223039,3.8308410457125341,3.8049667574034074,3.7790924690949277,3.7532181807870892,3.7273438924799,3.7014696041733521,3.675595315867449,3.6497210275621916,3.6238467392575786,3.5979724509536113,3.5720981626502883,3.5462238743476076,3.5203495860455765,3.4944752977441844,3.3762011962671483,3.1963257636997473,3.0164503311330559,2.8365748985670702,2.6566994660017973,2.476824033437226,2.2969486008733715,2.1170731683102244,1.9371977357477856,1.7573223031860543,1.5774468706250409,1.3975714380647304,1.2176960055051305,1.0378205729462449,0.85794514038806036,0.67806970783059117,0.4981942752738262,0.31831884271777483,0.13844341016243533,-0.041432022392196705,-0.33992830809621266,-0.68926370404391823,-1.0385990999909231,-1.38793449593722,-1.7372698918828238,-2.086605287827711,-2.4359406837718942,-2.7852760797153913,-3.1346114756581689,-3.4839468716002542,-3.8332822675416316,-4.18261766348231,-4.531953059422273,-4.8812884553615516,-5.2306238513001064,-5.5799592472379711,-5.9292946431751323,-6.2786300391115795,-6.6279654350473338,-6.9773008309823759,-7.471143993776824,-8.0011158056781753,-8.53108761757872,-9.0610594294784725,-9.5910312413774346,-10.121003053275592,-10.650974865172961,-11.180946677069501,-11.710918488965262,-12.240890300860244,-12.770862112754392,-13.300833924647767,-13.830805736540327,-14.360777548432095,-14.890749360323071,-15.42072117221325,-15.950692984102615,-16.480664795991185,-17.010636607878965,-17.540608419765945,-18.239365990117307,-18.956879306290165,-19.674392622462189,-20.391905938633357,-21.109419254803726,-21.826932570973252,-22.544445887141929,-23.26195920330979,-23.979472519476818,-24.696985835643048,-25.414499151808407,-26.132012467972991,-26.849525784136716,-27.567039100299613,-28.284552416461651,-29.0020657326229,-29.719579048783313,-30.437092364942874,-31.154605681101629,-31.872118997259506,0,0.021290083056509007,0.051304888768939294,0.09744145915848082,0.16520426438836266,0.25499115256086974,0.36687411600124353,0.5007711592448757,0.65642796038801132,0.83332512793372193,0.96430394470552261,1.2694191475756404
DP 373,57.0538624732347,0.0041873828727334019,-22.923794536204497,-22.67833211152486,-22.432869686845176,-22.187407262165504,-21.941944837485778,-21.696482412806063,-21.451019988126308,-21.205557563446508,-20.9600951387667,-20.714632714086871,-20.469170289407007,-20.223707864727121,-19.978245440047207,-19.732783015367275,-19.487320590687318,-19.241858166007322,-18.996395741327316,-18.750933316647288,-18.505470891967246,-18.260008467287165,-18.016319475465714,-17.788591547004778,-17.560863618543774,-17.333135690082695,-17.105407761621535,-16.877679833160332,-16.649951904699051,-16.422223976237692,-16.194496047776287,-15.966768119314814,-15.739040190853268,-15.511312262391666,-15.28358433392998,-15.055856405468226,-14.828128477006434,-14.600400548544538,-14.372672620082593,-14.144944691620587,-13.917216763158514,-13.689488834696366,-13.469056374959568,-13.277806134918276,-13.086555894876772,-12.895305654835083,-12.704055414793206,-12.512805174751124,-12.321554934708848,-12.130304694666393,-11.93905445462371,-11.747804214580853,-11.556553974537799,-11.365303734494553,-11.174053494451112,-10.982803254407468,-10.791553014363634,-10.6003027743196,-10.40905253427538,-10.217802294230959,-10.026552054186347,-9.8353018141415323,-9.6601386438784811,-9.5225124766358658,-9.384886309393039,-9.24726014215001,-9.1096339749067745,-8.9720078076633385,-8.834381640419684,-8.6967554731758252,-8.5591293059317675,-8.4215031386874966,-8.2838769714430214,-8.1462508041983455,-8.0086246369534546,-7.8709984697083613,-7.73337230246306,-7.5957461352175519,-7.458119967971836,-7.3204938007259184,-7.1828676334797947,-7.045241466233457,-6.935357773310515,-6.867088447444976,-6.7988191215791431,-6.7305497957129985,-6.6622804698465572,-6.5940111439798139,-6.5257418181127713,-6.4574724922454179,-6.3892031663777793,-6.3209338405098254,-6.2526645146415794,-6.18439518877303,-6.1161258629041768,-6.047856537035023,-5.97958721116557,-5.9113178852958175,-5.8430485594257595,-5.7747792335553978,-5.7065099076847376,-5.63824058181378,-5.6420888051145033,-5.6572821173886245,-5.6724754296623994,-5.6876687419358216,-5.7028620542088841,-5.7180553664816012,-5.7332486787539532,-5.7484419910259685,-5.7636353032976242,-5.7788286155689255,-5.7940219278398724,-5.8092152401104684,-5.8244085523807128,-5.8396018646506036,-5.8547951769201436,-5.8699884891893257,-5.8851818014581552,-5.9003751137266338,-5.972827367101325,-6.0834531499209312,-6.1940789327400658,-6.3047047155587572,-6.41533049837699,-6.5259562811947562,-6.6365820640120683,-6.7472078468289247,-6.8578336296453246,-6.9684594124612662,-7.0790851952767477,-7.189710978091771,-7.3003367609063377,-7.4109625437204425,-7.5215883265340917,-7.63221410934729,-7.74283989216003,-7.8534656749723029,-7.964091457784126,-8.0747172405954881,-8.2589647725681949,-8.4747654768758878,-8.6905661811831276,-8.9063668854899074,-9.122167589796236,-9.3379682941020938,-9.5537689984074916,-9.7695697027124488,-9.9853704070169318,-10.201171111320971,-10.416971815624548,-10.632772519927659,-10.848573224230311,-11.06437392853252,-11.280174632834251,-11.495975337135535,-11.711776041436371,-11.927576745736724,-12.143377450036638,-12.35917815433608,-12.664709946075606,-12.992675569868204,-13.320641193660206,-13.648606817451617,-13.976572441242403,-14.304538065032602,-14.632503688822194,-14.960469312611165,-15.288434936399561,-15.616400560187355,-15.944366183974514,-16.272331807761105,-16.600297431547073,-16.928263055332447,-17.256228679117218,-17.584194302901381,-17.912159926684939,-18.240125550467916,-18.56809117425027,-18.896056798032017,-19.32891207556921,-19.7734228606742,-20.217933645778526,-20.6624444308822,-21.106955215985217,-21.551466001087594,-21.99597678618931,-22.440487571290372,-22.8849983563908,-23.329509141490547,-23.774019926589649,-24.218530711688128,-24.663041496785905,-25.107552281883084,-25.55206306697956,-25.996573852075421,-26.441084637170608,-26.885595422265123,-27.330106207359044,-27.774616992452248,0,0.028259697786916005,0.055095560711412125,0.088019050997625886,0.1337985881224176,0.19316962707568133,0.26633945405486364,0.35339359068980636,0.45436653106240976,0.5691219151159459,0.65184264600764508,0.84516761225273707
DP 374,125.61452165790547,0.0026119714787100705,-27.158126411893178,-26.668119437797241,-26.178112463700629,-25.688105489603377,-25.198098515505453,-24.708091541406862,-24.2180845673076,-23.728077593207683,-23.238070619107116,-22.748063645005868,-22.258056670903965,-21.768049696801388,-21.27804272269816,-20.788035748594243,-20.298028774489676,-19.808021800384438,-19.318014826278553,-18.828007852171986,-18.338000878064769,-17.847993903956876,-17.361561045247658,-16.907295562972489,-16.453030080696657,-15.998764598420115,-15.544499116142903,-15.090233633865019,-14.635968151586425,-14.181702669307173,-13.727437187027236,-13.273171704746616,-12.818906222465321,-12.364640740183329,-11.910375257900681,-11.456109775617335,-11.00184429333331,-10.547578811048608,-10.093313328763207,-9.6390478464771459,-9.1847823641903936,-8.7305168819029646,-8.290962036539625,-7.9102504341198028,-7.5295388316992531,-7.1488272292779813,-6.7681156268559794,-6.3874040244332475,-6.0066924220097935,-5.6259808195856005,-5.2452692171606881,-4.8645576147350456,-4.4838460123086668,-4.1031344098815632,-3.7224228074537322,-3.3417112050251707,-2.9609996025958836,-2.5802880001658659,-2.1995763977351204,-1.8188647953036465,-1.4381531928714459,-1.0574415904385168,-0.70907346742725053,-0.43617448212846294,-0.16327549682892736,0.10962348847134944,0.38252247377236881,0.65542145907413341,0.928320444376641,1.2012194296798948,1.4741184149838897,1.747017400288629,2.0199163855941107,2.2928153709003367,2.5657143562073066,2.838613341515023,3.1115123268234797,3.3844113121326829,3.6573102974426281,3.9302092827533137,4.203108268064752,4.4760072533769248,4.6932625158353245,4.8270508791162392,4.9608392423979373,5.0946276056804161,5.2284159689636791,5.36220433224773,5.4959926955325518,5.6297810588181587,5.7635694221045535,5.8973577853917325,6.0311461486796878,6.16493451196843,6.2987228752579609,6.432511238548261,6.5662996018393542,6.7000879651312273,6.8338763284238873,6.9676646917173173,7.1014530550115431,7.2352414183065479,7.2197333109760287,7.1867720801578052,7.1538108493403856,7.1208496185237689,7.0878883877079719,7.0549271568929877,7.0219659260788054,6.9890046952654341,6.9560434644528728,6.9230822336411206,6.8901210028301776,6.8571597720200437,6.8241985412107224,6.7912373104022032,6.7582760795945,6.7253148487876029,6.6923536179815182,6.6593923871762408,6.5124032377129755,6.2893936794481933,6.0663841211842824,5.8433745629212321,5.6203650046590621,5.3973554463977509,5.17434588813732,4.9513363298777557,4.7283267716190638,4.5053172133612431,4.2823076551042965,4.0592980968482175,3.8362885385930068,3.6132789803386762,3.3902694220852054,3.1672598638326104,2.9442503055808822,2.7212407473300328,2.4982311890800535,2.275221630830945,1.9061433094097935,1.4744621171029364,1.0427809247969393,0.6110997324918086,0.17941854018752759,-0.25226265211587429,-0.68394384441841849,-1.1156250367201177,-1.5473062290209376,-1.9789874213209098,-2.4106686136200115,-2.8423498059182548,-3.2740309982156308,-3.7057121905121608,-4.1373933828078107,-4.5690745751026132,-5.0007557673965488,-5.4324369596896185,-5.8641181519818275,-6.2957993442731794,-6.9051305114010315,-7.558876271212795,-8.2126220310236,-8.8663677908334471,-9.5201135506423533,-10.173859310450297,-10.827605070257293,-11.481350830063315,-12.135096589868393,-12.788842349672541,-13.442588109475686,-14.096333869277911,-14.750079629079165,-15.403825388879469,-16.057571148678814,-16.711316908477226,-17.365062668274653,-18.01880842807115,-18.672554187866684,-19.326299947661262,-20.1873118027663,-21.071355400812372,-21.955398998857486,-22.839442596901577,-23.7234861949447,-24.607529792986835,-25.491573391027988,-26.375616989068149,-27.259660587107362,-28.143704185145541,-29.027747783182779,-29.911791381218986,-30.795834979254245,-31.679878577288523,-32.563922175321785,-33.447965773354063,-34.332009371385396,-35.216052969415728,-36.100096567445078,-36.984140165473363,0,0.02278674869067697,0.058112157104499504,0.1142109848968926,0.1968806415035011,0.30657964194526732,0.44341572269634644,0.60728819438394888,0.7978625361176177,1.0144640042724922,1.1751125399743809,1.548858776402
DP 375,74.015338673952428,0.0047587145467849756,-32.566677212538941,-32.119897590463722,-31.673117968388151,-31.226338346312225,-30.779558724235937,-30.332779102159304,-29.885999480082329,-29.439219858005011,-28.992440235927347,-28.545660613849304,-28.098880991770937,-27.652101369692232,-27.205321747613151,-26.758542125533733,-26.311762503453959,-25.864982881373852,-25.418203259293378,-24.97142363721257,-24.5246440151314,-24.077864393049893,-23.634315607763664,-23.219844659030187,-22.805373710296355,-22.390902761562138,-21.976431812827514,-21.561960864092509,-21.147489915357106,-20.7330189666213,-20.318548017885103,-19.904077069148521,-19.489606120411548,-19.075135171674177,-18.660664222936408,-18.246193274198248,-17.8317223254597,-17.417251376720753,-17.002780427981428,-16.588309479241698,-16.17383853050157,-15.759367581761069,-15.3581999908228,-15.010246459829876,-14.662292928836409,-14.314339397842428,-13.966385866847913,-13.618432335852887,-13.270478804857342,-12.922525273861291,-12.574571742864686,-12.226618211867564,-11.878664680869914,-11.530711149871756,-11.182757618873067,-10.834804087873859,-10.486850556874128,-10.138897025873872,-9.79094349487309,-9.4429899638717938,-9.0950364328699731,-8.7470829018676266,-8.42845860349926,-8.178270105367222,-7.9280816072346383,-7.67789310910152,-7.4277046109678615,-7.1775161128336622,-6.9273276146989229,-6.6771391165636373,-6.4269506184278189,-6.1767621202914489,-5.9265736221545522,-5.6763851240171093,-5.4261966258791237,-5.1760081277406,-4.9258196296015324,-4.6756311314619294,-4.4254426333217838,-4.1752541351810937,-3.925065637039868,-3.6748771388981027,-3.4752800079593653,-3.3515711233314844,-3.2278622387029734,-3.1041533540738158,-2.9804444694440235,-2.8567355848135909,-2.7330267001825228,-2.6093178155508148,-2.4856089309184708,-2.3619000462854824,-2.2381911616518613,-2.1144822770176,-1.9907733923827022,-1.8670645077471666,-1.7433556231109884,-1.6196467384741731,-1.4959378538367232,-1.3722289691986291,-1.2485200845599005,-1.1248111999205346,-1.1340735433772602,-1.1625205453266523,-1.1909675472753485,-1.2194145492233528,-1.2478615511706588,-1.2763085531172722,-1.3047555550631851,-1.3332025570084129,-1.3616495589529396,-1.3900965608967746,-1.4185435628399101,-1.4469905647823524,-1.4754375667241044,-1.5038845686651576,-1.5323315706055152,-1.560778572545181,-1.5892255744841486,-1.6176725764224222,-1.7505112583007489,-1.9529460380287555,-2.1553808177559444,-2.3578155974823285,-2.5602503772078977,-2.7626851569326609,-2.965119936656603,-3.1675547163797395,-3.369989496102062,-3.5724242758235731,-3.7748590555442632,-3.9772938352641476,-4.1797286149832251,-4.382163394701478,-4.5845981744189315,-4.7870329541355634,-4.98946773385139,-5.1919025135664025,-5.3943372932805955,-5.5967720729939821,-5.9333719604607023,-6.3274729914686638,-6.721574022475818,-7.1156750534821631,-7.5097760844877079,-7.9038771154924268,-8.29797814649634,-8.6920791774994637,-9.0861802085017569,-9.4802812395032614,-9.874382270503947,-10.26848330150383,-10.662584332502888,-11.056685363501158,-11.450786394498596,-11.844887425495243,-12.238988456491072,-12.633089487486098,-13.027190518480319,-13.42129154947372,-13.978940852161402,-14.577479155132517,-15.176017458102661,-15.774555761071831,-16.373094064040032,-16.971632367007253,-17.570170669973493,-18.168708972938759,-18.767247275903049,-19.365785578866397,-19.964323881828729,-20.562862184790117,-21.16140048775048,-21.759938790709935,-22.358477093668373,-22.957015396625849,-23.555553699582354,-24.15409200253788,-24.752630305492421,-25.351168608446002,-26.140842211927286,-26.951755078405697,-27.762667944883113,-28.573580811359438,-29.384493677834758,-30.195406544309055,-31.006319410782314,-31.817232277254526,-32.628145143725732,-33.439058010195886,-34.249970876665,-35.060883743133139,-35.8717966096002,-36.682709476066279,-37.493622342531239,-38.304535208995254,-39.1154480754582,-39.926360941920066,-40.737273808381019,-41.548186674840785,0,0.033660366192542569,0.072441680985368073,0.12684492799383748,0.20557272215140424,0.3093259388448274,0.43821338663141735,0.59217885508280232,0.771018496989507,0.97424744250415674,1.1236456766376097,1.4725366872029233
DP 376,83.609676550969013,0.0028351445552062728,-21.505705338582288,-21.184592810604038,-20.863480282625446,-20.542367754646563,-20.221255226667331,-19.9001426986878,-19.579030170707963,-19.257917642727815,-18.936805114747337,-18.615692586766549,-18.294580058785439,-17.973467530804037,-17.652355002822308,-17.331242474840238,-17.0101299468579,-16.689017418875224,-16.36790489089223,-16.046792362908917,-15.725679834925302,-15.404567306941372,-15.085778516540158,-14.787903584035677,-14.490028651530851,-14.192153719025683,-13.894278786520166,-13.596403854014333,-13.298528921508145,-13.00065398900162,-12.702779056494768,-12.404904123987563,-12.107029191480027,-11.80915425897215,-11.511279326463919,-11.213404393955358,-10.915529461446464,-10.617654528937239,-10.319779596427658,-10.021904663917747,-9.7240297314074944,-9.4261547988969028,-9.1378502407721349,-8.88782763250086,-8.63780502422918,-8.3877824159570835,-8.13775980768458,-7.88773719941166,-7.6377145911383266,-7.3876919828645873,-7.1376693745904332,-6.8876467663158669,-6.6376241580409028,-6.3876015497655168,-6.1375789414897177,-5.8875563332135181,-5.63753372493689,-5.3875111166598657,-5.1374885083824262,-4.8874659001045737,-4.6374432918263127,-4.3874206835476395,-4.1584924234567593,-3.9787849737673295,-3.7990775240774677,-3.6193700743871866,-3.4396626246964837,-3.2599551750053593,-3.08024772531381,-2.9005402756218337,-2.7208328259294379,-2.54112537623662,-2.3614179265433788,-2.1817104768497178,-2.0020030271556268,-1.822295577461118,-1.6425881277661845,-1.4628806780708281,-1.2831732283750468,-1.103465778678844,-0.92375832898221943,-0.74405087928517233,-0.60072789078471267,-0.51198245386721719,-0.42323701694924559,-0.33449158003079404,-0.24574614311186516,-0.1570007061924579,-0.068255269272573763,0.020490167647791022,0.10923560456862975,0.19798104148995038,0.28672647841174664,0.37547191533402069,0.46421735225677435,0.55296278918000341,0.6417082261037127,0.7304536630278976,0.81919909995256368,0.90794453687770837,0.99668997380332958,1.085435410729426,1.0781782393101653,1.0575260765496353,1.0368739137896166,1.0162217510301046,0.99556958827110831,0.97491742551261962,0.95426526275464707,0.93361309999717756,0.91296093724022409,0.89230877448377777,0.87165661172784525,0.851004448972423,0.83035228621750967,0.80970012346310793,0.78904796070921734,0.76839579795583757,0.74774363520296849,0.72709147245061234,0.631400336063329,0.48568203511048152,0.33996373415821618,0.19424543320652746,0.048527132255419214,-0.097191168695111657,-0.24290946964505658,-0.38862777059442505,-0.53434607154321467,-0.68006437249142282,-0.82578267343904688,-0.97150097438609562,-1.1172192753325636,-1.262937576278448,-1.4086558772237587,-1.554374178168483,-1.7000924791126339,-1.8458107800562005,-1.9915290809991846,-2.1372473819415903,-2.3793822503124882,-2.6628398066482197,-2.9462973629833806,-3.229754919317962,-3.5132124756519718,-3.7966700319853945,-4.0801275883182422,-4.3635851446505285,-4.6470427009822215,-4.9305002573133532,-5.2139578136438969,-5.49741536997387,-5.7808729263032674,-6.06433048263209,-6.3477880389603225,-6.6312455952879912,-6.9147031516150816,-7.1981607079415886,-7.4816182642675324,-7.7650758205928927,-8.1660552518093059,-8.5964165402960671,-9.0267778287821763,-9.4571391172675927,-9.8875004057523377,-10.317861694236406,-10.748222982719803,-11.178584271202514,-11.60894555968456,-12.039306848165936,-12.469668136646618,-12.900029425126634,-13.33039071360596,-13.760752002084642,-14.191113290562624,-14.621474579039937,-15.051835867516569,-15.482197155992532,-15.912558444467804,-16.342919732942423,-16.910604348097365,-17.493548552888367,-18.07649275767864,-18.659436962468185,-19.242381167257051,-19.825325372045192,-20.408269576832609,-20.991213781619322,-21.574157986405361,-22.157102191190649,-22.740046395975256,-23.322990600759152,-23.905934805542316,-24.488879010324784,-25.071823215106523,-25.654767419887598,-26.237711624667959,-26.820655829447567,-27.40360003422651,-27.986544239004711,0,0.020799879536924998,0.04691364670474326,0.085177895635443562,0.14100596810889168,0.21479594862885498,0.306605976042732,0.41637748223123783,0.54393070843537072,0.68887988467683847,0.79585025246131547,1.0454074758514225
DP 377,95.956002601946622,0.0035422478585904909,-30.062195563597005,-29.57705241606055,-29.091909268523537,-28.606766120986002,-28.121622973447892,-27.636479825909227,-27.151336678369987,-26.66619353083021,-26.181050383289865,-25.695907235748983,-25.210764088207526,-24.725620940665543,-24.240477793122949,-23.75533464557985,-23.270191498036183,-22.785048350491948,-22.299905202947155,-21.814762055401818,-21.329618907855917,-20.844475760309468,-20.362848033281175,-19.912859423213337,-19.462870813144907,-19.0128822030759,-18.562893593006326,-18.112904982936151,-17.662916372865393,-17.212927762794035,-16.762939152722119,-16.312950542649613,-15.862961932576525,-15.412973322502836,-14.962984712428584,-14.512996102353732,-14.063007492278297,-13.61301888220228,-13.163030272125692,-12.713041662048498,-12.263053051970726,-11.813064441892376,-11.377556642921906,-10.999972772767959,-10.62238890261334,-10.244805032458066,-9.8672211623021315,-9.4896372921455168,-9.1120534219882465,-8.7344695518303084,-8.3568856816717,-7.9793018115124257,-7.6017179413524891,-7.2241340711918811,-6.84655020103061,-6.4689663308686711,-6.091382460706062,-5.7137985905427922,-5.336214720378857,-4.9586308502142575,-4.581046980048991,-4.2034631098830557,-3.857779095062523,-3.5865290811322943,-3.3152790672013763,-3.04402905326978,-2.7727790393374994,-2.5015290254045381,-2.2302790114708939,-1.9590289975365625,-1.6877789836015515,-1.4165289696658563,-1.1452789557294811,-0.87402894179242274,-0.60277892785467824,-0.3315289139162525,-0.060278899977144848,0.21097111396264753,0.48222112790312,0.75347114184427988,1.0247211557861189,1.2959711697286418,1.5122145238108202,1.6459465882599038,1.779678652709731,1.9134107171603076,2.0471427816116305,2.1808748460637,2.3146069105165146,2.4483389749700804,2.5820710394243864,2.7158031038794426,2.8495351683352435,2.9832672327917931,3.1169992972490879,3.2507313617071314,3.384463426165921,3.5181954906254562,3.6519275550857357,3.785659619546764,3.9193916840085405,4.0531237484710587,4.04109224994914,4.0095329251774476,3.9779736004065387,3.9464142756364144,3.91485495086708,3.8832956260985276,3.8517363013307691,3.82017697656378,3.7886176517975922,3.7570583270321847,3.7254990022675609,3.6939396775037321,3.6623803527406791,3.6308210279784197,3.5992617032169436,3.5677023784562527,3.5361430536963461,3.5045837289372326,3.3596976829931009,3.1392587042759046,2.9188197255595849,2.6983807468441281,2.4779417681295435,2.2575027894158284,2.0370638107029935,1.8166248319910263,1.5961858532799267,1.375746874569699,1.1553078958603535,0.93486891715187026,0.71442993844425906,0.49399095973752627,0.27355198103165612,0.053113002326663675,-0.16732597637746538,-0.38776495508071485,-0.60820393378309012,-0.82864291248459665,-1.1946171210782373,-1.6229655362332593,-2.0513139513874208,-2.4796623665407109,-2.908010781693148,-3.3363591968447044,-3.7647076119953988,-4.1930560271452473,-4.62140444229421,-5.0497528574423276,-5.4781012725895639,-5.9064496877359467,-6.3347981028814573,-6.763146518026117,-7.1914949331698956,-7.6198433483128163,-8.04819176345487,-8.4765401785960659,-8.904888593736386,-9.3332370088758481,-9.9389157713224368,-10.588929215794082,-11.238942660264739,-11.888956104734413,-12.538969549203086,-13.188982993670782,-13.838996438137491,-14.489009882603186,-15.139023327067903,-15.789036771531658,-16.439050215994381,-17.089063660456148,-17.739077104916895,-18.389090549376693,-19.039103993835464,-19.689117438293266,-20.339130882750066,-20.989144327205885,-21.639157771660713,-22.289171216114543,-23.146342207144514,-24.026532879004932,-24.90672355086436,-25.7869142227227,-26.667104894580064,-27.547295566436372,-28.42748623829165,-29.307676910145883,-30.187867581999132,-31.068058253851323,-31.948248925702433,-32.828439597552595,-33.708630269401667,-34.588820941249757,-35.4690116130968,-36.3492022849428,-37.229392956787784,-38.109583628631682,-38.98977430047465,-39.869964972316524,0,0.027358936187590943,0.064780248639562735,0.12164489859266635,0.2050487610349459,0.31550017553800974,0.45308423731298725,0.61770175950874484,0.80904932218262671,1.026502524393982,1.1873966097489848,1.5623480014962874
DP 378,53.673283375829747,0.001047660449930027,-5.4483084386645464,-5.3941623984234051,-5.3400163581822833,-5.2858703179411659,-5.2317242777000477,-5.1775782374589436,-5.1234321972178405,-5.0692861569767516,-5.0151401167356715,-4.9609940764945968,-4.9068480362535265,-4.85270199601247,-4.7985559557714161,-4.74440991553037,-4.6902638752893315,-4.636117835048303,-4.5819717948072789,-4.5278257545662628,-4.4736797143252582,-4.4195336740842563,-4.3657788827065991,-4.315545368081465,-4.2653118534563292,-4.215078338831189,-4.1648448242060487,-4.1146113095808987,-4.0643777949557522,-4.014144280330596,-3.9639107657054393,-3.9136772510802884,-3.863443736455122,-3.8132102218299559,-3.7629767072047873,-3.7127431925796164,-3.6625096779544419,-3.6122761633292653,-3.5620426487040846,-3.5118091340788982,-3.4615756194537144,-3.4113421048285235,-3.3627168102699567,-3.3205244719846019,-3.2783321336992057,-3.2361397954137745,-3.1939474571283086,-3.1517551188428041,-3.1095627805572663,-3.0673704422716956,-3.0251781039860814,-2.9829857657004371,-2.9407934274147545,-2.8986010891290377,-2.8564087508432818,-2.8142164125574931,-2.7720240742716689,-2.7298317359858064,-2.6876393976999053,-2.6454470594139758,-2.6032547211280042,-2.5610623828419992,-2.5224170726360038,-2.492048273041271,-2.4616794734464977,-2.4313106738516859,-2.4009418742568385,-2.3705730746619516,-2.3402042750670242,-2.30983547547206,-2.2794666758770545,-2.2490978762820126,-2.2187290766869321,-2.1883602770918129,-2.1579914774966555,-2.1276226779014595,-2.097253878306224,-2.06688507871095,-2.0365162791156375,-2.0061474795202865,-1.9757786799248984,-1.9454098803294695,-1.921156373228722,-1.9060759493782349,-1.8909955255276856,-1.8759151016770759,-1.8608346778264011,-1.8457542539756628,-1.8306738301248633,-1.815593406274,-1.8005129824230781,-1.7854325585720892,-1.7703521347210394,-1.7552717108699256,-1.7401912870187486,-1.7251108631675109,-1.7100304393162089,-1.694950015464846,-1.679869591613421,-1.6647891677619306,-1.6497087439103775,-1.6346283200587641,-1.6353879105470566,-1.6387078662971908,-1.6420278220472495,-1.6453477777972321,-1.6486677335471385,-1.6519876892969709,-1.655307645046725,-1.6586276007964071,-1.6619475565460093,-1.6652675122955383,-1.6685874680449917,-1.6719074237943679,-1.6752273795436698,-1.6785473352928955,-1.6818672910420445,-1.6851872467911189,-1.6885072025401182,-1.691827158289041,-1.7077692361435561,-1.7321262609137222,-1.7564832856837818,-1.7808403104537429,-1.8051973352236013,-1.8295543599933584,-1.853911384763012,-1.8782684095325644,-1.9026254343020146,-1.9269824590713633,-1.9513394838406091,-1.9756965086097531,-2.0000535333787979,-2.0244105581477374,-2.0487675829165757,-2.0731246076853118,-2.0974816324539476,-2.12183865722248,-2.14619568199091,-2.1705527067592372,-2.2111401054224533,-2.2586835977726603,-2.3062270901227677,-2.3537705824727677,-2.4013140748226713,-2.4488575671724662,-2.4964010595221628,-2.5439445518717592,-2.5914880442212507,-2.6390315365706409,-2.6865750289199282,-2.7341185212691137,-2.7816620136181958,-2.8292055059671757,-2.8767489983160535,-2.9242924906648304,-2.9718359830135048,-3.0193794753620753,-3.0669229677105454,-3.1144664600589125,-3.1817909357649969,-3.2540608910272932,-3.3263308462894519,-3.3986008015514688,-3.4708707568133486,-3.5431407120750951,-3.6154106673366981,-3.6876806225981626,-3.7599505778594877,-3.8322205331206805,-3.9044904883817262,-3.9767604436426445,-4.04903039890341,-4.1213003541640507,-4.1935703094245458,-4.265840264684905,-4.3381102199451229,-4.4103801752052094,-4.4826501304651529,-4.5549200857249561,-4.65031269657407,-4.7482747342213365,-4.84623677186845,-4.9441988095154121,-5.0421608471622266,-5.1401228848088873,-5.238084922455398,-5.3360469601017533,-5.4340089977479629,-5.5319710353940232,-5.6299330730399282,-5.7278951106856875,-5.8258571483312886,-5.9238191859767433,-6.0217812236220443,-6.1197432612672023,-6.217705298912203,-6.3156673365570475,-6.41362937420175,-6.5115914118462968,0,0.0070325383877703207,0.013432669519035349,0.02099233269701916,0.0313383303900919,0.044656706364777754,0.061008513850807355,0.0804262645564799,0.10293358066775904,0.12851318672354861,0.14678882881902366,0.18946364472593297
DP 379,160.33371125689638,0.0040406756633924968,-49.56198744104212,-48.602011140362428,-47.642034839681386,-46.682058538998994,-45.722082238315082,-44.762105937629876,-43.802129636943256,-42.842153336255237,-41.882177035565824,-40.922200734874991,-39.962224434182794,-39.002248133489196,-38.042271832794214,-37.082295532097824,-36.122319231400041,-35.162342930700888,-34.202366630000313,-33.242390329298388,-32.282414028595042,-31.322437727890268,-30.369574749080503,-29.480732339718063,-28.5918899303542,-27.70304752098901,-26.814205111622286,-25.9253627022542,-25.036520292884706,-24.147677883513797,-23.25883547414147,-22.369993064767716,-21.481150655392561,-20.592308246015985,-19.703465836637996,-18.814623427258589,-17.925781017877782,-17.036938608495532,-16.148096199111905,-15.259253789726822,-14.370411380340338,-13.481568970952456,-12.621924445529581,-11.879072835903681,-11.136221226276316,-10.393369616647467,-9.65051800701716,-8.90766639738539,-8.16481478775213,-7.4219631781174158,-6.6791115684812219,-5.9362599588435705,-5.1934083492044412,-4.4505567395638383,-3.7077051299217709,-2.9648535202782327,-2.2220019106332227,-1.4791503009867428,-0.73629869133879533,0.0065529183106186363,0.74940452796149959,1.4922561376138559,2.1712085394196832,2.7010607762797747,3.2309130131413744,3.7607652500044617,4.2906174868690474,4.8204697237351315,5.35032196060271,5.8801741974717947,6.4100264343423641,6.939878671214438,7.469730908087997,7.9995831449630588,8.5294353818396278,9.0592876187176827,9.5891398555972387,10.118992092478294,10.64884432936085,11.178696566244886,11.708548803130435,12.238401040017466,12.658954500945747,12.915557215135696,13.172159929327213,13.428762643520264,13.685365357714854,13.941968071910999,14.198570786108682,14.455173500307923,14.71177621450869,14.968378928711029,15.224981642914903,15.481584357120305,15.738187071327273,15.994789785535788,16.25139249974584,16.507995213957432,16.764597928170595,17.021200642385278,17.27780335660152,17.534406070819305,17.490707375057426,17.421906738759631,17.353106102463403,17.28430546616876,17.21550482987573,17.146704193584252,17.077903557294384,17.009102921006082,16.940302284719355,16.871501648434236,16.802701012150688,16.733900375868725,16.665099739588339,16.59629910330953,16.527498467032316,16.458697830756684,16.389897194482618,16.321096558210158,16.031237932186304,15.594003830511172,15.15676972883772,14.71953562716592,14.282301525495823,13.845067423827375,13.407833322160615,12.970599220495542,12.533365118832126,12.096131017170402,11.658896915510351,11.221662813851966,10.784428712195258,10.347194610540241,9.9099605088868739,9.4727264072352053,9.0354923055852,8.598258203936874,8.1610241022902237,7.72379000064527,7.005088218472217,6.1657536296679236,5.3264190408652849,4.4870844520643089,3.6477498632649676,2.8084152744673143,1.9690806856713077,1.1297460968769257,0.29041150808423205,-0.54892308070683427,-1.3882576694962268,-2.2275922582839742,-3.0669268470700524,-3.9062614358545,-4.7455960246372646,-5.58493061341839,-6.4242652021978595,-7.26359979097566,-8.1029343797518241,-8.9422689685263315,-10.12229790792613,-11.38750446036339,-12.652711012798862,-13.917917565232518,-15.183124117664388,-16.44833067009445,-17.713537222522724,-18.978743774949159,-20.243950327373817,-21.509156879796731,-22.77436343221774,-24.039569984637037,-25.304776537054455,-26.569983089470142,-27.835189641883996,-29.100396194296021,-30.365602746706273,-31.630809299114755,-32.8960158515214,-34.16122240392626,-35.82267899535853,-37.528167530488993,-39.233656065617666,-40.939144600744434,-42.644633135869356,-44.350121670992465,-46.055610206113705,-47.76109874123307,-49.466587276350623,-51.172075811466378,-52.877564346580229,-54.583052881692282,-56.288541416802467,-57.994029951910754,-59.699518487017272,-61.405007022121879,-63.110495557224674,-64.8159840923256,-66.5214726274248,-68.226961162521988,0,0.039656107370441979,0.10564627102311477,0.21280218697472353,0.37101515849135047,0.5811707834535893,0.84351521310329736,1.157860380178823,1.523538183277747,1.9392039640049994,2.2477622516410602,2.9648501399533611
DP 380,103.42119410016912,0.0012439239029225768,-11.196253298447687,-11.009002156158635,-10.821751013869347,-10.634499871579845,-10.447248729290111,-10.259997587000145,-10.072746444709949,-9.88549530241954,-9.6982441601288922,-9.51099301783801,-9.3237418755469026,-9.136490733255572,-8.9492395909640141,-8.7619884486722164,-8.5747373063802037,-8.3874861640879548,-8.2002350217954856,-8.0129838795027837,-7.8257327372098544,-7.6384815949166942,-7.4525888862021556,-7.2789222081020011,-7.1052555300016085,-6.9315888519009787,-6.7579221738001074,-6.5842554956990034,-6.4105888175976578,-6.2369221394960777,-6.0632554613942578,-5.8895887832922025,-5.71592210518991,-5.5422554270873823,-5.3685887489846156,-5.1949220708816064,-5.0212553927783645,-4.8475887146748855,-4.6739220365711667,-4.5002553584672125,-4.3265886803630185,-4.1529220022585926,-3.9848505391824243,-3.8391602006576555,-3.6934698621326238,-3.5477795236073226,-3.4020891850817629,-3.2563988465559368,-3.1107085080298464,-2.9650181695034905,-2.8193278309768721,-2.6736374924499877,-2.5279471539228391,-2.3822568153954262,-2.23656647686775,-2.0908761383398082,-1.9451857998116007,-1.7994954612831282,-1.6538051227543924,-1.5081147842253924,-1.3624244456961299,-1.2167341071666022,-1.0833652690056048,-0.97874698659074044,-0.87412870417560307,-0.76951042176019657,-0.66489213934451907,-0.56027385692857135,-0.45565557451235222,-0.3510372920958621,-0.24641900967910182,-0.14180072726207027,-0.037182444844768861,0.067435837572802762,0.17205411999064726,0.27667240240876123,0.38129068482714623,0.48590896724580207,0.5905272496647288,0.69514553208392627,0.7997638145033944,0.90438209692313265,0.98776159624563831,1.0392824190362495,1.0908032418271525,1.1423240646183492,1.1938448874098375,1.2453657102016173,1.2968865329936898,1.348407355786053,1.3999281785787117,1.4514490013716599,1.5029698241649014,1.5544906469584314,1.6060114697522574,1.6575322925463736,1.7090531153407833,1.7605739381354835,1.8120947609304785,1.8636155837257657,1.9151364065213428,1.9666572293172118,1.9617462653610709,1.9494775946304048,1.9372089239000416,1.924940253169986,1.9126715824402361,1.9004029117107917,1.8881342409816539,1.8758655702528171,1.8635968995242922,1.8513282287960706,1.8390595580681559,1.8267908873405427,1.8145222166132389,1.8022535458862383,1.7899848751595471,1.7777162044331576,1.7654475337070772,1.7531788629812992,1.6971935374517619,1.6120630866868482,1.5269326359222688,1.4418021851580232,1.3566717343941153,1.2715412836305386,1.1864108328673013,1.1012803821043982,1.01614993134183,0.93101948057959694,0.8458890298177022,0.76075857905614042,0.67562812829491536,0.59049767753402593,0.5053672267734709,0.4202367760132526,0.33510632525336748,0.24997587449382,0.16484542373460823,0.079714972975731921,-0.061530520194841586,-0.22682607498404883,-0.39212162977292481,-0.55741718456146594,-0.72271273934967972,-0.88800829413755356,-1.0533038489250974,-1.2185994037123136,-1.3838949584991913,-1.5491905132857418,-1.7144860680719562,-1.8797816228578403,-2.0450771776433894,-2.2103727324286098,-2.3756682872134935,-2.5409638419980474,-2.7062593967822663,-2.8715549515661536,-3.0368505063497113,-3.2021460611329342,-3.4357965398861849,-3.6865365572608759,-3.9372765746351943,-4.1880165920091379,-4.4387566093827,-4.6894966267558891,-4.9402366441287047,-5.190976661501141,-5.4417166788731954,-5.6924566962448795,-5.94319671361618,-6.1939367309871152,-6.4446767483576588,-6.6954167657278463,-6.9461567830976465,-7.1968968004670684,-7.4476368178361181,-7.6983768352047877,-7.949116852573078,-8.1998568699409979,-8.530430667557507,-8.8698757236494661,-9.2093207797410379,-9.5487658358321941,-9.88821089192298,-10.227655948013375,-10.567101004103362,-10.90654606019296,-11.245991116282196,-11.585436172371022,-11.924881228459448,-12.264326284547499,-12.603771340635156,-12.943216396722431,-13.282661452809281,-13.62210650889577,-13.961551564981855,-14.300996621067551,-14.640441677152873,-14.97988673323777,0,0.0099169173115191411,0.024041786669280078,0.04583510093378998,0.077857560332541584,0.12029521616086897,0.17318269248885421,0.23648109623672978,0.31006904200053359,0.39369930820737264,0.45563460819206364,0.59989339753512416
DP 381,205.79931459858312,0.004796364482449667,-68.879183798797911,-67.467723706359,-66.056263613917992,-64.644803521474955,-63.233343429029752,-61.821883336582616,-60.410423244133256,-58.9989631516819,-57.587503059228396,-56.1760429667728,-54.764582874315153,-53.353122781855419,-51.94166268939361,-50.530202596929719,-49.118742504463782,-47.707282411995713,-46.295822319525577,-44.884362227053352,-43.472902134579073,-42.061442042102684,-40.660807086033948,-39.357599380889255,-38.054391675742515,-36.751183970593623,-35.447976265442655,-34.14476856028957,-32.841560855134382,-31.53835314997708,-30.235145444817732,-28.931937739656249,-27.628730034492648,-26.325522329326976,-25.022314624159176,-23.719106918989304,-22.41589921381733,-21.112691508643223,-19.809483803467042,-18.506276098288744,-17.203068393108371,-15.899860687925887,-14.640813577937248,-13.558410935821477,-12.476008293703561,-11.393605651583504,-10.311203009461305,-9.2288003673369641,-8.1463977252104733,-7.0639950830818412,-5.9815924409510766,-4.8991897988181545,-3.816787156683092,-2.734384514545884,-1.6519818724065336,-0.56957923026504009,0.51282341187859837,1.5952260540243792,2.677628696172301,3.7600313383223631,4.8424339804745644,5.9248366226289217,6.9115659311629445,7.6750544468227613,8.4385429624847585,9.2020314781489283,9.9655199938152723,10.729008509483812,11.492497025154522,12.255985540827416,13.01947405650249,13.782962572179738,14.546451087859163,15.309939603540775,16.073428119224577,16.836916634910544,17.600405150598672,18.363893666289005,19.127382181981524,19.890870697676213,20.654359213373066,21.417847729072125,22.019781472835732,22.3793792410533,22.738977009273128,23.09857477749517,23.458172545719428,23.817770313945925,24.177368082174649,24.536965850405569,24.896563618638744,25.25616138687413,25.615759155111721,25.975356923351551,26.334954691593634,26.694552459837897,27.054150228084421,27.413747996333178,27.773345764584107,28.132943532837288,28.492541301092718,28.852139069350343,28.746059160705,28.631706747629657,28.51735433455659,28.403001921485789,28.288649508417251,28.174297095350941,28.059944682286936,27.945592269225163,27.831239856165695,27.716887443108455,27.602535030053492,27.488182617000806,27.373830203950344,27.259477790902178,27.145125377856271,27.030772964812648,26.916420551771218,26.802068138732139,26.370547990171055,25.727577688026468,25.084607385884265,24.441637083744407,23.798666781606954,23.155696479471839,22.5127261773391,21.869755875208742,21.226785573080729,20.5838152709551,19.940844968831879,19.297874666711007,18.654904364592493,18.011934062476357,17.368963760362575,16.725993458251182,16.083023156142136,15.440052854035502,14.797082551931229,14.154112249829328,13.112904052356528,11.901017093701013,10.689130135047826,9.4772431763969838,8.2653562177484527,7.0534692591023047,5.8415823004584881,4.6296953418169631,3.4178083831778237,2.2059214245409913,0.99403446590651945,-0.21785249272562704,-1.4297394513554136,-2.6416264099829037,-3.8535133686080063,-5.0654003272308037,-6.2772872858512478,-7.489174244469341,-8.7010612030851178,-9.9129481616985515,-11.601462587906234,-13.409139512474272,-15.216816437039791,-17.024493361602818,-18.832170286163326,-20.639847210721292,-22.447524135276808,-24.255201059829748,-26.062877984380194,-27.87055490892817,-29.678231833473564,-31.485908758016492,-33.293585682556859,-35.101262607094796,-36.908939531630111,-38.716616456163017,-40.524293380693351,-42.33197030522124,-44.139647229746529,-45.947324154269353,-48.305272329976354,-50.724367534994258,-53.143462740009667,-55.562557945022419,-57.981653150032685,-60.4007483550404,-62.819843560045456,-65.23893876504799,-67.65803397004801,-70.077129175045442,-72.496224380040317,-74.915319585032691,-77.334414790022407,-79.753509995009622,-82.1726051999942,-84.591700404976265,-87.0107956099558,-89.429890814932662,-91.84898601990713,-94.268081224878756,0,0.052631661936716492,0.14415060055761639,0.29485623646010689,0.51763634594505,0.81376676069302356,1.1836340503242,1.6269791302707786,2.1428385132868049,2.7292721750449394,3.1647699873373871,4.1760846869126951
DP 382,97.775376503692513,0.0030138646487947048,-25.961951942430545,-25.539047035619866,-25.116142128808708,-24.693237221997062,-24.270332315184906,-23.847427408372248,-23.424522501559135,-23.001617594745504,-22.578712687931397,-22.155807781116774,-21.732902874301661,-21.309997967486083,-20.887093060669983,-20.464188153853385,-20.041283247036304,-19.61837834021874,-19.195473433400672,-18.772568526582123,-18.34966361976306,-17.926758712943542,-17.506918829094815,-17.114664441706552,-16.722410054317763,-16.330155666928484,-15.937901279538661,-15.545646892148342,-15.153392504757496,-14.761138117366135,-14.368883729974264,-13.97662934258187,-13.584374955188956,-13.192120567795524,-12.799866180401585,-12.407611793007129,-12.015357405612152,-11.623103018216662,-11.230848630820645,-10.838594243424126,-10.446339856027084,-10.054085468629523,-9.6744571199776,-9.3453335230339,-9.0162099260896262,-8.6870863291447584,-8.3579627321993133,-8.0288391352532749,-7.699715538306652,-7.37059194135945,-7.0414683444116593,-6.712344747463284,-6.3832211505143137,-6.0540975535647776,-5.7249739566146394,-5.3958503596639256,-5.0667267627126211,-4.7376031657607331,-4.4084795688082608,-4.0793559718552048,-3.7502323749015645,-3.4211087779473397,-3.1197981562968908,-2.8833853533389719,-2.6469725503804513,-2.4105597474213312,-2.1741469444616146,-1.9377341415012972,-1.7013213385403785,-1.4649085355788602,-1.2284957326167443,-0.99208292965402689,-0.75567012669071221,-0.51925732372679789,-0.28284452076228134,-0.046431717797167121,0.18998108516854734,0.42639388813486218,0.6628066911017757,0.89921949406929047,1.1356322970374024,1.3720451000061145,1.5605038831423668,1.6770305033457469,1.7935571235497774,1.9100837437544604,2.0266103639597994,2.1431369841657912,2.259663604372435,2.3761902245797333,2.4927168447876809,2.6092434649962875,2.7257700852055442,2.8422967054154524,2.9588233256260184,3.0753499458372304,3.1918765660491051,3.3084031862616228,3.4249298064748008,3.5414564266886321,3.6579830469031163,3.7745096671182519,3.7638776869186263,3.7363192984143314,3.7087609099107244,3.6812025214078008,3.6536441329055633,3.6260857444040138,3.5985273559031552,3.5709689674029774,3.5434105789034889,3.5158521904046816,3.4882938019065679,3.4607354134091359,3.4331770249123919,3.4056186364163352,3.3780602479209687,3.3505018594262848,3.3229434709322856,3.29538508243898,3.1690499738953255,2.9768621625515665,2.7846743512085674,2.5924865398663237,2.4002987285248412,2.2081109171841105,2.0159231058441502,1.8237352945049425,1.6315474831664949,1.4393596718288062,1.2471718604918838,1.0549840491557108,0.862796237820301,0.67060842648565544,0.47842061515176093,0.28623280381863081,0.094044992486254045,-0.098142818845358373,-0.29033063017620986,-0.48251844150630274,-0.80154412900364991,-1.1749306189934703,-1.5483171089825414,-1.9217035989708529,-2.295090088958422,-2.6684765789452238,-3.0418630689312773,-3.41524955891659,-3.7886360489011337,-4.1620225388849379,-4.5354090288679831,-4.9087955188502779,-5.2821820088318114,-5.65556849881261,-6.0289549887926377,-6.40234147877192,-6.7757279687504468,-7.1491144587282163,-7.5225009487052459,-7.8958874386815108,-8.4238140442187053,-8.99037750457266,-9.5569409649257633,-10.123504425278004,-10.69006788562938,-11.2566313459799,-11.823194806329576,-12.38975826667836,-12.956321727026301,-13.522885187373394,-14.08944864771961,-14.656012108064987,-15.222575568409477,-15.789139028753132,-16.355702489095918,-16.922265949437854,-17.488829409778912,-18.055392870119128,-18.62195633045847,-19.188519790796981,-19.935605763751962,-20.702751689587419,-21.469897615422003,-22.237043541255648,-23.00418946708842,-23.771335392920314,-24.538481318751295,-25.305627244581387,-26.072773170410603,-26.839919096238877,-27.607065022066294,-28.374210947892806,-29.141356873718458,-29.908502799543179,-30.675648725366983,-31.442794651189931,-32.209940577011992,-32.977086502833124,-33.744232428653412,-34.511378354472733,0,0.023458546302600334,0.0558859468841179,0.10536361744562514,0.17796976076741269,0.27414068137633069,0.39395137708816874,0.537314890709087,0.70396396348378876,0.89335048478922829,1.0335139765020418,1.3601092948762441
DP 383,117.61453146213628,0.0011341588956661839,-11.245721330527184,-11.047494375370672,-10.849267420213911,-10.651040465056862,-10.452813509899581,-10.254586554742021,-10.05635959958421,-9.8581326444261261,-9.6599056892677844,-9.4616787341092,-9.2634517789503352,-9.0652248237912136,-8.8669978686318327,-8.6687709134721871,-8.470543958312291,-8.2723170031521231,-8.0740900479917048,-7.8758630928310147,-7.6776361376700715,-7.4794091825088689,-7.2826247683226084,-7.098823359268188,-6.9150219502134984,-6.7312205411585317,-6.5474191321032977,-6.3636177230478053,-6.1798163139920375,-5.9960149049360032,-5.8122134958796989,-5.6284120868231273,-5.4446106777662866,-5.260809268709175,-5.0770078596518005,-4.8932064505941533,-4.7094050415362378,-4.52560363247805,-4.3418022234196014,-4.1580008143608795,-3.9741994053018872,-3.7903979962426333,-3.6125358212828882,-3.4584308634184628,-3.3043259055537471,-3.1502209476887391,-2.9961159898234428,-2.8420110319578562,-2.6879060740919782,-2.5338011162258103,-2.3796961583593528,-2.2255912004926026,-2.0714862426255638,-1.917381284758231,-1.7632763268906098,-1.6091713690226985,-1.4550664111544971,-1.3009614532860028,-1.1468564954172187,-0.99275153754814582,-0.83864657967878176,-0.6845416218091277,-0.54350406346624158,-0.4329575157401338,-0.32241096801372765,-0.21186442028702565,-0.10131787256002715,0.00922867516726871,0.11977522289486119,0.23032177062275122,0.34086831835093739,0.45141486607942066,0.56196141380820008,0.67250796153727654,0.78305450926665088,0.89360105699632075,1.0041476047262876,1.1146941524565532,1.2252407001871146,1.3357872479179735,1.4463337956491278,1.5568803433805773,1.644927337327611,1.6992244689191436,1.7535216005109913,1.8078187321031534,1.8621158636956292,1.9164129952884208,1.9707101268815275,2.0250072584749463,2.0793043900686814,2.1336015216627309,2.1878986532570965,2.2421957848517753,2.2964929164467693,2.3507900480420783,2.405087179637702,2.45938431123364,2.513681442829891,2.5679785744264616,2.6222757060233439,2.6765728376205411,2.6707361513289367,2.657541922905736,2.6443476944828626,2.6311534660603155,2.6179592376380962,2.6047650092161994,2.5915707807946324,2.5783765523733897,2.5651823239524747,2.5519880955318861,2.5387938671116239,2.525599638691689,2.5124054102720788,2.4992111818527971,2.48601695343384,2.4728227250152113,2.4596284965969084,2.4464342681789324,2.38704414068965,2.296856019395991,2.2066678981026882,2.1164797768097348,2.0262916555171353,1.9361035342248885,1.8459154129329975,1.7557272916414586,1.6655391703502715,1.5753510490594385,1.4851629277689604,1.3949748064788356,1.3047866851890646,1.2145985638996468,1.124410442610581,1.0342223213218704,0.9440342000335098,0.85384607874550578,0.76365795745785536,0.67346983617055811,0.52405309499433872,0.34925185980910511,0.17445062462422117,-0.00035061056031167993,-0.17515184574449905,-0.34995308092832972,-0.52475431611181234,-0.69955555129495162,-0.87435678647773341,-1.0491580216601719,-1.2239592568422566,-1.3987604920239936,-1.5735617272053777,-1.748362962386419,-1.923164197567101,-2.09796543274744,-2.2727666679274252,-2.4475679031070618,-2.6223691382863521,-2.7971703734652862,-3.0440555345407181,-3.3089625287782174,-3.573869523015329,-3.8387765172520463,-4.1036835114883772,-4.3685905057243186,-4.6334974999598728,-4.8984044941950273,-5.163311488429799,-5.4282184826641826,-5.6931254768981665,-5.9580324711317711,-6.2229394653649761,-6.4878464595978,-6.7527534538302252,-7.017660448062264,-7.2825674422939146,-7.54747443652517,-7.8123814307560426,-8.07728842498653,-8.426334189353911,-8.7847295896193813,-9.1431249898844484,-9.5015203901490963,-9.8599157904133552,-10.218311190677207,-10.57670659094066,-10.935101991203696,-11.293497391466339,-11.651892791728574,-12.010288191990421,-12.368683592251859,-12.727078992512896,-13.085474392773524,-13.443869793033747,-13.802265193293557,-14.160660593552986,-14.519055993811987,-14.877451394070627,-15.235846794328815,0,0.00958852082836907,0.024078751627379116,0.046899103730271806,0.080502057918039063,0.1250752355790786,0.18065983116624063,0.24721476656596808,0.32460641637856957,0.41256477598928665,0.47777625800365203,0.62954411023545076
DP 384,273.0169555002077,0.0058760208336169541,-100.98864817786088,-98.802207236072732,-96.615766294281585,-94.42932535248724,-92.242884410689939,-90.056443468889469,-87.870002527085973,-85.683561585279264,-83.497120643469643,-81.31067970165698,-79.124238759841134,-76.937797818022247,-74.7513568762003,-72.564915934375264,-70.378474992547126,-68.192034050715918,-66.005593108881655,-63.819152167044358,-61.63271122520392,-59.446270283360462,-57.277829500634454,-55.27139185144307,-53.26495420224861,-51.258516553051024,-49.2520789038504,-47.245641254646642,-45.239203605439783,-43.232765956229848,-41.226328307016892,-39.219890657800789,-37.21345300858161,-35.207015359359346,-33.200577710133949,-31.194140060905539,-29.187702411674007,-27.181264762439355,-25.174827113201665,-23.16838946396086,-21.161951814716957,-19.155514165469995,-17.221577059231429,-15.577645551512333,-13.933714043790131,-12.289782536064816,-10.645851028336395,-9.0019195206048526,-7.3579880128701971,-5.7140565051324241,-4.0701249973915479,-2.4261934896475554,-0.78226198190044194,0.86166952584979439,2.505601033603138,4.1495325413595925,5.7934640491191676,7.4373955568818566,9.0813270646476418,10.725258572416555,12.369190080188563,14.013121587963685,15.503188977454085,16.634235243074677,17.765281508698443,18.896327774325361,20.027374039955443,21.1584203055887,22.289466571225105,23.42051283686467,24.55155910250744,25.682605368153318,26.813651633802348,27.944697899454592,29.075744165109967,30.2067904307685,31.337836696430209,32.468882962095087,33.599929227763134,34.730975493434329,35.862021759108679,36.993068024786211,37.871249487456275,38.370127770257852,38.869006053062641,39.36788433587062,39.8667626186818,40.365640901496157,40.864519184313735,41.3633974671345,41.862275749958492,42.361154032785656,42.860032315616031,43.358910598449604,43.857788881286368,44.3566671641264,44.855545446969536,45.354423729815885,45.8533020126655,46.352180295518288,46.851058578374257,47.349936861233438,47.049951392974606,46.830180190548361,46.610408988125386,46.39063778570565,46.170866583289126,45.951095380875877,45.731324178465876,45.511552976059093,45.291781773655551,45.0720105712553,44.852239368858228,44.632468166464463,44.412696964073881,44.192925761686539,43.9731545593025,43.753383356921681,43.53361215454408,43.313840952169727,42.629068227075443,41.63428716133491,40.639506095597724,39.644725029863892,38.649943964133463,37.655162898406324,36.660381832682639,35.665600766962278,34.6708197012453,33.676038635531647,32.68125756982144,31.686476504114538,30.691695438411024,29.696914372710879,28.702133307014133,27.707352241320748,26.712571175630643,25.717790109944019,24.723009044260714,23.728227978580808,22.168126041623644,20.365736097668812,18.563346153717308,16.760956209769127,14.958566265824219,13.156176321882725,11.353786377944511,9.551396434009563,7.749006490078016,5.9466165461497269,4.14422660222479,2.34183665830316,0.53944671438487379,-1.262943229530147,-3.0653331734417786,-4.867723117350141,-6.6701130612551536,-8.4725030051568329,-10.274892949055229,-12.077282892950288,-14.538268797618842,-17.163911473941624,-19.789554150260855,-22.415196826576519,-25.0408395028887,-27.66648217919731,-30.29212485550244,-32.91776753180396,-35.543410208102024,-38.169052884396564,-40.794695560687472,-43.420338236974928,-46.0459809132587,-48.67162358953918,-51.297266265815978,-53.922908942089279,-56.548551618359,-59.174194294625217,-61.799836970887917,-64.425479647147071,-67.797884904964945,-71.253271625769571,-74.708658346570729,-78.164045067368122,-81.619431788162,-85.0748185089523,-88.530205229739025,-91.98559195052205,-95.4409786713016,-98.89636539207757,-102.35175211284991,-105.80713883361854,-109.26252555438373,-112.7179122751453,-116.17329899590322,-119.62868571665751,-123.08407243740828,-126.53945915815549,-129.9948458788991,-133.45023259963904,0,0.071520775052870175,0.19954177206520882,0.41249342684505597,0.72758974651045516,1.14667321058966,1.6703307028455678,2.2982022195227771,3.0289019754800695,3.8596414061402218,4.4766884780539264,5.9087274332706787
DP 385,161.68652715387168,0.0047499372487715182,-58.5792366352159,-57.442215570408969,-56.3051945056004,-55.16817344079022,-54.03115237597833,-52.894131311164784,-51.75711024634959,-50.620089181532727,-49.483068116714279,-48.346047051894125,-47.2090259870723,-46.07200492224888,-44.934983857423781,-43.797962792597005,-42.660941727768588,-41.523920662938551,-40.386899598106815,-39.249878533273453,-38.112857468438435,-36.975836403601754,-35.847247046001655,-34.794543850545296,-33.741840655087231,-32.689137459627545,-31.636434264166137,-30.583731068703063,-29.531027873238312,-28.478324677771848,-27.425621482303757,-26.372918286833972,-25.320215091362517,-24.267511895889374,-23.214808700414537,-22.162105504938037,-21.10940230945987,-20.056699113980017,-19.003995918498475,-17.951292723015268,-16.898589527530373,-15.845886332043809,-14.827789357520768,-13.948118902394992,-13.06844844726748,-12.18877799213822,-11.309107537007232,-10.429437081874495,-9.5497666267400163,-8.6700961716037934,-7.7904257164658386,-6.9107552613261358,-6.03108480618469,-5.1514143510415,-4.2717438958965728,-3.3920734407499014,-2.51240298560149,-1.632732530451334,-0.75306207529944125,0.12660837985419104,1.0062788350095606,1.8859492901666768,2.6899041750939308,3.31718701054371,3.9444698459952727,4.5717526814486042,5.1990355169037077,5.8263183523605884,6.4536011878192427,7.08088402327967,7.7081668587418672,8.3354496942058347,8.96273252967158,9.5900153651390969,10.217298200608397,10.844581036079452,11.471863871552308,12.099146707026899,12.726429542503293,13.353712377981452,13.980995213461389,14.608278048943077,15.10608628036263,15.409679546120998,15.713272811881215,16.016866077643261,16.320459343407133,16.624052609172846,16.927645874940374,17.231239140709743,17.534832406480941,17.838425672253962,18.142018938028819,18.445612203805506,18.749205469584027,19.05279873536438,19.35639200114656,19.659985266930573,19.963578532716404,20.267171798504094,20.570765064293585,20.874358330084924,20.821816643011633,20.740080586589237,20.658344530168705,20.576608473750024,20.494872417333237,20.413136360918319,20.331400304505287,20.24966424809412,20.167928191684823,20.086192135277404,20.004456078871858,19.922720022468194,19.840983966066378,19.759247909666463,19.67751185326841,19.595775796872243,19.51403974047793,19.432303684085515,19.088882130183809,18.570999455424829,18.053116780667853,17.53523410591286,17.017351431159845,16.499468756408792,15.981586081659744,15.463703406912678,14.945820732167574,14.427938057424489,13.910055382683378,13.392172707944228,12.874290033207084,12.356407358471911,11.838524683738726,11.320642009007527,10.8027593342783,10.284876659551054,9.76699398482581,9.2491113101025473,8.3981414203333724,7.4044153692578973,6.4106893181843816,5.4169632671128412,4.4232372160432263,3.4295111649756107,2.4357851139099469,1.4420590628462049,0.44833301178446,-0.54539303927535865,-1.5391190903331966,-2.5328451413890867,-3.5265711924430043,-4.5202972434949951,-5.5140232945449874,-6.5077493455930471,-7.5014753966391394,-8.4952014476832662,-9.48892749872544,-10.482653549765667,-11.879455245927936,-13.377030615800999,-14.87460598567195,-16.372181355540771,-17.869756725407456,-19.367332095272008,-20.864907465134461,-22.362482834994751,-23.86005820485288,-25.357633574708974,-26.85520894456284,-28.352784314414642,-29.850359684264252,-31.347935054111826,-32.845510423957187,-34.343085793800469,-35.840661163641563,-37.33823653348059,-38.835811903317442,-40.333387273152212,-42.29969242564097,-44.31808358788799,-46.336474750132908,-48.354865912375523,-50.373257074616042,-52.391648236854351,-54.410039399090493,-56.428430561324369,-58.446821723556205,-60.465212885785753,-62.483604048013156,-64.501995210238462,-66.5203863724615,-68.538777534682325,-70.557168696901044,-72.575559859117547,-74.593951021331875,-76.612342183543944,-78.630733345754,-80.649124507961687,0,0.046802495881270161,0.12483087477088212,0.25160878508443474,0.43880232423462262,0.6874601118997492,0.99787469509696625,1.369823904460427,1.8025161625668735,2.2943591038098456,2.6594722977989314,3.507967642029497
DP 386,180.064899987658,0.0034074186504348871,-45.008331190752308,-44.112153588531811,-43.215975986310077,-42.319798384086972,-41.423620781862574,-40.527443179636862,-39.63126557740982,-38.735087975181415,-37.838910372951744,-36.942732770720745,-36.04655516848841,-35.150377566254768,-34.2541999640198,-33.358022361783519,-32.461844759545912,-31.565667157306951,-30.669489555066743,-29.773311952825164,-28.877134350582281,-27.98095674833807,-27.091507430895078,-26.262613312659809,-25.433719194423176,-24.604825076185229,-23.775930957945931,-22.947036839705341,-22.118142721463382,-21.2892486032201,-20.460354484975475,-19.63146036672951,-18.802566248482215,-17.973672130233588,-17.144778011983618,-16.315883893732316,-15.486989775479694,-14.658095657225717,-13.829201538970423,-13.000307420713787,-12.171413302455811,-11.342519184196501,-10.541178824861237,-9.8500548034551887,-9.1589307820477472,-8.4678067606389416,-7.7766827392287681,-7.0855587178172037,-6.3944346964042715,-5.7033106749899707,-5.0121866535742994,-4.32106263215725,-3.6299386107388241,-2.9388145893190187,-2.247690567897846,-1.5565665464752987,-0.86544252505137653,-0.17431850362608151,0.51680551780058648,1.2079295392286262,1.8990535606580368,2.5901775820888244,3.2212344792341812,3.7121328604823907,4.2030312417320044,4.6939296229830116,5.1848280042354169,5.67572638548922,6.1666247667444152,6.6575231480010215,7.1484215292590187,7.6393199105184069,8.1302182917792045,8.621116673041394,9.1120150543049849,9.602913435569965,10.093811816836357,10.58471019810414,11.075608579373316,11.566506960643906,12.057405341915883,12.548303723189253,12.936957526432042,13.172242046524037,13.407526566617454,13.642811086712308,13.878095606808589,14.113380126906309,14.348664647005473,14.583949167106073,14.819233687208104,15.054518207311565,15.289802727416463,15.525087247522794,15.760371767630568,15.995656287739761,16.230940807850402,16.466225327962466,16.701509848075975,16.93679436819092,17.172078888307304,17.407363408425109,17.356441653479457,17.289015475226805,17.221589296975615,17.154163118725897,17.086736940477646,17.019310762230837,16.95188458398551,16.884458405741647,16.817032227499247,16.749606049258315,16.682179871018867,16.614753692780841,16.547327514544307,16.479901336309233,16.412475158075623,16.345048979843476,16.2776228016128,16.210196623383588,15.938281502294506,15.530037197839142,15.121792893385351,14.713548588933067,14.305304284482339,13.897059980033134,13.488815675585478,13.080571371139389,12.672327066694807,12.264082762251782,11.855838457810313,11.447594153370369,11.039349848931971,10.631105544495121,10.222861240059796,9.8146169356260273,9.4063726311937845,8.9981283267631014,8.5898840223339512,8.1816397179063571,7.5143798336648739,6.7361097748429568,5.9578397160225611,5.179569657203702,4.4012995983863359,3.62302953957053,2.844759480756232,2.066489421943432,1.2882193631321841,0.5099493043224318,-0.268320754485781,-1.0465908132924806,-1.8248608720976447,-2.6031309309013135,-3.3814009897034274,-4.1596710485040473,-4.9379411073031285,-5.7162111661006829,-6.4944812248967345,-7.2727512836912558,-8.3632363435538029,-9.5317788425744965,-10.700321341593563,-11.868863840610986,-13.037406339626745,-14.205948838640873,-15.374491337653366,-16.543033836664193,-17.711576335673385,-18.880118834680932,-20.048661333686841,-21.217203832691087,-22.385746331693678,-23.55428883069467,-24.722831329693985,-25.891373828691655,-27.05991632768767,-28.228458826682061,-29.397001325674786,-30.5655438246659,-32.096222937351556,-33.66714325486943,-35.23806357238562,-36.808983889900084,-38.379904207412885,-39.950824524923974,-41.521744842433442,-43.092665159941177,-44.663585477447249,-46.234505794951644,-47.805426112454356,-49.376346429955447,-50.947266747454748,-52.518187064952386,-54.0891073824484,-55.660027699942667,-57.23094801743531,-58.801868334926191,-60.372788652415537,-61.943708969903028,0,0.035286942394284739,0.095387879156622751,0.19369639170561428,0.33893590768727966,0.53192821760422837,0.77291265418626953,1.061718521849333,1.3977246638897058,1.7796808598416944,2.0632793724219751,2.7221030779072581
DP 387,171.70735443732,0.0035536736068568059,-45.548595248992207,-44.6515360033746,-43.7544767577556,-42.857417512135321,-41.96035826651368,-41.063299020890774,-40.166239775266561,-39.269180529641005,-38.372121284014142,-37.475062038385985,-36.5780027927565,-35.680943547125672,-34.783884301493558,-33.8868250558601,-32.989765810225343,-32.092706564589271,-31.195647318951885,-30.298588073313187,-29.401528827673182,-28.504469582031838,-27.614105625225502,-26.783999900811903,-25.953894176396958,-25.1237884519807,-24.293682727563105,-23.463577003144177,-22.633471278723924,-21.803365554302346,-20.973259829879421,-20.143154105455174,-19.313048381029592,-18.48294265660267,-17.652836932174409,-16.822731207744823,-15.992625483313912,-15.162519758881659,-14.332414034448083,-13.502308310013165,-12.672202585576915,-11.842096861139343,-11.039437740845832,-10.346566334297281,-9.6536949277473383,-8.96082352119603,-8.26795211464335,-7.5750807080892884,-6.8822093015338615,-6.1893378949770446,-5.4964664884188652,-4.8035950818593047,-4.1107236752983622,-3.4178522687360444,-2.7249808621723544,-2.032109455607285,-1.3392380490408429,-0.64636664247302278,0.046504764096170721,0.73937617066673722,1.4322475772386778,2.1251189838119973,2.7580518543530985,3.2511262523060123,3.74420065026034,4.2372750482160608,4.7303494461731823,5.22342384413171,5.7164982420916326,6.2095726400529543,6.7026470380156784,7.195721435979805,7.6887958339453375,8.1818702319122565,8.67494462988059,9.1680190278503169,9.6610934258214485,10.154167823793973,10.647242221767897,11.14031661974324,11.633391017719967,12.126465415698094,12.517288053747425,12.754730635628903,12.992173217511793,13.229615799396143,13.467058381281939,13.704500963169174,13.941943545057846,14.179386126947959,14.416828708839512,14.654271290732506,14.891713872626948,15.129156454522825,15.366599036420137,15.604041618318895,15.841484200219101,16.078926782120739,16.316369364023814,16.553811945928366,16.791254527834315,17.028697109741714,16.982294146922179,16.916243871683442,16.850193596446182,16.784143321210411,16.718093045976097,16.652042770743268,16.5859924955119,16.519942220282008,16.453891945053588,16.387841669826638,16.321791394601167,16.25574111937717,16.189690844154637,16.123640568933578,16.057590293714,15.991540018495904,15.925489743279263,15.85943946806411,15.587846219817223,15.179221084817916,14.770595949820173,14.361970814823984,13.953345679829335,13.544720544836236,13.136095409844707,12.727470274854729,12.318845139866292,11.910220004879418,11.501594869894108,11.092969734910344,10.684344599928133,10.275719464947489,9.867094329968376,9.4584691949908262,9.04984406001482,8.6412189250403788,8.2325937900674919,7.8239686550961567,7.1543759400909517,6.3729364526243772,5.5914969651593331,4.8100574776958362,4.0286179902338493,3.2471785027734326,2.465739015314536,1.6842995278571491,0.9028600404013245,0.12142055294700949,-0.66001893450575577,-1.4414584219569953,-2.2228979094066879,-3.004337396854873,-3.785776884301491,-4.5672163717466026,-5.3486558591901643,-6.1300953466321948,-6.9115348340727,-7.6929743215116613,-8.7895800297714164,-9.9649810169968429,-11.140382004220619,-12.315782991442715,-13.491183978663173,-14.666584965881956,-15.841985953099094,-17.01738694031453,-18.192787927528322,-19.368188914740479,-20.543589901950941,-21.71899088915978,-22.894391876366882,-24.0697928635724,-25.245193850776225,-26.420594837978381,-27.595995825178893,-28.77139681237772,-29.946797799574888,-31.122198786770429,-32.663614871245464,-34.2457031439067,-35.827791416566278,-37.40987968922407,-38.991967961880214,-40.574056234534659,-42.156144507187392,-43.738232779838384,-45.320321052487763,-46.902409325135366,-48.4844975977813,-50.066585870425556,-51.64867414306805,-53.230762415708888,-54.812850688348,-56.3949389609854,-57.977027233621193,-59.559115506255125,-61.141203778887551,-62.723292051518129,0,0.036012334211041788,0.096807924779586732,0.19597470000323289,0.34244740345709185,0.53705107691235,0.78002191388913733,1.0711870231556846,1.4099228377298612,1.7949747053276828,2.0808482324774018,2.7450583593516371
DP 388,102.78375712787204,0.0024408830658174912,-21.864875719550888,-21.500217399424116,-21.135559079296883,-20.77090075916923,-20.406242439041119,-20.041584118912571,-19.6769257987836,-19.312267478654157,-18.947609158524276,-18.582950838393952,-18.218292518263191,-17.85363419813201,-17.48897587800036,-17.124317557868281,-16.759659237735764,-16.395000917602786,-16.030342597469385,-15.665684277335531,-15.301025957201237,-14.936367637066502,-14.574354462956386,-14.236147853101853,-13.897941243246864,-13.559734633391415,-13.221528023535511,-12.883321413679138,-12.545114803822305,-12.206908193965013,-11.868701584107269,-11.530494974249054,-11.192288364390384,-10.854081754531244,-10.51587514467165,-10.177668534811605,-9.8394619249510917,-9.5012553150901038,-9.1630487052286753,-8.82484209536678,-8.4866354855044257,-8.1484288756416081,-7.8211173670425156,-7.537386778417364,-7.2536561897916805,-6.9699256011654933,-6.6861950125387946,-6.4024644239115789,-6.1187338352838436,-5.8350032466556048,-5.5512726580268472,-5.267542069397579,-4.98381148076779,-4.7000808921374873,-4.4163503035066753,-4.1326197148753474,-3.8488891262435088,-3.5651585376111483,-3.2814279489782807,-2.9976973603448984,-2.713966771711001,-2.4302361830765915,-2.1704995932438687,-1.9667497566057863,-1.7629999199671749,-1.5592500833280383,-1.3555002466883761,-1.1517504100481875,-0.94800057340747212,-0.74425073676622966,-0.54050090012446228,-0.33675106348216804,-0.13300122683934995,0.070748609803995582,0.27449844644786875,0.47824828309226708,0.681998119737192,0.88574795638264325,1.0894977930286209,1.2932476296751254,1.4969974663221552,1.7007473029697098,1.8631379664036252,1.9634888926733325,2.0638398189436118,2.1641907452144573,2.2645416714858739,2.3648925977578581,2.46524352403041,2.5655944503035295,2.6659453765772141,2.766296302851472,2.8666472291262921,2.9669981554016913,3.067349081677651,3.1677000079541777,3.2680509342312787,3.3684018605089423,3.468752786787177,3.5691037130659815,3.6694546393453544,3.7698055656252905,3.7602879308521064,3.736410456842794,3.7125329828340723,3.6886555088259469,3.6647780348184176,3.6409005608114806,3.6170230868051449,3.5931456127993973,3.5692681387942504,3.5453906647896947,3.5215131907857344,3.4976357167823737,3.4737582427795997,3.4498807687774233,3.4260032947758408,3.4021258207748559,3.3782483467744662,3.3543708727746724,3.2453537912202526,3.0795756300313273,2.913797468843061,2.7480193076554382,2.5822411464684731,2.4164629852821564,2.2506848240965009,2.084906662911497,1.9191285017271438,1.7533503405434432,1.5875721793604047,1.4217940181780122,1.2560158569962749,1.0902376958151931,0.92445953463476083,0.75868137345498743,0.59290321227586062,0.42712505109739257,0.26134688991957872,0.0955687287424183,-0.1795008877848584,-0.50141117523734346,-0.82332146268918338,-1.1452317501403713,-1.4671420375909208,-1.7890523250408077,-2.1109626124900518,-2.43287289993866,-2.7547831873866082,-3.0766934748339168,-3.398603762280572,-3.7205140497265834,-4.0424243371719406,-4.3643346246166637,-4.6862449120607224,-5.008155199504146,-5.3300654869469168,-5.6519757743890358,-5.9738860618305134,-6.2957963492713418,-6.75084077616736,-7.2391703109372294,-7.7274998457063653,-8.2158293804747782,-8.70415891524245,-9.1924884500093924,-9.6808179847756062,-10.169147519541069,-10.6574770543058,-11.145806589069823,-11.634136123833075,-12.122465658595614,-12.610795193357413,-13.099124728118499,-13.587454262878822,-14.075783797638417,-14.564113332397282,-15.052442867155419,-15.540772401912804,-16.029101936669477,-16.672924993571122,-17.334026741547003,-17.995128489522131,-18.656230237496473,-19.317331985470062,-19.978433733442905,-20.639535481414967,-21.300637229386261,-21.961738977356802,-22.622840725326608,-23.283942473295607,-23.945044221263895,-24.60614596923137,-25.267247717198096,-25.928349465164093,-26.589451213129287,-27.250552961093739,-27.911654709057405,-28.57275645702035,-29.233858204982479,0,0.019407000710420518,0.046961226319833786,0.089425689326967719,0.1518136128830084,0.23448861539933555,0.33751776699986508,0.46082538485851882,0.60417570248138741,0.76708808967978381,0.88773052603893532,1.16874090529974
DP 389,219.42283977346733,0.0024237501993711213,-36.228529590255796,-35.476437622714421,-34.724345655171916,-33.972253687628282,-33.2201617200836,-32.468069752537779,-31.715977784990908,-30.963885817442854,-30.211793849893727,-29.45970188234352,-28.707609914792204,-27.955517947239734,-27.203425979686195,-26.45133401213155,-25.69924204457579,-24.947150077018946,-24.19505810946097,-23.442966141901902,-22.690874174341751,-21.938782206780466,-21.192533455146997,-20.498874199198568,-19.805214943249,-19.111555687298363,-18.417896431346584,-17.724237175393714,-17.030577919439718,-16.3369186634846,-15.643259407528381,-14.949600151571044,-14.255940895612596,-13.562281639653037,-12.868622383692365,-12.174963127730578,-11.481303871767681,-10.787644615803671,-10.093985359838541,-9.4003261038722972,-8.70666684790495,-8.0130075919364874,-7.34312911127977,-6.7683748557859005,-6.1936206002908953,-5.6188663447947595,-5.0441120892974984,-4.4693578337991031,-3.8946035782995709,-3.3198493227989108,-2.7450950672971217,-2.1703408117941989,-1.5955865562901419,-1.0208323007849489,-0.44607804527862888,0.12867621022882514,0.70343046573741064,1.2781847212471285,1.8529389767579749,2.4276932322699549,3.0024474877830634,3.5772017432973029,4.1006287116842133,4.5042903929132647,4.9079520741434735,5.3116137553748262,5.7152754366073353,6.118937117840991,6.5225987990757988,6.9262604803117584,7.3299221615488657,7.733583842787132,8.137245524026536,8.54090720526709,8.944568886508808,9.3482305677516742,9.751892248995679,10.155553930240838,10.559215611487158,10.962877292734628,11.366538973983232,11.770200655232998,12.087612389005651,12.275647163421047,12.463681937837608,12.651716712255354,12.839751486674261,13.02778626109434,13.215821035515603,13.40385580993803,13.591890584361632,13.7799253587864,13.967960133212335,14.155994907639457,14.344029682067745,14.532064456497185,14.720099230927804,14.908134005359608,15.096168779792588,15.284203554226719,15.472238328662042,15.660273103098524,15.595355007116043,15.531780338187795,15.46820566926073,15.404631000334845,15.341056331410179,15.277481662486695,15.213906993564397,15.150332324643285,15.086757655723378,15.023182986804658,14.959608317887129,14.896033648970793,14.832458980055636,14.768884311141676,14.705309642228913,14.64173497331732,14.578160304406936,14.514585635497745,14.283616102094827,13.941047355272424,13.598478608451272,13.255909861631366,12.913341114812685,12.570772367995245,12.228203621179061,11.88563487436414,11.543066127550439,11.200497380737991,10.85792863392679,10.515359887116833,10.17279114030811,9.8302223935006481,9.48765364669441,9.1450848998894347,8.8025161530857,8.4599474062831952,8.117378659481945,7.7748099126819543,7.2232133972033319,6.5820307297648633,5.9408480623276141,5.2996653948916093,4.6584827274568115,4.01730006002327,3.3761173925909449,2.7349347251598286,2.0937520577299642,1.4525693903013079,0.81138672287389069,0.1702040554476934,-0.47097861197726487,-1.1121612794010172,-1.7533439468235184,-2.394526614244807,-3.03570928166486,-3.6768919490836831,-4.31807461650129,-4.9592572839176672,-5.84948584306766,-6.8019788176848408,-7.75447179230071,-8.7069647669152577,-9.659457741528497,-10.61195071614042,-11.56444369075103,-12.516936665360307,-13.469429639968272,-14.421922614574962,-15.374415589180281,-16.326908563784315,-17.279401538387013,-18.231894512988433,-19.184387487588495,-20.136880462187285,-21.089373436784726,-22.041866411380873,-22.994359385975674,-23.946852360569164,-25.186014352984888,-26.457031469210115,-27.72804858543407,-28.999065701656626,-30.270082817877874,-31.541099934097783,-32.812117050316346,-34.083134166533554,-35.354151282749427,-36.625168398963936,-37.896185515177159,-39.167202631389031,-40.438219747599511,-41.7092368638087,-42.9802539800165,-44.251271096223014,-45.522288212428187,-46.793305328631924,-48.064322444834431,-49.335339561035504,0,0.027294953232396887,0.075142721395573944,0.15414786223762028,0.270965497731338,0.42626829835010871,0.62026293292257506,0.85281431109681893,1.123414822019732,1.4310428036619274,1.6595078326812764,2.1899660034486739
DP 390,176.55588410062984,0.0033586211412791186,-43.81583046531459,-42.947296263725057,-42.078762062134288,-41.210227860542254,-40.341693658948913,-39.473159457354292,-38.604625255758421,-37.736091054161236,-36.867556852562785,-35.999022650963056,-35.130488449362055,-34.261954247759789,-33.393420046156251,-32.524885844551406,-31.656351642945289,-30.787817441337907,-29.919283239729253,-29.050749038119314,-28.182214836508109,-27.313680634895611,-26.451650695399934,-25.648159729776737,-24.844668764152292,-24.041177798526483,-23.237686832899417,-22.434195867271075,-21.63070490164144,-20.827213936010484,-20.023722970378255,-19.220232004744727,-18.416741039109898,-17.613250073473786,-16.8097591078364,-16.006268142197683,-15.202777176557701,-14.399286210916422,-13.595795245273845,-12.792304279629988,-11.988813313984815,-11.185322348338364,-10.408478947797942,-9.7382270670865214,-9.0679751863737614,-8.3977233056596763,-7.7274714249442651,-7.0572195442275119,-6.3869676635094264,-5.7167157827900148,-5.046463902069271,-4.3762120213471931,-3.7059601406237808,-3.0357082598990375,-2.3654563791729628,-1.6952044984455561,-1.0249526177168156,-0.35470073698674381,0.31555114374465837,0.9858030244773891,1.656054905211451,2.3263067859468465,2.9384218004357918,3.4148822952694387,3.8913427901044524,4.3678032849408206,4.8442637797785348,5.320724274617616,5.7971847694580418,6.2736452642998373,6.7501057591429738,7.226566253987464,7.7030267488333219,8.1794872436805282,8.6559477385290933,9.1324082333790173,9.6088687282302949,10.085329223082926,10.561789717936911,11.038250212792267,11.514710707648966,11.991171202507008,12.368580900203288,12.597412061523061,12.826243222844212,13.055074384166748,13.283905545490688,13.512736706816021,13.741567868142761,13.970399029470883,14.199230190800385,14.428061352131275,14.656892513463577,14.885723674797267,15.114554836132342,15.343385997468815,15.572217158806684,15.801048320145947,16.029879481486603,16.258710642828646,16.487541804172082,16.7163729655169,16.668925406477623,16.6041795956087,16.53943378474121,16.474687973875145,16.409942163010481,16.345196352147276,16.280450541285479,16.215704730425085,16.150958919566129,16.086213108708602,16.021467297852475,15.956721486997806,15.891975676144515,15.827229865292679,15.762484054442252,15.697738243593253,15.632992432745688,15.568246621899526,15.304964203093625,14.909320917959549,14.513677632826989,14.118034347695888,13.722391062566295,13.326747777438211,12.931104492311631,12.535461207186549,12.139817922062944,11.744174636940851,11.348531351820276,10.952888066701183,10.557244781583586,10.161601496467501,9.7659582113528938,9.3703149262397982,8.97467164112819,8.5790283560180942,8.18338507090949,7.7877417858023961,7.1403630079531322,6.3850941911437644,5.6298253743358595,4.8745565575294494,4.1192877407244977,3.3640189239210558,2.6087501071190822,1.8534812903185631,1.0982124735195558,0.34294365672199989,-0.41232516007405845,-1.1675939768686474,-1.9228627936617442,-2.6781316104533848,-3.4334004272435159,-4.1886692440321927,-4.9439380608193781,-5.6992068776050813,-6.4544756943893171,-7.209744511172075,-8.2687005195591752,-9.4035819139805152,-10.538463308400265,-11.673344702818421,-12.808226097234964,-13.9431074916499,-15.077988886063267,-16.212870280474991,-17.347751674885153,-18.482633069293716,-19.617514463700616,-20.752395858105974,-21.887277252509687,-23.022158646911876,-24.157040041312388,-25.291921435711334,-26.426802830108667,-27.5616842245044,-28.696565618898536,-29.831447013291104,-31.318765073883352,-32.84524646549103,-34.371727857097078,-35.898209248701441,-37.424690640304171,-38.951172031905287,-40.477653423504769,-42.004134815102567,-43.5306162066988,-45.057097598293346,-46.583578989886313,-48.110060381477609,-49.6365417730672,-51.163023164655286,-52.68950455624163,-54.215985947826418,-55.742467339409522,-57.268948730990914,-58.795430122570785,-60.321911514148994,0,0.0344728447548595,0.092978403861689568,0.18856929535270245,0.329780283306873,0.5174088477815908,0.75168566928511837,1.0324445186388567,1.3590825661345409,1.7303865479625853,2.0060670970493524,2.6465361098408975
DP 391,306.8349074535987,0.0013643784706373252,-25.359504472656809,-24.798440903127261,-24.237377333596935,-23.676313764065849,-23.115250194534017,-22.554186625001421,-21.993123055468068,-21.432059485933976,-20.8709959163991,-20.309932346863494,-19.748868777327107,-19.187805207789975,-18.626741638252089,-18.065678068713435,-17.504614499174025,-16.943550929633879,-16.382487360092956,-15.821423790551277,-15.260360221008844,-14.699296651465664,-14.143037778642636,-13.630021630467635,-13.117005482291887,-12.603989334115381,-12.090973185938106,-11.577957037760079,-11.06494088958129,-10.551924741401745,-10.038908593221436,-9.52589244504037,-9.0128762968585452,-8.4998601486759551,-7.9868440004926136,-7.4738278523085064,-6.9608117041236515,-6.447795555938022,-5.9347794077516429,-5.4217632595644965,-4.9087471113765941,-4.3957309631879387,-3.9019322875565954,-3.4850044104013125,-3.0680765332452649,-2.6511486560884534,-2.2342207789308803,-1.8172929017725454,-1.4003650246134445,-0.98343714745358235,-0.56650927029295928,-0.14958139313157207,0.26734648403058003,0.684274361193497,1.1012022383571749,1.518130115521618,1.9350579926868208,2.35198586985279,2.76891374701952,3.1858416241870122,3.6027695013552643,4.0196973785242838,4.3963077618301387,4.6788427224856886,4.9613776831420129,5.2439126437991108,5.5264476044569806,5.8089825651156328,6.0915175257750516,6.37405248643525,6.6565874470962161,6.93912240775797,7.22165736842048,7.5041923290837858,7.7867272897478532,8.0692622504127,8.3517972110783187,8.63433217174471,8.9168671324118769,9.1994020930798239,9.4819370537485437,9.7644720144180326,9.9817628697239442,10.101186025224482,10.220609180725805,10.340032336227917,10.459455491730798,10.578878647234468,10.698301802738913,10.817724958244151,10.937148113750158,11.056571269256965,11.175994424764532,11.295417580272897,11.414840735782038,11.534263891291952,11.653687046802672,11.773110202314156,11.89253335782643,12.011956513339467,12.131379668853304,12.250802824367927,12.154040959148787,12.091451237877001,12.028861516606005,11.966271795335791,11.90368207406639,11.841092352797762,11.778502631529925,11.715912910262883,11.653323188996632,11.590733467731178,11.528143746466505,11.46555402520263,11.402964303939553,11.340374582677258,11.27778486141575,11.215195140155043,11.152605418895119,11.090015697635987,10.912030578202703,10.657113375414175,10.402196172626471,10.147278969839588,9.8923617670535329,9.6374445642682769,9.3825273614838576,9.1276101587002572,8.8726929559174721,8.6177757531355077,8.3628585503543782,8.1079413475740534,7.8530241447945519,7.598106942015864,7.3431897392379977,7.0882725364609529,6.8333553336847332,6.5784381309093325,6.3235209281347506,6.0686037253610019,5.6762060941734367,5.2248864229658389,4.7735667517590468,4.3222470805530691,3.8709274093478858,3.41960773814353,2.9682880669399747,2.5169683957372135,2.0656487245352797,1.6143290533341388,1.1630093821338132,0.71168971093429334,0.26037003973558853,-0.19094963146232369,-0.64226930265941018,-1.0935889738557008,-1.5449086450511778,-1.9962283162458427,-2.4475479874397079,-2.8988676586327617,-3.5075683991616216,-4.1556162665174972,-4.8036641338725117,-5.4517120012266673,-6.0997598685799757,-6.7478077359324189,-7.3958556032840148,-8.0439034706347261,-8.6919513379846,-9.3399992053336334,-9.9880470726817734,-10.636094940029084,-11.28414280737551,-11.932190674721108,-12.580238542065825,-13.228286409409696,-13.876334276752695,-14.524382144094853,-15.172430011436155,-15.820477878776597,-16.644842261139484,-17.488799219143687,-18.332756177147,-19.176713135149441,-20.020670093151036,-20.864627051151739,-21.708584009151561,-22.552540967150524,-23.396497925148633,-24.24045488314583,-25.084411841142195,-25.928368799137676,-26.772325757132297,-27.616282715126061,-28.460239673118895,-29.304196631110909,-30.148153589102044,-30.992110547092256,-31.836067505081669,-32.680024463070147,0,0.01718330446461732,0.04818685567400452,0.09991589316201549,0.17648187166503621,0.27833538895125776,0.40562189072920735,0.55825423475646618,0.7358942211128402,0.9378608881777839,1.0878812287671804,1.4359815047684688
DP 392,221.7483414333538,0.003537259672641826,-53.22276246842474,-52.115555054346466,-51.008347640266557,-49.901140226185014,-48.793932812101851,-47.686725398017082,-46.579517983930693,-45.472310569842641,-44.365103155752983,-43.257895741661734,-42.150688327568787,-41.043480913474291,-39.93627349937811,-38.829066085280338,-37.721858671180954,-36.614651257079927,-35.507443842977288,-34.400236428873,-33.293029014767114,-32.185821600659587,-31.087236281311259,-30.066250629805918,-29.045264978298977,-28.024279326790417,-27.003293675280169,-25.982308023768333,-24.961322372254813,-23.940336720739676,-22.91935106922293,-21.898365417704529,-20.87737976618449,-19.85639411466282,-18.835408463139505,-17.814422811614563,-16.793437160087969,-15.772451508559756,-14.751465857029899,-13.7304802054984,-12.709494553965275,-11.688508902430515,-10.702598675393686,-9.85699180406689,-9.0113849327384283,-8.1657780614083162,-7.3201711900765334,-6.4745643187430879,-5.6289574474079833,-4.7833505760712143,-3.9377437047327795,-3.0921368333926824,-2.2465299620509178,-1.400923090707489,-0.55531621936240061,0.29029065198435328,1.1358975233327717,1.9815043946828514,2.827111266034593,3.6727181373879971,4.5183250087430595,5.3639318800997886,6.1338849184865163,6.7273099629473858,7.3207350074099482,7.9141600518742035,8.5075850963401489,9.1010101408077926,9.694435185277122,10.287860229748139,10.881285274220849,11.474710318695251,12.068135363171338,12.661560407649116,13.254985452128594,13.848410496609747,14.441835541092605,15.035260585577149,15.628685630063387,16.222110674551303,16.81553571904093,17.408960763532235,17.875368046828296,18.15124568682036,18.42712332681414,18.703000966809658,18.97887860680688,19.254756246805854,19.530633886806509,19.806511526808919,20.082389166813005,20.358266806818854,20.634144446826408,20.910022086835706,21.185899726846671,21.461777366859394,21.73765500687384,22.013532646889992,22.289410286907881,22.565287926927482,22.841165566948803,23.117043206971847,23.019264606871506,22.924976939058215,22.830689271246676,22.736401603436892,22.642113935628839,22.547826267822543,22.453538600018021,22.359250932215225,22.26496326441417,22.170675596614885,22.076387928817333,21.982100261021557,21.887812593227508,21.793524925435193,21.699237257644651,21.604949589855853,21.51066192206882,21.416374254283504,21.076077113528385,20.571769781897885,20.067462450269229,19.563155118642378,19.05884778701736,18.554540455394172,18.050233123772802,17.545925792153284,17.04161846053556,16.537311128919654,16.033003797305614,15.528696465693391,15.024389134082986,14.520081802474422,14.015774470867667,13.511467139262757,13.007159807659651,12.5028524760584,11.998545144458948,11.494237812861343,10.683042855945921,9.74032048709803,8.7975981182519476,7.8548757494076726,6.91215338056517,5.9694310117245122,5.0267086428856471,4.0839862740485486,3.1412639052132918,2.198541536379806,1.2558191675481414,0.31309679871827,-0.62962557010978459,-1.5723479389360673,-2.5150703077605123,-3.4577926765831797,-4.4005150454040329,-5.3432374142230792,-6.2859597830403438,-7.22868215185579,-8.5367461379495371,-9.9361498449570576,-11.335553551962647,-12.734957258966311,-14.134360965968037,-15.533764672967832,-16.933168379965718,-18.332572086961626,-19.731975793955641,-21.131379500947752,-22.530783207937862,-23.930186914926082,-25.329590621912342,-26.728994328896718,-28.128398035879123,-29.527801742859634,-30.9272054498382,-32.326609156814854,-33.726012863789514,-35.125416570762269,-36.945124398136045,-38.811537097542192,-40.677949796946379,-42.54436249634859,-44.410775195748833,-46.277187895147122,-48.143600594543457,-50.010013293937725,-51.876425993330137,-53.742838692720575,-55.609251392108995,-57.475664091495524,-59.342076790880029,-61.208489490262593,-63.074902189643154,-64.941314889021783,-66.80772758839845,-68.674140287773056,-70.540552987145873,-72.406965686516514,0,0.039999825305355487,0.11020559129476201,0.22617621385853393,0.3976579478500844,0.6256389548422705,0.9104237063333136,1.251813872471162,1.6490638200608312,2.1006729902286514,2.4360708313931205,3.2147903819587249
DP 393,114.2131772668954,0.0016211647582417706,-15.730854567559637,-15.456637333222549,-15.182420098885096,-14.908202864547304,-14.633985630209146,-14.35976839587064,-14.085551161531772,-13.811333927192546,-13.53711669285298,-13.26289945851306,-12.988682224172765,-12.714464989832127,-12.440247755491114,-12.166030521149779,-11.891813286808073,-11.617596052466007,-11.343378818123595,-11.069161583780811,-10.794944349437694,-10.520727115094209,-10.248503669429988,-9.9942245103434733,-9.7399453512565835,-9.4856661921693384,-9.2313870330817167,-8.9771078739937309,-8.7228287149053809,-8.468549555816665,-8.2142703967275743,-7.9599912376381283,-7.7057120785483066,-7.4514329194581244,-7.1971537603675717,-6.9428746012766567,-6.6885954421853748,-6.4343162830937182,-6.1800371240017027,-5.9257579649093186,-5.6714788058165659,-5.4171996467234464,-5.1711304104074847,-4.9579012532135947,-4.7446720960193156,-4.5314429388246351,-4.3182137816295523,-4.1049846244340715,-3.8917554672381924,-3.6785263100419185,-3.4652971528452383,-3.2520679956481633,-3.0388388384506873,-2.8256096812528106,-2.6123805240545384,-2.3991513668558664,-2.1859222096567965,-1.9726930524573227,-1.7594638952574542,-1.5462347380571859,-1.3330055808565204,-1.1197764236554542,-0.92461532905994948,-0.7716136164900872,-0.61861190391981469,-0.46561019134913517,-0.31260847877804876,-0.15960676620655348,-0.0066050536346508159,0.14639665893765996,0.29939837151037857,0.45240008408350535,0.60540179665703775,0.75840350923097966,0.91140522180532957,1.0644069343800873,1.2174086469552523,1.3704103595308255,1.5234120721068063,1.676413784683197,1.8294154972599941,1.9824172098371979,2.1042997712788178,2.1795028706515818,2.2547059700247796,2.3299090693984121,2.4051121687724781,2.4803152681469802,2.5555183675219131,2.630721466897282,2.7059245662730818,2.7811276656493193,2.856330765025989,2.9315338644030926,3.00673696378063,3.0819400631585996,3.1571431625370057,3.2323462619158447,3.3075493612951168,3.3827524606748223,3.4579555600549647,3.5331586594355375,3.5253141519134994,3.5071355524977958,3.4889569530825439,3.4707783536677397,3.4525997542533808,3.4344211548394825,3.4162425554260332,3.3980639560130328,3.3798853566004823,3.3617067571883874,3.3435281577767371,3.3253495583655428,3.3071709589547953,3.2889923595445016,3.270813760134661,3.2526351607252675,3.2344565613163265,3.216277961907835,3.1341619859535581,3.0094200850511323,2.884678184149204,2.7599362832477583,2.6351943823468047,2.5104524814463383,2.3857105805463643,2.2609686796468798,2.1362267787478837,2.0114848778493739,1.8867429769513606,1.7620010760538323,1.637259175156794,1.5125172742602471,1.3877753733641869,1.2630334724686172,1.1382915715735351,1.0135496706789455,0.88880776978484588,0.76406586889123518,0.55731960779997469,0.31542751359536253,0.073535419391232537,-0.16835667481240932,-0.41024876901557328,-0.65214086321824227,-0.89403295742042976,-1.1359250516221411,-1.3778171458233581,-1.6197092400240993,-1.8616013342243498,-2.1034934284241191,-2.3453855226234004,-2.587277616822202,-2.8291697110205116,-3.0710618052183425,-3.3129538994156853,-3.5548459936125432,-3.79673808780892,-4.0386301820048089,-4.3803480511704223,-4.7470235435426469,-5.1136990359143359,-5.4803745282854779,-5.8470500206560807,-6.2137255130261417,-6.580401005395669,-6.94707649776464,-7.3137519901330688,-7.6804274825009688,-8.04710297486831,-8.4137784672351223,-8.7804539596013811,-9.1471294519671158,-9.513804944332291,-9.8804804366969279,-10.247155929061025,-10.61383142142458,-10.980506913787586,-11.347182406150065,-11.830398216391828,-12.326564174797674,-12.822730133202965,-13.318896091607671,-13.815062050011829,-14.311228008415434,-14.807393966818466,-15.303559925220936,-15.799725883622859,-16.295891842024218,-16.792057800425003,-17.288223758825257,-17.784389717224904,-18.280555675624033,-18.776721634022579,-19.272887592420567,-19.769053550818022,-20.265219509214866,-20.7613854676112,-21.257551426006923,0,0.013518441708995931,0.033695964863120723,0.065341654108739211,0.11192110723016005,0.17369583101174257,0.2507212824912512,0.34294054402404084,0.45016998868417785,0.57203838643823735,0.66237192984865079,0.87264275539659686
DP 394,149.59433792564136,0.0055040802026702258,-64.514342121159274,-63.2871593311912,-62.0599765412213,-60.832793751249696,-59.605610961276312,-58.378428171301216,-57.151245381324365,-55.924062591345688,-54.696879801365263,-53.469697011383154,-52.242514221399233,-51.015331431413593,-49.788148641426126,-48.560965851436919,-47.333783061445992,-46.10660027145326,-44.879417481458795,-43.652234691462581,-42.425051901464634,-41.197869111464868,-39.979725560612508,-38.842936016528455,-37.706146472442633,-36.569356928355027,-35.43256738426561,-34.2957778401744,-33.15898829608139,-32.022198751986622,-30.885409207890046,-29.748619663791711,-28.611830119691572,-27.47504057558962,-26.338251031485903,-25.201461487380385,-24.06467194327308,-22.927882399163998,-21.791092855053108,-20.65430331094046,-19.517513766826003,-18.380724222709777,-17.281080613893874,-16.330022501853293,-15.378964389810836,-14.427906277766523,-13.476848165720325,-12.525790053672273,-11.574731941622343,-10.623673829570533,-9.67261571751687,-8.7215576054613315,-7.7704994934039169,-6.8194413813446335,-5.868383269283485,-4.9173251572204624,-3.9662670451555684,-3.0152089330888043,-2.0641508210201724,-1.1130927089496745,-0.16203459687730973,0.789023515196928,1.6586514850824485,2.3382732242013264,3.0178949633221186,3.6975167024448115,4.3771384415694072,5.056760180695913,5.7363819198243258,6.4160036589546419,7.0956253980868693,7.775247137221001,8.45486887635702,9.1344906154949523,9.8141123546348,10.493734093776546,11.1733558329202,11.852977572065768,12.532599311213238,13.21222105036262,13.891842789513886,14.571464528667073,15.11149380366964,15.442131083786887,15.772768363906085,16.103405644027273,16.43404292415044,16.764680204275589,17.095317484402706,17.425954764531806,17.756592044662867,18.087229324795921,18.41786660493095,18.74850388506794,19.079141165206924,19.409778445347872,19.740415725490816,20.071053005635722,20.401690285782621,20.732327565931477,21.06296484608233,21.393602126235145,21.343996581774451,21.258026120395385,21.172055659018341,21.086085197643342,21.000114736270369,20.9141442748994,20.828173813530487,20.742203352163585,20.656232890798723,20.570262429435889,20.484291968075095,20.398321506716311,20.312351045359566,20.226380584004847,20.140410122652167,20.054439661301497,19.968469199952871,19.882498738606262,19.512803071552145,18.953952797634816,18.395102523719633,17.8362522498066,17.277401975895735,16.718551701987003,16.159701428080446,15.600851154176038,15.042000880273775,14.48315060637368,13.924300332475768,13.365450058579983,12.806599784686355,12.247749510794904,11.688899236905581,11.130048963018432,10.571198689133425,10.012348415250594,9.45349814136991,8.8946478674913951,7.9737161679560433,6.897601825340387,5.821487482726873,4.745373140115495,3.6692587975062203,2.5931444548991176,1.5170301122941356,0.4409157696912458,-0.63519857290946757,-1.7113129155080904,-2.7874272581045565,-3.8635416006989072,-4.9396559432911076,-6.0157702858812172,-7.0918846284691437,-8.1679989710549723,-9.2441133136386586,-10.320227656220217,-11.396341998799651,-12.472456341376951,-13.98763925116582,-15.612594490452416,-17.237549729736692,-18.862504969018644,-20.487460208298256,-22.11241544757555,-23.737370686850529,-25.362325926123138,-26.987281165393462,-28.612236404661456,-30.237191643927087,-31.8621468831904,-33.487102122451375,-35.11205736171005,-36.737012600966395,-38.361967840220387,-39.986923079472064,-41.611878318721445,-43.236833557968431,-44.861788797213165,-46.998013629625461,-49.191051564179595,-51.384089498731392,-53.577127433280651,-55.770165367827708,-57.963203302372243,-60.15624123691439,-62.349279171454121,-64.542317105991586,-66.735355040526571,-68.928392975059182,-71.121430909589449,-73.314468844117329,-75.507506778642821,-77.70054471316584,-79.893582647686529,-82.08662058220483,-84.27965851672073,-86.47269645123427,-88.665734385745239,0,0.052257739939852541,0.13777230669268645,0.27590943891269953,0.47977606681993634,0.75050697609647443,1.0884064021405493,1.4932300960141109,1.964125233886824,2.499375495717576,2.8966323399236833,3.8201019064557489
DP 395,170.70734783295617,0.0017156541886590645,-21.908461851299354,-21.477578759024624,-21.046695666749255,-20.615812574473242,-20.184929482196591,-19.754046389919342,-19.323163297641447,-18.892280205362891,-18.461397113083745,-18.030514020803942,-17.59963092852351,-17.168747836242456,-16.737864743960781,-16.306981651678452,-15.8760985593955,-15.445215467111927,-15.014332374827688,-14.583449282542848,-14.152566190257373,-13.72168309797128,-13.294013720666758,-12.895268081975784,-12.49652244328419,-12.097776804591936,-11.699031165899058,-11.30028552720554,-10.901539888511369,-10.502794249816569,-10.104048611121124,-9.70530297242505,-9.30655733372833,-8.9078116950309685,-8.50906605633296,-8.110320417634318,-7.7115747789350468,-7.3128291402351238,-6.9140835015345639,-6.5153378628333707,-6.11659222413153,-5.7178465854290579,-5.3322770752083279,-4.9994127016386694,-4.6665483280683517,-4.3336839544973706,-4.0008195809257323,-3.6679552073534327,-3.3350908337804719,-3.00222646020685,-2.6693620866325714,-2.3364977130576277,-2.0036333394820218,-1.6707689659057559,-1.3379045923288286,-1.0050402187512424,-0.67217584517299367,-0.33931147159408387,-0.0064470980145149275,0.326417275565714,0.65928164914660248,0.99214602272815233,1.2962302502980954,1.5331598970507041,1.7700895438039861,2.0070191905579415,2.2439488373125704,2.4808784840678713,2.7178081308238466,2.9547377775804926,3.1916674243378091,3.4285970710958025,3.6655267178544655,3.9024563646138,4.13938601137381,4.37631565813449,4.6132453048958508,4.8501749516578778,5.0871045984205772,5.3240342451839524,5.5609638919480018,5.7978935387127173,5.9857142893921,6.0998705354687761,6.2140267815461439,6.328183027624207,6.4423392737029621,6.5564955197824029,6.6706517658625453,6.784808011943376,6.8989642580249,7.0131205041071105,7.1272767501900223,7.2414329962736232,7.3555892423579152,7.4697454884429018,7.5839017345285766,7.6980579806149407,7.8122142267020021,7.9263704727897588,8.0405267188782,8.1546829649673427,8.1326438321186512,8.1009966541314284,8.0693494761449021,8.03770229815908,8.0060551201739756,7.9744079421895657,7.9427607642058833,7.9111135862228874,7.8794664082406172,7.8478192302590424,7.8161720522781817,7.7845248742980244,7.7528776963185786,7.7212305183398335,7.6895833403618061,7.65793616238448,7.6262889844078652,7.594641806431957,7.4642202278639438,7.2679474928378385,7.07167475781247,6.8754020227878518,6.6791292877639838,6.4828565527408468,6.2865838177184807,6.0903110826968456,5.8940383476759548,5.6977656126558207,5.5014928776364371,5.305220142617789,5.108947407599886,4.9126746725827406,4.7164019375663342,4.5201292025506774,4.3238564675357649,4.1275837325216,3.9313109975081884,3.7350382624955216,3.4133225022015568,3.0378437514867946,2.6623650007727635,2.2868862500594784,1.9114074993469177,1.5359287486351096,1.1604499979240339,0.78497124721368228,0.40949249650408492,0.034013745795211707,-0.34146500491291648,-0.71694375562031076,-1.0924225063269626,-1.4679012570328889,-1.8433800077380635,-2.218858758442511,-2.5943375091462175,-2.969816259849182,-3.345295010551415,-3.7207737612529104,-4.24777950764121,-4.8126687932770791,-5.3775580789121449,-5.9424473645464158,-6.5073366501798882,-7.0722259358125656,-7.6371152214444473,-8.2020045070755074,-8.7668937927057833,-9.331783078335274,-9.8966723639639422,-10.461561649591836,-11.026450935218891,-11.591340220845186,-12.156229506470654,-12.721118792095343,-13.28600807771922,-13.850897363342314,-14.415786648964584,-14.980675934586078,-15.721565549953747,-16.482012605944711,-17.242459661934873,-18.002906717924169,-18.763353773912673,-19.523800829900367,-20.284247885887229,-21.044694941873246,-21.805141997858502,-22.565589053842903,-23.326036109826489,-24.086483165809309,-24.846930221791254,-25.607377277772407,-26.367824333752715,-27.128271389732234,-27.888718445710929,-28.649165501688785,-29.409612557665881,-30.170059613642071,0,0.017339318648629413,0.046577721187297041,0.09425272853047495,0.16466818611544032,0.25822052832271009,0.37502291026070383,0.51499223215977508,0.67782893710121672,0.86293017490255564,1.0003531505530072,1.3196533196090727
DP 396,54.986712770235869,0.0014346456635045137,-7.6132024902189475,-7.5352082009447052,-7.4572139116704683,-7.3792196223962394,-7.3012253331220078,-7.2232310438477851,-7.1452367545735687,-7.0672424652993415,-6.9892481760251224,-6.9112538867509095,-6.8332595974766956,-6.7552653082024925,-6.6772710189282867,-6.5992767296540862,-6.5212824403798884,-6.4432881511056941,-6.3652938618315,-6.2872995725573126,-6.2093052832831273,-6.1313109940089445,-6.0538802294811154,-5.9815212409372656,-5.9091622523934033,-5.8368032638495269,-5.7644442753056406,-5.6920852867617375,-5.61972629821783,-5.5473673096739065,-5.4750083211299758,-5.4026493325860363,-5.3302903440420835,-5.2579313554981137,-5.1855723669541325,-5.1132133784101468,-5.0408543898661407,-4.96849540132213,-4.8961364127781071,-4.8237774242340707,-4.7514184356900229,-4.679059447145967,-4.6090176557353031,-4.5482447623721987,-4.4874718690090365,-4.4266989756458219,-4.3659260822825452,-4.3051531889192161,-4.2443802955558274,-4.1836074021923908,-4.1228345088288894,-4.0620616154653355,-4.0012887221017257,-3.9405158287380639,-3.87974293537434,-3.818970042010561,-3.7581971486467256,-3.6974242552828347,-3.6366513619188909,-3.5758784685548868,-3.5151055751908293,-3.4543326818267155,-3.3986699502417563,-3.3549310904831242,-3.3111922307244339,-3.2674533709656837,-3.2237145112068721,-3.1799756514480029,-3.1362367916890737,-3.0924979319300827,-3.0487590721710354,-3.0050202124119254,-2.9612813526527564,-2.9175424928935305,-2.8738036331342416,-2.8300647733748927,-2.7863259136154848,-2.7425870538560195,-2.6988481940964903,-2.655109334336903,-2.611370474577257,-2.5676316148175524,-2.5327040013272413,-2.5109934654563717,-2.4892829295854129,-2.46757239371436,-2.4458618578432127,-2.4241513219719746,-2.402440786100644,-2.3807302502292194,-2.3590197143577067,-2.3373091784860951,-2.3155986426143951,-2.2938881067426018,-2.2721775708707148,-2.2504670349987372,-2.2287564991266655,-2.2070459632545023,-2.1853354273822458,-2.1636248915098975,-2.1419143556374549,-2.1202038197649222,-2.1213520179781997,-2.1261534545568477,-2.1309548911353873,-2.135756327713815,-2.1405577642921316,-2.1453592008703408,-2.1501606374484368,-2.1549620740264244,-2.1597635106042996,-2.1645649471820665,-2.1693663837597228,-2.1741678203372667,-2.1789692569147023,-2.1837706934920278,-2.1885721300692431,-2.1933735666463443,-2.1981750032233407,-2.2029764398002234,-2.2259643593355602,-2.2610768873477811,-2.2961894153598532,-2.3313019433717819,-2.3664144713835631,-2.4015269993952,-2.4366395274066863,-2.47175205541803,-2.506864583429226,-2.5419771114402763,-2.5770896394511795,-2.6122021674619371,-2.6473146954725486,-2.6824272234830135,-2.7175397514933324,-2.752652279503502,-2.7877648075135291,-2.8228773355234074,-2.8579898635331404,-2.8931023915427265,-2.9515997276530443,-3.0201194401457245,-3.0886391526382608,-3.1571588651306466,-3.2256785776228867,-3.2941982901149816,-3.3627180026069254,-3.4312377150987317,-3.4997574275903851,-3.568277140081892,-3.6367968525732541,-3.7053165650644706,-3.773836277555537,-3.842355990046459,-3.9108757025372323,-3.9793954150278616,-4.0479151275183431,-4.11643484000868,-4.1849545524988692,-4.2534742649889115,-4.3504945512928481,-4.4546403177909708,-4.5587860842888981,-4.6629318507866273,-4.7670776172841665,-4.8712233837815031,-4.97536915027865,-5.0795149167755964,-5.1836606832723451,-5.2878064497689,-5.391952216265258,-5.4960979827614258,-5.6002437492573884,-5.7043895157531592,-5.8085352822487328,-5.9126810487441208,-6.0168268152393,-6.1209725817342857,-6.2251183482290733,-6.329264114723669,-6.4667271039069414,-6.6078923566336805,-6.7490576093602082,-6.8902228620865165,-7.0313881148126258,-7.1725533675385087,-7.3137186202641855,-7.4548838729896323,-7.5960491257148757,-7.7372143784399166,-7.8783796311647363,-8.0195448838893473,-8.1607101366137389,-8.30187538933792,-8.443040642061888,-8.58420589478564,-8.72537114750918,-8.86653640023251,-9.0077016529556229,-9.1488669056785241,0,0.00964853677899969,0.018576071142593038,0.029282380980539917,0.044032159440647353,0.063079791993378181,0.086503953639394032,0.11434296937173492,0.14662089033933928,0.18330492709149748,0.20961436804136996,0.27107535586506437
DP 397,157.89107914900214,0.0038952294753224191,-47.304036854534921,-46.391354138343353,-45.47867142215047,-44.565988705956251,-43.653305989760689,-42.740623273563848,-41.827940557365686,-40.915257841166145,-40.002575124965361,-39.089892408763191,-38.177209692559735,-37.264526976354944,-36.351844260148816,-35.439161543941395,-34.526478827732639,-33.613796111522554,-32.701113395311154,-31.788430679098429,-30.875747962884375,-29.963065246669025,-29.057135537105246,-28.211983525739797,-27.366831514372965,-26.521679503004805,-25.676527491635284,-24.831375480264455,-23.986223468892256,-23.141071457518716,-22.295919446143841,-21.450767434767634,-20.605615423390077,-19.760463412011156,-18.915311400630905,-18.07015938924933,-17.225007377866397,-16.379855366482118,-15.53470335509652,-14.689551343709558,-13.844399332321252,-12.999247320931618,-12.181823108102249,-11.475311399972366,-10.768799691841078,-10.062287983708393,-9.3557762755743248,-8.6492645674388466,-7.9427528593019749,-7.2362411511637186,-6.5297294430240562,-5.8232177348829994,-5.1167060267405411,-4.4101943185966883,-3.7036826104514393,-2.9971709023047963,-2.2906591941567545,-1.5841474860073175,-0.87763577785648517,-0.17112406970425995,0.53538763844936055,1.2418993466043791,1.8877062735718591,2.3918667984462889,2.8960273233221421,3.4001878481994132,3.9043483730781148,4.4085088979582334,4.912669422839774,5.4168299477227428,5.9209904726071274,6.4251509974929357,6.929311522380158,7.4334720472688121,7.93763257215889,8.4417930970503825,8.9459536219433051,9.4501141468376435,9.9542746717334065,10.458435196630598,10.962595721529205,11.466756246429238,11.867024892663048,12.111453265865846,12.355881639070104,12.600310012275854,12.844738385483051,13.089166758691725,13.333595131901873,13.578023505113487,13.822451878326563,14.066880251541107,14.311308624757142,14.555736997974659,14.80016537119362,15.044593744414055,15.289022117635964,15.533450490859339,15.777878864084178,16.022307237310493,16.266735610538291,16.511163983767538,16.470740366620877,16.405684660061002,16.34062895350263,16.275573246945761,16.210517540390406,16.145461833836549,16.080406127284203,16.015350420733373,15.950294714184027,15.885239007636214,15.820183301089902,15.75512759454509,15.690071888001778,15.625016181459975,15.559960474919672,15.494904768380886,15.429849061843591,15.364793355307844,15.089363491320437,14.673680874858297,14.257998258397736,13.842315641938784,13.426633025481417,13.010950409025645,12.595267792571475,12.179585176118893,11.763902559667901,11.348219943218504,10.93253732677074,10.516854710324544,10.101172093879937,9.6854894774369527,9.26980686099553,8.8541242445557238,8.4384416281175056,8.0227590116808774,7.6070763952458567,7.1913937788124445,6.5077030172867847,5.7091480032051933,4.9105929891251714,4.112037975046734,3.3134829609698535,2.5149279468945767,1.716372932820871,0.91781791874871355,0.11926290467816481,-0.67929210939083617,-1.4778471234582418,-2.2764021375240824,-3.0749571515883294,-3.87351216565103,-4.6720671797121227,-5.4706221937716633,-6.2691772078296131,-7.0677322218859855,-7.8662872359407929,-8.664842249994015,-9.7879453110095316,-10.9921892183745,-12.196433125737757,-13.400677033099296,-14.604920940459111,-15.809164847817225,-17.013408755173639,-18.217652662528284,-19.421896569881234,-20.626140477232511,-21.830384384582025,-23.034628291929845,-24.238872199275914,-25.443116106620291,-26.64736001396297,-27.851603921303891,-29.055847828643127,-30.26009173598063,-31.46433564331641,-32.668579550650506,-34.250401635556869,-35.874180816788893,-37.497959998019262,-39.121739179247768,-40.745518360474563,-42.369297541699574,-43.993076722922829,-45.61685590414433,-47.240635085364062,-48.864414266582024,-50.488193447798274,-52.111972629012712,-53.73575181022543,-55.359530991436387,-56.98331017264551,-58.607089353852921,-60.230868535058683,-61.854647716262491,-63.478426897464722,-65.102206078665,0,0.037951198410913753,0.10088295574796391,0.20296081486068471,0.35366232538158021,0.55382997515764432,0.8036961385823671,1.1030814506183366,1.4513506612154075,1.8472255019914325,2.1410816869639731,2.8240410047457809
DP 398,158.44366517664488,0.0037365513880062559,-45.480287025676049,-44.602009845538248,-43.723732665399126,-42.845455485258753,-41.967178305117137,-41.088901124974221,-40.210623944830033,-39.332346764684594,-38.454069584537848,-37.575792404389865,-36.697515224240568,-35.819238044090056,-34.940960863938237,-34.062683683785131,-33.184406503630775,-32.306129323475112,-31.427852143318212,-30.549574963160026,-29.671297783000576,-28.7930206028398,-27.921243895707207,-27.107972060290596,-26.294700224872656,-25.481428389453463,-24.668156554032976,-23.854884718611167,-23.041612883188094,-22.228341047763713,-21.415069212338047,-20.601797376911076,-19.788525541482805,-18.975253706053248,-18.161981870622419,-17.348710035190276,-16.535438199756854,-15.722166364322133,-14.908894528886126,-14.095622693448817,-13.282350858010219,-12.469079022570337,-11.682496483467833,-11.002672391092045,-10.322848298714916,-9.64302420633644,-8.9632001139566242,-8.283376021575469,-7.6035519291929567,-6.9237278368091131,-6.243903744423922,-5.5640796520373854,-4.8842555596495023,-4.2044314672602718,-3.5246073748697064,-2.84478328247779,-2.1649591900845353,-1.4851350976899322,-0.80531100529398736,-0.12548691289670377,0.55433717950192418,1.2341612719018977,1.8555588676330674,2.3406261302645985,2.8256933928975028,3.3107606555317775,3.7958279181674146,4.2808951808044258,4.7659624434428025,5.2510297060825462,5.7360969687236594,6.2211642313661448,6.7062314940099883,7.1912987566552165,7.6763660193018115,8.161433281949769,8.646500544599089,9.13156780724979,9.61663506990186,10.101702332555293,10.586769595210095,11.07183685786627,11.456923052051053,11.692035280912009,11.927147509774365,12.162259738638157,12.397371967503355,12.632484196369976,12.867596425237993,13.102708654107444,13.33782088297829,13.572933111850576,13.808045340724254,14.043157569599362,14.278269798475863,14.513382027353797,14.748494256233139,14.983606485113906,15.218718713996077,15.453830942879677,15.688943171764668,15.924055400651094,15.884914015407652,15.822234452580973,15.75955488975576,15.696875326931991,15.634195764109677,15.571516201288796,15.508836638469377,15.446157075651405,15.383477512834883,15.320797950019811,15.258118387206189,15.195438824394023,15.13275926158329,15.070079698774018,15.00740013596619,14.944720573159803,14.882041010354895,14.819361447551408,14.554282636739096,14.154267805381602,13.754252974025679,13.354238142671267,12.954223311318408,12.554208479967064,12.154193648617268,11.754178817269004,11.354163985922261,10.954149154577069,10.55413432323342,10.154119491891295,9.7541046605507056,9.3540898292116577,8.95407499787414,8.5540601665381484,8.1540453352036959,7.7540305038707835,7.3540156725394015,6.9540008412095666,6.2961681719977154,5.5278386623494882,4.7595091527027744,3.991179643057591,3.2228501334138984,2.4545206237717538,1.6861911141311174,0.91786160449196852,0.14953209485436822,-0.61879741478174211,-1.3871269244163189,-2.1554564340493876,-2.9237859436809286,-3.6921154533109792,-4.4604449629394818,-5.2287744725664922,-5.9971039821919705,-6.7654334918159282,-7.5337630014383894,-8.3020925110593282,-9.3825990414481346,-10.541153515471299,-11.699707989492829,-12.858262463512689,-14.016816937530924,-15.175371411547495,-16.333925885562426,-17.49248035957568,-18.651034833587296,-19.809589307597296,-20.968143781605594,-22.126698255612279,-23.285252729617255,-24.443807203620651,-25.602361677622355,-26.760916151622425,-27.919470625620821,-29.078025099617612,-30.236579573612694,-31.395134047606174,-32.916851029194426,-34.47892321460035,-36.040995400004604,-37.603067585407118,-39.165139770807976,-40.727211956207135,-42.289284141604575,-43.851356327000339,-45.413428512394411,-46.975500697786813,-48.537572883177532,-50.099645068566559,-51.661717253953888,-53.223789439339491,-54.785861624723424,-56.347933810105644,-57.910005995486237,-59.472078180865068,-61.034150366242258,-62.596222551617643,0,0.036465707229404537,0.096983102353916481,0.19516950553323359,0.34012897246575258,0.53267210834401046,0.77302288377809392,1.0610088668015367,1.3960186985250167,1.7768223187995886,2.0594936308177392,2.7164492441219315
DP 399,133.96401001069253,0.0043577150353761021,-47.401600856562759,-46.528324084904057,-45.655047313244125,-44.781770541582979,-43.908493769920632,-43.035216998257063,-42.161940226592286,-41.288663454926287,-40.415386683259108,-39.542109911590686,-38.668833139921091,-37.795556368250239,-36.922279596578164,-36.049002824904939,-35.175726053230434,-34.302449281554722,-33.42917250987783,-32.555895738199723,-31.682618966520423,-30.809342194839861,-29.942453690438288,-29.133060195403864,-28.323666700368189,-27.514273205331278,-26.704879710293113,-25.895486215253737,-25.086092720213095,-24.276699225171242,-23.467305730128135,-22.657912235083796,-21.8485187400382,-21.039125244991368,-20.229731749943284,-19.420338254893984,-18.610944759843463,-17.801551264791673,-16.992157769738636,-16.182764274684384,-15.373370779628875,-14.563977284572127,-13.780865401284396,-13.102881207181925,-12.424897013078141,-11.746912818973039,-11.06892862486661,-10.390944430758898,-9.7129602366498489,-9.0349760425394958,-8.3569918484278389,-7.6790076543148533,-7.0010234602005657,-6.3230392660849555,-5.6450550719680352,-4.9670708778498032,-4.2890866837302566,-3.611102489609392,-2.9331182954872204,-2.2551341013637414,-1.5771499072389472,-0.89916571311283766,-0.27891454257864073,0.20662442055161573,0.69216338368321906,1.1777023468161587,1.6632413099504324,2.1487802730860528,2.6343192362230092,3.119858199361309,3.605397162500942,4.09093612564192,4.5764750887842345,5.0620140519278829,5.5475530150728805,6.0330919782192121,6.5186309413668848,7.0041699045158978,7.4897088676662475,7.9752478308179438,8.460786793970966,8.94632575712534,9.33264528218618,9.5701333054877917,9.8076213287908125,10.045109352095242,10.282597375401057,10.520085398708284,10.757573422016906,10.995061445326932,11.232549468638373,11.470037491951194,11.707525515265429,11.945013538581055,12.182501561898089,12.419989585216527,12.657477608536375,12.894965631857607,13.132453655180241,13.36994167850429,13.607429701829732,13.844917725156575,13.814951399632065,13.755466703353267,13.69598200707593,13.636497310800035,13.577012614525568,13.517527918252574,13.458043221980999,13.398558525710873,13.339073829442185,13.279589133174973,13.220104436909173,13.16061974064484,13.101135044381945,13.041650348120491,12.982165651860488,12.922680955601912,12.8631962593448,12.803711563089124,12.541392388406221,12.143847032709385,11.74630167701412,11.3487563213204,10.951210965628217,10.553665609937582,10.156120254248494,9.7585748985609619,9.3610295428749524,8.96348418719051,8.565938831507621,8.1683934758262655,7.7708481201464563,7.3733027644682059,6.9757574087914795,6.5782120531163226,6.1806666974426951,5.7831213417706167,5.385575986100096,4.9880306304311235,4.3309479217763132,3.5626314144218263,2.7943149070688604,2.0259983997174378,1.2576818923675197,0.48936538501916405,-0.27895112232767083,-1.0472676296730039,-1.8155841370167753,-2.583900644359046,-3.3522171516997679,-4.12053365903897,-4.8888501663766286,-5.6571666737127879,-6.4254831810473876,-7.1937996883804756,-7.9621161957120226,-8.73043270304204,-9.49874921037053,-10.267065717697506,-11.350763523090139,-12.513310379300815,-13.675857235509836,-14.838404091717157,-16.0009509479228,-17.163497804126752,-18.326044660329028,-19.4885915165296,-20.6511383727285,-21.813685228925742,-22.976232085121246,-24.138778941315103,-25.30132579750725,-26.463872653697734,-27.6264195098865,-28.788966366073623,-29.951513222259024,-31.114060078442787,-32.276606934624809,-33.439153790805179,-34.969447203945251,-36.540605207864871,-38.111763211782815,-39.682921215698975,-41.2540792196134,-42.825237223526081,-44.396395227437054,-45.96755323134623,-47.538711235253786,-49.109869239159522,-50.68102724306361,-52.2521852469659,-53.823343250866465,-55.3945012547653,-56.965659258662363,-58.536817262557769,-60.10797526645144,-61.679133270343279,-63.250291274233511,-64.821449278121847,0,0.03921890432217446,0.10137636876172945,0.20078325796653262,0.34736519356220741,0.54193412931366558,0.78469181079063333,1.0754607829825065,1.4136394062624804,1.7980155625201122,2.083185052754744,2.7464155565769959
DP 400,86.234343086288533,0.0035876647918578141,-27.920194858400958,-27.495327239524617,-27.07045962064787,-26.645592001770677,-26.220724382893046,-25.795856764014985,-25.370989145136495,-24.946121526257567,-24.521253907378217,-24.096386288498415,-23.671518669618184,-23.246651050737519,-22.821783431856417,-22.396915812974871,-21.97204819409291,-21.547180575210504,-21.122312956327665,-20.69744533744441,-20.2725777185607,-19.847710099676579,-19.425917665396348,-19.031802183234536,-18.637686701072273,-18.243571218909551,-17.849455736746332,-17.455340254582666,-17.061224772418541,-16.667109290253936,-16.272993808088888,-15.87887832592337,-15.484762843757375,-15.090647361590923,-14.696531879424008,-14.302416397256614,-13.908300915088779,-13.514185432920472,-13.120069950751686,-12.725954468582444,-12.331838986412745,-11.93772350424258,-11.556274633957839,-11.225492809857874,-10.894710985757357,-10.563929161656283,-10.23314733755466,-9.9023655134524748,-9.5715836893497439,-9.2408018652464516,-8.9100200411426087,-8.579238217038208,-8.2484563929332619,-7.9176745688277554,-7.5868927447217072,-7.2561109206150913,-6.9253290965079248,-6.5945472724002059,-6.2637654482919274,-5.9329836241831044,-5.6022018000737281,-5.271419975963795,-4.9685534315109532,-4.7308234191316938,-4.4930934067518509,-4.2553633943714537,-4.0176333819904784,-3.7799033696089364,-3.542173357226825,-3.3044433448441444,-3.0667133324608935,-2.8289833200770751,-2.5912533076926869,-2.3535232953077343,-2.1157932829222035,-1.8780632705361091,-1.6403332581494436,-1.4026032457622071,-1.1648732333744023,-0.92714322098602764,-0.68941320859708455,-0.45168319620757347,-0.26210124394768,-0.14474251965166887,-0.027383795355020994,0.089974928942265345,0.20733365324018976,0.32469237753875324,0.44205110183795226,0.55940982613778978,0.67676855043826545,0.79412727473938094,0.9114859990411317,1.028844723343519,1.1462034476465468,1.2635621719502097,1.3809208962545143,1.4982796205594529,1.6156383448650316,1.7329970691712484,1.8503557934781025,1.9677145177855935,1.9579182676223181,1.9305277490583925,1.9031372304951459,1.8757467119325744,1.8483561933706874,1.8209656748094758,1.7935751562489488,1.7661846376890915,1.7387941191299185,1.7114036005714244,1.6840130820136077,1.6566225634564733,1.6292320449000131,1.6018415263442327,1.5744510077891358,1.5470604892347151,1.5196699706809718,1.4922794521279117,1.3656052801898715,1.1727404419092329,0.9798756036293641,0.78701076535025738,0.59414592707191682,0.40128108879434066,0.208416250517539,0.015551412241500664,-0.17731342603377526,-0.37017826430828088,-0.5630431025820134,-0.75590794085498592,-0.94877277912719094,-1.1416376173986242,-1.3345024556692968,-1.5273672939391976,-1.7202321322083376,-1.913096970476706,-2.1059618087443046,-2.2988266470111385,-2.6192466531161416,-2.994334882115397,-3.3694231111138921,-3.7445113401116208,-4.1195995691085976,-4.4946877981047972,-4.86977602710024,-5.2448642560949361,-5.6199524850888523,-5.9950407140820214,-6.370128943074417,-6.74521717206606,-7.120305401056938,-7.4953936300470563,-7.870481859036401,-8.2455700880250049,-8.6206583170128273,-8.9957465459999035,-9.3708347749861982,-9.74592300397175,-10.276477015099911,-10.845899308627205,-11.415321602153609,-11.984743895679118,-12.55416618920375,-13.123588482727504,-13.693010776250365,-14.262433069772333,-14.831855363293402,-15.401277656813615,-15.970699950332918,-16.540122243851346,-17.109544537368883,-17.678966830885539,-18.248389124401307,-18.817811417916186,-19.387233711430159,-19.956656004943277,-20.526078298455491,-21.095500591966825,-21.846577824869915,-22.617840847743945,-23.389103870617014,-24.160366893489137,-24.931629916360361,-25.702892939230654,-26.474155962099996,-27.245418984968378,-28.016682007835886,-28.787945030702453,-29.559208053568067,-30.330471076432765,-31.101734099296522,-31.872997122159397,-32.644260145021285,-33.415523167882277,-34.186786190742332,-34.958049213601434,-35.72931223645967,-36.500575259316889,0,0.026602954467889111,0.060691196528980945,0.11110421873355232,0.1847654972401343,0.28217770347495297,0.40341551528607789,0.54839815154073224,0.716880001174813,0.90834109758608816,1.0497372786262662,1.3795247460830993
DP 401,103.18616135664699,0.0039767868939135373,-35.731127389486907,-35.1341566157446,-34.537185842001541,-33.940215068257757,-33.343244294513248,-32.746273520768,-32.149302747022041,-31.552331973275368,-30.95536119952795,-30.35839042577982,-29.761419652030927,-29.164448878281341,-28.567478104531023,-27.970507330779963,-27.3735365570282,-26.776565783275711,-26.179595009522487,-25.582624235768535,-24.985653462013868,-24.388682688258466,-23.796042441257782,-23.242377344395415,-22.688712247532248,-22.135047150668353,-21.581382053803686,-21.027716956938281,-20.474051860072109,-19.92038676320518,-19.3667216663375,-18.813056569469069,-18.259391472599876,-17.705726375729931,-17.152061278859222,-16.598396181987756,-16.044731085115558,-15.49106598824258,-14.937400891368837,-14.383735794494365,-13.830070697619112,-13.276405600743132,-12.740577578924597,-12.276098700343102,-11.811619821760772,-11.347140943177603,-10.88266206459358,-10.418183186008724,-9.9537043074230169,-9.48922542883648,-9.0247465502491053,-8.56026767166087,-8.095788793071808,-7.6313099144818919,-7.1668310358911294,-6.7023521572995355,-6.2378732787070907,-5.7733944001138093,-5.3089155215196824,-4.8444366429247152,-4.3799577643289069,-3.9154788857322562,-3.490281667747003,-3.1567428955215817,-2.8232041232952851,-2.4896653510681341,-2.15612657884012,-1.8225878066112444,-1.4890490343815044,-1.1555102621508979,-0.821971489919434,-0.48843271768710589,-0.15489394545391749,0.17864482678013405,0.51218359901505039,0.8457223712508265,1.1792611434874665,1.5127999157249721,1.8463386879633368,2.1798774602025697,2.5134162324426574,2.84695500468361,3.112784387083535,3.277048084705676,3.4413117823287491,3.6055754799527513,3.7698391775776892,3.9341028752035547,4.0983665728303507,4.2626302704580805,4.4268939680867385,4.5911576657163309,4.7554213633468478,4.9196850609783027,5.0839487586106893,5.248212456243996,5.4124761538782487,5.5767398515134126,5.7410035491495259,5.9052672467865666,6.0695309444245353,6.2337946420634287,6.218163047263177,6.1790572853612815,6.1399515234603435,6.1008457615603975,6.06173999966142,6.0226342377634126,5.9835284758663807,5.9444227139703267,5.9053169520752462,5.8662111901811365,5.8271054282880055,5.7879996663958462,5.7488939045046594,5.7097881426144479,5.6706823807252142,5.6315766188369469,5.592470856949662,5.553365095063354,5.3748865445777865,5.1034906060541037,4.8320946675314982,4.5606987290099532,4.2893027904894856,4.0179068519700767,3.7465109134517496,3.475114974934487,3.2037190364182884,2.932323097903164,2.6609271593891179,2.389531220876131,2.1181352823642148,1.8467393438533743,1.5753434053435957,1.3039474668348949,1.0325515283272548,0.76115558982068976,0.48975965131519766,0.21836371281077518,-0.23194109454254672,-0.758923547229683,-1.2859059999157645,-1.8128884526007771,-2.3398709052847457,-2.8668533579676314,-3.3938358106494628,-3.9208182633302537,-4.4478007160099624,-4.9747831686886332,-5.5017656213662258,-6.028748074042765,-6.5557305267182375,-7.0827129793926664,-7.6096954320660082,-8.1366778847383134,-8.6636603374095458,-9.190642790079723,-9.7176252427488485,-10.244607695416898,-10.989520779270913,-11.788919095821273,-12.588317412370442,-13.3877157289184,-14.187114045465153,-14.986512362010711,-15.785910678555091,-16.585308995098245,-17.384707311640202,-18.184105628180969,-18.983503944720521,-19.782902261258894,-20.582300577796026,-21.381698894332,-22.181097210866746,-22.980495527400294,-23.779893843932641,-24.579292160463805,-25.37869047699375,-26.178088793522498,-27.232017850945592,-28.314230774989909,-29.396443699033011,-30.47865662307478,-31.560869547115374,-32.643082471154649,-33.725295395192738,-34.807508319229576,-35.889721243265143,-36.97193416729948,-38.05414709133256,-39.136360015364431,-40.218572939394981,-41.300785863424373,-42.382998787452415,-43.465211711479263,-44.547424635504896,-45.629637559529208,-46.711850483552375,-47.794063407574207,0,0.031672580124917415,0.076732006282104775,0.14622496143439637,0.24833104701477765,0.38364415352055919,0.55227446128737123,0.75409797583290816,0.98872819359460162,1.2553773519780453,1.4528488607736989,1.9128036664622152
DP 402,148.94004793593618,0.00337408115226469,-39.433428916295306,-38.684223849615819,-37.935018782935295,-37.185813716253648,-36.436608649570957,-35.6874035828872,-34.938198516202348,-34.18899344951646,-33.43978838282947,-32.690583316141407,-31.941378249452288,-31.192173182762104,-30.442968116070805,-29.693763049378468,-28.944557982685073,-28.195352915990597,-27.446147849295013,-26.696942782598402,-25.947737715900718,-25.198532649201955,-24.454844599962076,-23.760810229352973,-23.066775858742851,-22.372741488131609,-21.67870711751927,-20.984672746905847,-20.29063837629133,-19.596604005675704,-18.902569635059017,-18.208535264441238,-17.514500893822351,-16.820466523202377,-16.126432152581316,-15.432397781959184,-14.738363411335921,-14.044329040711592,-13.350294670086164,-12.656260299459646,-11.962225928832037,-11.268191558203334,-10.596828047364419,-10.016149047144252,-9.43547004692295,-8.8547910467004982,-8.27411204647692,-7.6934330462521858,-7.1127540460263257,-6.5320750457993171,-5.9513960455711681,-5.3707170453418751,-4.7900380451114462,-4.209359044879867,-3.6286800446471497,-3.0480010444132932,-2.4673220441782933,-1.8866430439421509,-1.3059640437048712,-0.72528504346645051,-0.14460604322689161,0.43607295701381132,0.96704565836580969,1.3820354295233102,1.7970252006819767,2.2120149718418056,2.6270047430027939,3.0419945141649491,3.4569842853282648,3.8719740564927441,4.2869638276583855,4.7019535988251926,5.1169433699931579,5.5319331411622938,5.9469229123325844,6.3619126835040438,6.7769024546766676,7.1918922258504452,7.6068819970253942,8.0218717682015015,8.4368615393787767,8.851851310557219,9.1816246611128189,9.3835713670155361,9.58551807291946,9.787464778824587,9.9894114847309226,10.19135819063847,10.393304896547219,10.595251602457173,10.797198308368333,10.999145014280705,11.201091720194281,11.40303842610907,11.60498513202505,11.806931837942257,12.008878543860664,12.210825249780269,12.412771955701094,12.614718661623119,12.816665367546346,13.018612073470779,12.988539877259488,12.936121176732268,12.883702476206274,12.831283775681513,12.778865075158004,12.72644637463573,12.674027674114702,12.621608973594897,12.569190273076341,12.51677157255901,12.464352872042928,12.411934171528083,12.35951547101449,12.307096770502127,12.254678069990991,12.202259369481101,12.149840668972463,12.097421968465049,11.871749791336393,11.530572567075049,11.189395342815024,10.848218118556298,10.507040894298891,10.165863670042803,9.8246864457880374,9.483509221534586,9.1423319972824437,8.8011547730316178,8.4599775487821347,8.1188003245339413,7.7776231002870713,7.4364458760415291,7.0952686517972827,6.7540914275543749,6.41291420331276,6.07173697907249,5.7305597548335188,5.3893825305958778,4.82707446567699,4.16999305451084,3.5129116433459848,2.8558302321824356,2.1987488210201733,1.5416674098592356,0.88458599869959342,0.22750458754122818,-0.42957682361580679,-1.0866582347715643,-1.7437396459260055,-2.4008210570791544,-3.05790246823099,-3.7149838793815433,-4.3720652905307738,-5.0291467016787195,-5.6862281128253551,-6.3433095239706843,-7.0003909351147326,-7.6574723462574577,-8.5827286923634851,-9.5750319407580911,-10.567335189151279,-11.559638437543047,-12.551941685933388,-13.544244934322302,-14.536548182709808,-15.528851431095866,-16.521154679480517,-17.513457927863776,-18.505761176245556,-19.498064424625955,-20.490367673004904,-21.482670921382468,-22.474974169758553,-23.467277418133257,-24.459580666506543,-25.451883914878415,-26.444187163248806,-27.436490411617843,-28.741087725833175,-30.080387660541376,-31.4196875952481,-32.758987529953352,-34.098287464657147,-35.437587399359487,-36.776887334060326,-38.116187268759738,-39.455487203457729,-40.794787138154234,-42.13408707284924,-43.473387007542847,-44.812686942234926,-46.151986876925669,-47.491286811614813,-48.830586746302558,-50.16988668098881,-51.5091866156736,-52.84848655035703,-54.187786485038878,0,0.031967148076204051,0.084218544622530755,0.16859358512017839,0.29311289513892597,0.45846938119660935,0.66484830851828958,0.91210049141382088,1.1997052846913092,1.5266150495359276,1.7692408570357139,2.3332627229866967
DP 403,65.0027766678742,0.0043155795683894084,-26.416779960624577,-26.092341316364678,-25.767902672104608,-25.4434640278444,-25.119025383584027,-24.794586739323478,-24.470148095062793,-24.14570945080191,-23.821270806540884,-23.496832162279709,-23.172393518018367,-22.847954873756837,-22.523516229495172,-22.199077585233329,-21.874638940971352,-21.550200296709214,-21.225761652446881,-20.9013230081844,-20.576884363921771,-20.252445719658979,-19.930352663298727,-19.6293701197778,-19.328387576256681,-19.027405032735341,-18.726422489213803,-18.425439945692055,-18.124457402170108,-17.82347485864797,-17.522492315125621,-17.22150977160306,-16.92052722808031,-16.619544684557365,-16.318562141034203,-16.017579597510831,-15.716597053987256,-15.415614510463488,-15.114631966939527,-14.813649423415342,-14.512666879890963,-14.211684336366382,-13.920353238226289,-13.667628377765364,-13.414903517304127,-13.162178656842553,-12.909453796380658,-12.65672893591843,-12.404004075455875,-12.151279214992991,-11.89855435452977,-11.645829494066229,-11.393104633602357,-11.140379773138157,-10.887654912673634,-10.63493005220878,-10.382205191743594,-10.129480331278074,-9.8767554708122383,-9.6240306103460647,-9.3713057498795749,-9.1185808894127458,-8.8871381198295261,-8.7053542328531712,-8.5235703458764611,-8.3417864588994277,-8.1600025719220355,-7.9782186849443129,-7.7964347979662412,-7.6146509109878195,-7.4328670240090675,-7.2510831370299691,-7.06929925005053,-6.8875153630707473,-6.70573147609062,-6.5239475891101542,-6.3421637021293513,-6.160379815148195,-5.9785959281666976,-5.7968120411848583,-5.6150281542026823,-5.4332442672201617,-5.2881671110519575,-5.19815091850867,-5.1081347259649528,-5.0181185334208021,-4.9281023408762126,-4.8380861483311861,-4.7480699557857244,-4.6580537632398311,-4.5680375706934964,-4.4780213781467291,-4.3880051855995257,-4.2979889930518835,-4.2079728005038071,-4.1179566079552972,-4.0279404154063441,-3.9379242228569633,-3.847908030307142,-3.757891837756886,-3.6678756452061911,-3.5778594526550633,-3.5838698018943975,-3.6042773888479154,-3.6246849758009425,-3.6450925627534896,-3.6655001497055428,-3.6859077366571058,-3.7063153236081794,-3.7267229105587734,-3.7471304975088708,-3.7675380844584838,-3.7879456714076065,-3.8083532583562407,-3.8287608453043891,-3.8491684322520481,-3.869576019199215,-3.8899836061458988,-3.9103911930920923,-3.9307987800377955,-4.0269646208273242,-4.1736371576529958,-4.3203096944780661,-4.4669822313025458,-4.6136547681264268,-4.7603273049497172,-4.906999841772409,-5.053672378594503,-5.20034491541601,-5.3470174522369129,-5.4936899890572191,-5.64036252587693,-5.7870350626960487,-5.9337075995145678,-6.0803801363324981,-6.2270526731498217,-6.3737252099665618,-6.5203977467826988,-6.6670702835982372,-6.8137428204131858,-7.0578035991132992,-7.3436035108088777,-7.6294034225038656,-7.9152033341982539,-8.201003245892057,-8.4868031575852516,-8.7726030692778565,-9.0584029809698681,-9.3442028926612917,-9.630002804352122,-9.91580271604234,-10.201602627731987,-10.487402539421021,-10.773202451109471,-11.05900236279731,-11.344802274484584,-11.630602186171235,-11.9164020978573,-12.202202009542777,-12.488001921227664,-12.892518244540666,-13.326715073421971,-13.760911902302539,-14.195108731182353,-14.629305560061434,-15.06350238893976,-15.497699217817349,-15.931896046694181,-16.366092875570271,-16.800289704445643,-17.234486533320229,-17.668683362194109,-18.102880191067218,-18.537077019939602,-18.971273848811233,-19.405470677682125,-19.83966750655226,-20.273864335421674,-20.708061164290317,-21.142257993158225,-21.715208648497878,-22.303577852918487,-22.891947057338292,-23.480316261757288,-24.068685466175488,-24.657054670592906,-25.245423875009521,-25.83379307942532,-26.422162283840343,-27.010531488254564,-27.598900692667996,-28.187269897080654,-28.775639101492487,-29.364008305903543,-29.95237751031376,-30.540746714723223,-31.129115919131884,-31.717485123539749,-32.305854327946811,-32.894223532353031,0,0.029664543865550713,0.060681083417943545,0.10165255432711724,0.16006051218993203,0.23660425089113873,0.33142496440871572,0.44452939961510296,0.57583537599872181,0.72505421042358087,0.83397580977786745,1.0885599521955955
DP 404,298.61897127502721,0.0036092742679146926,-65.8553747770369,-64.405637772987248,-62.955900768935592,-61.506163764881954,-60.056426760826348,-58.606689756768731,-57.156952752709188,-55.707215748647663,-54.257478744584148,-52.807741740518637,-51.358004736451178,-49.908267732381717,-48.458530728310279,-47.008793724236874,-45.559056720161536,-44.109319716084137,-42.659582712004834,-41.209845707923492,-39.76010870384021,-38.310371699754938,-36.872930315940337,-35.54615067681253,-34.219371037682762,-32.892591398550991,-31.565811759417269,-30.2390321202815,-28.912252481143781,-27.585472842004105,-26.258693202862403,-24.931913563718762,-23.605133924573089,-22.278354285425461,-20.951574646275851,-19.624795007124234,-18.298015367970649,-16.971235728815071,-15.64445608965752,-14.317676450497979,-12.990896811336464,-11.664117172172952,-10.386602117355945,-9.30614772824369,-8.2256933391294567,-7.1452389500132227,-6.0647845608950028,-4.9843301717747774,-3.9038757826525621,-2.8234213935283514,-1.7429670044021495,-0.66251261527395178,0.41794177385624531,1.498396162988445,2.5788505521226308,3.6593049412588141,4.7397593303969927,5.8202137195371693,6.9006681086793353,7.9811224978234891,9.06157688696964,10.142031276117791,11.118840966513229,11.853809760901559,12.588778555291933,13.323747349684316,14.058716144078724,14.793684938475185,15.528653732873641,16.263622527274137,16.998591321676656,17.733560116081183,18.468528910487752,19.203497704896343,19.938466499306966,20.6734352937196,21.408404088134276,22.14337288255097,22.878341676969711,23.613310471390445,24.348279265813211,25.083248060238017,25.649852574889032,25.963906691323597,26.277960807760184,26.592014924198843,26.906069040639565,27.220123157082305,27.534177273527106,27.848231389973947,28.162285506422826,28.476339622873748,28.790393739326724,29.10444785578175,29.41850197223884,29.732556088697894,30.04661020515908,30.360664321622284,30.674718438087567,30.988772554554849,31.302826671024178,31.616880787495578,31.379410746191429,31.221611014372449,31.06381128255558,30.906011550740736,30.748211818927988,30.590412087117318,30.432612355308716,30.274812623502168,30.117012891697694,29.959213159895313,29.801413428094989,29.643613696296711,29.485813964500547,29.328014232706423,29.170214500914398,29.0124147691244,28.854615037336508,28.696815305550679,28.23833401406775,27.579393612603027,26.920453211140408,26.261512809679957,25.602572408221651,24.943632006765494,24.284691605311476,23.625751203859604,22.966810802409878,22.307870400962294,21.648929999516881,20.989989598073603,20.331049196632478,19.6721087951935,19.013168393756644,18.354227992321981,17.695287590889393,17.036347189459025,16.377406788030765,15.718466386604648,14.699463978667266,13.526144420266093,12.352824861867028,11.179505303470101,10.006185745075255,8.8328661866825762,7.6595466282919835,6.4862270699034825,5.312907511517138,4.1395879531328781,2.9662683947507515,1.792948836370732,0.619629277992847,-0.55369028038296186,-1.7270098387566095,-2.9003293971281736,-4.0736489554976023,-5.2469685138649131,-6.420288072230119,-7.5936076305932154,-9.1809545797243537,-10.871813268375117,-12.56267195702365,-14.253530645669922,-15.944389334313961,-17.63524802295575,-19.326106711595305,-21.016965400232582,-22.707824088867614,-24.398682777500458,-26.08954146613096,-27.7804001547593,-29.471258843385328,-31.162117532009155,-32.85297622063073,-34.543834909250023,-36.234693597867086,-37.925552286481917,-39.616410975094482,-41.307269663704844,-43.463403756934234,-45.671240003860767,-47.879076250785062,-50.08691249770699,-52.294748744626752,-54.50258499154419,-56.710421238459269,-58.918257485372045,-61.126093732282683,-63.333929979190948,-65.541766226096982,-67.749602473000721,-69.957438719902157,-72.16527496680132,-74.3731112136981,-76.580947460592753,-78.788783707485038,-80.996619954374935,-83.2044562012628,-85.41229244814815,0,0.045118578730014777,0.12638769472871458,0.26189441863195539,0.46244842864394103,0.729228297210503,1.0626134764820812,1.4623755297782426,1.9276293662842836,2.4565930132804215,2.8495032367628275,3.7612311877257736
DP 405,137.41419908774759,0.0019308493248596484,-21.373857452357822,-20.977019187416165,-20.580180922473982,-20.183342657531242,-19.786504392587929,-19.389666127644077,-18.992827862699663,-18.595989597754684,-18.199151332809169,-17.802313067863082,-17.405474802916437,-17.008636537969259,-16.61179827302151,-16.214960008073202,-15.818121743124346,-15.421283478174924,-15.024445213224951,-14.627606948274451,-14.230768683323353,-13.833930418371718,-13.439998990649405,-13.072229372762241,-12.704459754874518,-12.336690136986219,-11.968920519097358,-11.601150901207927,-11.233381283317929,-10.865611665427355,-10.497842047536224,-10.13007242964453,-9.7623028117522654,-9.3945331938594325,-9.0267635759660241,-8.65899395807206,-8.2912243401775232,-7.9234547222824245,-7.5556851043867486,-7.187915486490513,-6.8201458685937073,-6.4523762506963376,-6.096563372691115,-5.7885780193483445,-5.4805926660049789,-5.1726073126610093,-4.8646219593164428,-4.55663660597128,-4.2486512526255167,-3.9406658992791548,-3.6326805459321911,-3.3246951925846338,-3.0167098392364733,-2.7087244858877138,-2.4007391325383565,-2.0927537791883979,-1.7847684258378447,-1.4767830724866875,-1.1687977191349348,-0.86081236578258469,-0.55282701242963539,-0.24484165907608663,0.0368893270377171,0.25735929571616412,0.47782926439522544,0.69829923307489528,0.91876920175517562,1.1392391704360676,1.3597091391175689,1.5801791077996847,1.8006490764824075,2.0211190451657428,2.241589013849687,2.4620589825342418,2.6825289512194108,2.9029989199051878,3.1234688885915736,3.343938857278578,3.5644088259661841,3.7848787946544076,4.005348763343239,4.2258187320326863,4.401189829593072,4.508911554744639,4.6166332798968464,4.7243550050496887,4.8320767302031769,4.939798455357292,5.047520180512052,5.1552419056674506,5.2629636308234815,5.37068535598015,5.47840708113746,5.5861288062954078,5.6938505314539922,5.8015722566132091,5.9092939817730761,6.0170157069335657,6.1247374320947037,6.2324591572564811,6.3401808824188883,6.4479026075819341,6.4338013999664163,6.40661631685687,6.3794312337479822,6.3522461506397523,6.3250610675321726,6.2978759844252448,6.2706909013189867,6.2435058182133831,6.2163207351084324,6.1891356520041354,6.1619505689005,6.1347654857975185,6.1075804026951923,6.0803953195935341,6.05321023649252,6.0260251533921689,5.9988400702924736,5.971654987193431,5.8523791947170309,5.671708145218636,5.491037095720956,5.3103660462239626,5.1296949967276761,4.9490239472320887,4.7683528977372127,4.5876818482430277,4.4070107987495488,4.2263397492567645,4.0456686997646933,3.8649976502733185,3.6843266007826436,3.5036555512926744,3.3229845018034005,3.1423134523148346,2.9616424028269646,2.7809713533398,2.600300303853337,2.4196292543675781,2.1211850702123343,1.7722650951801957,1.4233451201487468,1.074425145118,0.72550517008793347,0.37658519505857679,0.027665220029909305,-0.32125475499807737,-0.670174730025354,-1.0190947050519512,-1.3680146800778465,-1.71693465510305,-2.0658546301275558,-2.4147746051513792,-2.7636945801744952,-3.1126145551969282,-3.4615345302186582,-3.8104545052396985,-4.1593744802600492,-4.5082944552797031,-5.0002716503722882,-5.5280148407366454,-6.0557580311002415,-6.583501221463071,-7.1112444118251394,-7.6389876021864511,-8.1667307925470052,-8.69447398290678,-9.222217173265788,-9.7499603636240657,-10.277703553981537,-10.805446744338282,-11.333189934694236,-11.860933125049458,-12.388676315403892,-12.916419505757577,-13.444162696110489,-13.971905886462643,-14.49964907681403,-15.027392267164664,-15.721899052126734,-16.434936876800148,-17.147974701472794,-17.861012526144624,-18.574050350815686,-19.287088175485948,-20.000126000155436,-20.713163824824129,-21.426201649492082,-22.1392394741592,-22.852277298825548,-23.56531512349115,-24.278352948155902,-24.991390772819909,-25.704428597483126,-26.417466422145559,-27.1305042468072,-27.84354207146805,-28.556579896128174,-29.269617720787441,0,0.017593352776837191,0.045700768736251965,0.090765611593345466,0.15723118308343412,0.24546580280409322,0.35556284265393884,0.48744206490702158,0.64082921788141267,0.81517225298055285,0.94453097195172819,1.2453501388898385
DP 406,167.96276583164584,0.0012416525140090116,-15.692357513985122,-15.384919053091224,-15.077480592196856,-14.770042131302054,-14.462603670406798,-14.155165209511097,-13.847726748614939,-13.540288287718326,-13.232849826821271,-12.925411365923765,-12.617972905025812,-12.310534444127407,-12.00309598322856,-11.695657522329261,-11.388219061429496,-11.080780600529298,-10.773342139628648,-10.465903678727541,-10.158465217825988,-9.85102675692399,-9.5458771215017446,-9.2613271317505248,-8.97677714199885,-8.6922271522467245,-8.4076771624941316,-8.1231271727410963,-7.8385771829875983,-7.5540271932336491,-7.2694772034792372,-6.9849272137243794,-6.7003772239690615,-6.4158272342132818,-6.13127724445705,-5.8467272547003653,-5.5621772649432275,-5.2776272751856244,-4.9930772854275718,-4.7085272956690618,-4.4239773059100962,-4.1394273161506758,-3.8642646556354054,-3.6266517557563476,-3.389038855876815,-3.1514259559968116,-2.9138130561163376,-2.6762001562353905,-2.4385872563539719,-2.2009743564720856,-1.9633614565897266,-1.7257485567068946,-1.4881356568235908,-1.2505227569398161,-1.0129098570555697,-0.775296957170852,-0.53768405728566293,-0.30007115740000218,-0.062458257513870491,0.17515464237273137,0.41276754225980433,0.65038044214734936,0.86747814579203186,1.0367064118209672,1.2059346778503857,1.3751629438802817,1.5443912099106578,1.7136194759415146,1.8828477419728513,2.0520760080046667,2.2213042740369646,2.3905325400697417,2.5597608061029948,2.7289890721367307,2.898217338170948,3.0674456042056439,3.2366738702408213,3.405902136276477,3.5751304023126105,3.7443586683492289,3.9135869343863248,4.0828152004238989,4.2170135065613605,4.2986660450682361,4.3803185835756109,4.4619711220834732,4.5436236605918312,4.6252761991006892,4.7069287376100384,4.7885812761198787,4.8702338146302164,4.9518863531410489,5.0335388916523724,5.1151914301641925,5.1968439686765091,5.2784965071893151,5.3601490457026211,5.4418015842164147,5.5234541227307083,5.6051066612454976,5.68675919976078,5.768411738276555,5.7531662780398669,5.7307373894842675,5.70830850092918,5.68587961237459,5.6634507238205112,5.6410218352669341,5.61859294671387,5.5961640581613,5.573735169609245,5.5513062810576921,5.52887739250664,5.5064485039561015,5.4840196154060674,5.46159072685654,5.43916183830751,5.4167329497589893,5.3943040612109767,5.3718751726634713,5.2788808109075083,5.138841688677835,4.9988025664487026,4.8587634442200978,4.7187243219920285,4.5786851997644895,4.4386460775374887,4.2986069553110253,4.1585678330850868,4.0185287108596848,3.8784895886348236,3.7384504664104909,3.5984113441866921,3.4583722219634283,3.3183330997406948,3.1782939775184991,3.0382548552968323,2.8982157330757063,2.758176610855112,2.6181374886350524,2.3884170800253988,2.12026062341485,1.8521041668048268,1.5839477101953339,1.3157912535863598,1.0476347969779256,0.7794783403700144,0.51132188376262089,0.24316542715576633,-0.024991029450570596,-0.29314748605637436,-0.56130394266165373,-0.82946039926640192,-1.0976168558706312,-1.3657733124743228,-1.6339297690774952,-1.902086225680137,-2.1702426822822507,-2.43839913888384,-2.7065555954849,-3.0831042264194535,-3.4867521816155378,-3.890400136811051,-4.2940480920059976,-4.6976960472003642,-5.1013440023941623,-5.5049919575873938,-5.9086399127800391,-6.3122878679721222,-6.7159358231636368,-7.1195837783545706,-7.523231733544943,-7.9268796887347257,-8.3305276439239648,-8.734175599112616,-9.13782355430069,-9.5414715094881846,-9.9451194646751322,-10.348767419861488,-10.75241537504728,-11.282008059278764,-11.825595925017446,-12.369183790755564,-12.91277165649306,-13.456359522230004,-13.999947387966341,-14.543535253702103,-15.087123119437264,-15.630710985171858,-16.174298850905856,-16.717886716639274,-17.261474582372113,-17.805062448104355,-18.348650313836014,-18.892238179567084,-19.435826045297585,-19.979413911027496,-20.523001776756786,-21.066589642485546,-21.610177508213663,0,0.012454788174288411,0.033388242362522927,0.067486573697642022,0.11784508600682687,0.18474685651309602,0.26827218470535458,0.36836153674654093,0.48480100972301926,0.61716034805912967,0.71542345742133528,0.9437489908062684
DP 407,88.807840504483082,0.0011007599557748408,-8.7759182261725375,-8.6400589703394477,-8.5041997145062211,-8.36834045867286,-8.2324812028393346,-8.0966219470056888,-7.9607626911718885,-7.824903435337939,-7.6890441795038544,-7.5531849236696225,-7.4173256678352448,-7.281466412000726,-7.1456071561660695,-7.0097479003312575,-6.8738886444963052,-6.7380293886612135,-6.6021701328259734,-6.4663108769905824,-6.3304516211550625,-6.1945923653193864,-6.0597167027657468,-5.9336934727250057,-5.807670242684118,-5.6816470126430731,-5.5556237826018782,-5.4296005525605189,-5.30357732251902,-5.17755409247736,-5.05153086243555,-4.92550763239359,-4.7994844023514709,-4.6734611723091986,-4.5474379422667752,-4.4214147122242018,-4.2953914821814729,-4.1693682521385966,-4.0433450220955569,-3.9173217920523684,-3.7912985620090263,-3.6652753319655331,-3.5433036986287454,-3.4375386436033244,-3.3317735885777231,-3.2260085335519442,-3.12024347852598,-3.0144784234998387,-2.9087133684735162,-2.8029483134470161,-2.6971832584203357,-2.5914182033934758,-2.4856531483664321,-2.3798880933392121,-2.2741230383118123,-2.1683579832842308,-2.0625929282564708,-1.9568278732285302,-1.8510628182004105,-1.7452977631721092,-1.6395327081436306,-1.5337676531149709,-1.436930587882095,-1.3609257801379249,-1.2849209723935693,-1.2089161646490281,-1.1329113569043037,-1.0569065491593936,-0.98090174141429975,-0.90489693366901858,-0.82889212592355466,-0.75288731817790611,-0.67688251043207182,-0.600877702686054,-0.52487289493985,-0.44886808719346205,-0.37286327944688918,-0.29685847170013058,-0.22085366395318792,-0.14484885620606006,-0.068844048458748031,0.0071607592887488209,0.067767037459998264,0.1052751573897716,0.1427832773197498,0.18029139724993498,0.21779951718032461,0.25530763711092058,0.29281575704172097,0.33032387697272747,0.36783199690393903,0.40534011683535659,0.44284823676697987,0.48035635669880716,0.51786447663084179,0.555372596563081,0.59288071649552565,0.63038883642817511,0.66789695636103186,0.70540507629409377,0.74291319622735952,0.78042131616083232,0.77722569617981707,0.76844573669672667,0.75966577721385364,0.75088581773119811,0.742105858248762,0.73332589876654264,0.724545939284542,0.71576597980275847,0.70698602032119318,0.69820606083984627,0.689426101358718,0.68064614187780759,0.671866182397114,0.663086222916638,0.65430626343638187,0.645526303956343,0.6367463444765219,0.62796638499691959,0.58744084670429608,0.52575108909232537,0.46406133148060053,0.402371573869119,0.34068181625788269,0.27899205864688975,0.21730230103614348,0.15561254342564221,0.093922785815383644,0.032233028205370787,-0.029456729404394959,-0.091146487013918434,-0.15283624462319687,-0.21452600223222898,-0.2762157598410182,-0.33790551744956143,-0.39959527505786141,-0.46128503266591514,-0.52297479027372373,-0.58466454788128774,-0.68713630861633612,-0.80708662137583764,-0.9270369341350978,-1.0469872468941128,-1.1669375596528884,-1.2868878724114163,-1.4068381851697009,-1.5267884979277488,-1.6467388106855474,-1.7666891234431079,-1.886639436200422,-2.0065897489574951,-2.1265400617143233,-2.2464903744709104,-2.3664406872272528,-2.486390999983354,-2.6063413127392097,-2.7262916254948224,-2.8462419382501944,-2.9661922510053222,-3.1358444580240357,-3.3179227258478008,-3.5000009936712839,-3.6820792614944842,-3.864157529317406,-4.0462357971400422,-4.2283140649624027,-4.4103923327844736,-4.5924706006062657,-4.7745488684277806,-4.9566271362490086,-5.138705404069956,-5.3207836718906165,-5.5028619397110061,-5.6849402075311088,-5.8670184753509282,-6.0490967431704643,-6.23117501098972,-6.4132532788087024,-6.5953315466273921,-6.83548165352009,-7.0820847968713521,-7.3286879402223111,-7.5752910835729752,-7.8218942269233507,-8.0684973702734215,-8.3151005136232072,-8.56170365697269,-8.80830680032188,-9.0549099436707827,-9.30151308701938,-9.54811623036769,-9.79471937371571,-10.041322517063429,-10.287925660410849,-10.534528803757986,-10.781131947104823,-11.027735090451348,-11.274338233797614,-11.520941377143552,0,0.0082495679160484742,0.019021053475437973,0.035081873284422083,0.058577952249023964,0.089663809045449835,0.12836297990258869,0.17464887885589478,0.22844093001120541,0.28957018350505925,0.33474187745692119,0.4400738628227378
DP 408,190.13910208437883,0.0026851620929904322,-36.701543164878011,-35.961918395679923,-35.222293626480727,-34.482668857280451,-33.743044088079053,-33.00341931887661,-32.263794549673023,-31.524169780468377,-30.78454501126264,-30.044920242055788,-29.305295472847856,-28.565670703638848,-27.826045934428734,-27.08642116521753,-26.346796396005228,-25.607171626791843,-24.867546857577366,-24.12792208836181,-23.388297319145149,-22.648672549927387,-21.914644252576075,-21.230984731034262,-20.547325209491323,-19.863665687947286,-19.180006166402144,-18.4963466448559,-17.812687123308571,-17.129027601760118,-16.445368080210557,-15.76170855865991,-15.078049037108148,-14.394389515555286,-13.710729994001326,-13.027070472446246,-12.343410950890098,-11.659751429332815,-10.976091907774437,-10.292432386214951,-9.6087728646543624,-8.9251133430926775,-8.26434036043488,-7.6951146150456609,-7.1258888696553173,-6.5566631242638325,-5.98743737887122,-5.4182116334774788,-4.8489858880826064,-4.279760142686599,-3.710534397289464,-3.141308651891197,-2.572082906491798,-2.002857161091264,-1.4336314156896026,-0.86440567028680948,-0.29517992488288397,0.2740458205221733,0.84327156592835939,1.4124973113356749,1.9817230567441193,2.5509488021536963,3.0703955932639193,3.4736899225989433,3.8769842519351241,4.280278581272448,4.6835729106109278,5.0868672399505561,5.4901615692913408,5.893455898633273,6.2967502279763474,6.70004455732058,7.1033388866659619,7.5066332160124949,7.90992754536018,8.31322187470901,8.7165162040589976,9.1198105334101349,9.52310486276242,9.9263991921158663,10.329693521470455,10.732987850826195,11.051798113180523,11.243880278620068,11.435962444060793,11.628044609502696,11.820126774945779,12.012208940390034,12.204291105835471,12.396373271282073,12.588455436729889,12.780537602178843,12.972619767628997,13.164701933080334,13.356784098532833,13.548866263986518,13.740948429441374,13.933030594897417,14.125112760354645,14.317194925813036,14.509277091272612,14.701359256733358,14.654365350106856,14.597150883088371,14.539936416071079,14.482721949054993,14.425507482040116,14.368293015026429,14.311078548013953,14.253864081002666,14.196649613992587,14.139435146983718,14.082220679976038,14.02500621296957,13.96779174596429,13.910577278960211,13.853362811957341,13.796148344955675,13.738933877955192,13.681719410955935,13.456672976541599,13.119735919874241,12.782798863208146,12.445861806543313,12.108924749879742,11.771987693217421,11.435050636556385,11.098113579896575,10.761176523238051,10.424239466580778,10.087302409924783,9.7503653532700429,9.4134282966165568,9.0764912399643372,8.7395541833133752,8.4026171266636691,8.0656800700152314,7.72874301336806,7.3918059567221377,7.0548689000774951,6.5060193783899622,5.8663473673483866,5.2266753563080446,4.5870033452689585,3.9473313342311047,3.3076593231945148,2.6679873121591648,2.0283153011250374,1.3886432900921821,0.74897127906054939,0.10929926803017516,-0.53037274299896142,-1.1700447540268419,-1.8097167650535,-2.4493887760788891,-3.0890607871030462,-3.7287327981259533,-4.3684048091476111,-5.0080768201680366,-5.6477488311872071,-6.5422041903410078,-7.5003583968515928,-8.4585126033608375,-9.4166668098687314,-10.374821016375304,-11.332975222880512,-12.291129429384402,-13.249283635886927,-14.207437842388112,-15.16559204888798,-16.123746255386472,-17.081900461883642,-18.040054668379451,-18.998208874873953,-19.956363081367083,-20.914517287858871,-21.872671494349326,-22.830825700838439,-23.7889799073262,-24.747134113812642,-26.000317496470384,-27.286284997222843,-28.572252497973956,-29.858219998723662,-31.144187499472004,-32.430155000218981,-33.71612250096458,-35.002090001708765,-36.288057502451672,-37.574025003193157,-38.859992503933306,-40.145960004672041,-41.43192750540944,-42.717895006145447,-44.003862506880083,-45.289830007613347,-46.575797508345275,-47.861765009075739,-49.147732509804946,-50.433700010532661,0,0.028487829930805276,0.077453731233787459,0.15778272936076337,0.27648939565053965,0.43424879085420187,0.63126099434556282,0.86738724820400448,1.1421171954813216,1.4544239549711342,1.6863272569889929,2.2249705406869018
DP 409,59.556530208694255,0.0026014424405369036,-14.771601444367986,-14.605600555225012,-14.439599666082019,-14.273598776938993,-14.107597887795917,-13.941596998652797,-13.775596109509642,-13.609595220366431,-13.443594331223197,-13.27759344207991,-13.111592552936589,-12.945591663793225,-12.779590774649822,-12.613589885506364,-12.447588996362889,-12.281588107219369,-12.115587218075797,-11.949586328932186,-11.783585439788535,-11.617584550644839,-11.452783411287985,-11.298780133418433,-11.144776855548814,-10.990773577679123,-10.836770299809375,-10.682767021939553,-10.52876374406967,-10.374760466199719,-10.220757188329694,-10.066753910459607,-9.9127506325894554,-9.7587473547192367,-9.6047440768489523,-9.4507407989785985,-9.2967375211081791,-9.1427342432376939,-8.98873096536714,-8.834727687496521,-8.6807244096258316,-8.5267211317550835,-8.3776527597143957,-8.2483242442246638,-8.118995728734772,-7.9896672132447426,-7.8603386977545684,-7.7310101822642467,-7.6016816667737785,-7.4723531512831727,-7.3430246357924149,-7.213696120301516,-7.084367604810466,-6.9550390893192784,-6.8257105738279371,-6.6963820583364528,-6.5670535428448336,-6.4377250273530535,-6.308396511861142,-6.1790679963690787,-6.0497394808768705,-5.9204109653845194,-5.801965398695053,-5.7089137221066331,-5.6158620455180586,-5.52281036892933,-5.4297586923404459,-5.3367070157514114,-5.2436553391622267,-5.1506036625728857,-5.0575519859833928,-4.9645003093937516,-4.8714486328039532,-4.778396956214003,-4.6853452796239008,-4.5922936030336459,-4.4992419264432373,-4.4061902498526768,-4.3131385732619671,-4.2200868966710958,-4.1270352200800815,-4.0339835434889082,-3.9597011405233076,-3.9135730915259432,-3.8674450425283684,-3.8213169935305853,-3.7751889445325881,-3.7290608955343827,-3.6829328465359654,-3.6368047975373385,-3.5906767485385007,-3.5445486995394511,-3.4984206505401878,-3.4522926015407216,-3.4061645525410373,-3.3600365035411466,-3.3139084545410413,-3.2677804055407313,-3.221652356540206,-3.1755243075394692,-3.1293962585385242,-3.0832682095373656,-3.0860411228813462,-3.0963760047579569,-3.1067108866343189,-3.1170457685104447,-3.1273806503863226,-3.1377155322619639,-3.1480504141373595,-3.1583852960125158,-3.1687201778874217,-3.1790550597620912,-3.1893899416365152,-3.1997248235106936,-3.2100597053846389,-3.2203945872583324,-3.2307294691317856,-3.2410643510049995,-3.2513992328779655,-3.26173411475069,-3.3108071658249574,-3.3857062733034744,-3.4606053807816823,-3.535504488259583,-3.6104035957371785,-3.6853027032144681,-3.7602018106914428,-3.8351009181681182,-3.9100000256444787,-3.9848991331205332,-4.059798240596284,-4.1346973480717226,-4.2095964555468548,-4.2844955630216788,-4.359394670496191,-4.4342937779704013,-4.5091928854443077,-4.5840919929179,-4.6589911003911819,-4.7338902078641594,-4.85859323219354,-5.0046414648265571,-5.1506896974592635,-5.2967379300916653,-5.4427861627237615,-5.5888343953555362,-5.7348826279870186,-5.8809308606181929,-6.02697909324905,-6.1730273258796142,-6.3190755585098586,-6.4651237911398,-6.6111720237694307,-6.757220256398762,-6.90326848902777,-7.049316721656476,-7.19536495428488,-7.3414131869129768,-7.4874614195407663,-7.633509652168244,-7.8402644721393,-8.0621966562082985,-8.2841288402769031,-8.506061024345108,-8.72799320841292,-8.9499253924803313,-9.1718575765473389,-9.39378976061396,-9.6157219446801854,-9.8376541287460046,-10.059586312811414,-10.281518496876442,-10.503450680941073,-10.725382865005306,-10.947315049069136,-11.169247233132566,-11.391179417195602,-11.613111601258248,-11.835043785320485,-12.056975969382329,-12.349865465643539,-12.650639852928046,-12.951414240212108,-13.252188627495741,-13.552963014778948,-13.853737402061745,-14.154511789344092,-14.455286176626007,-14.756060563907507,-15.056834951188582,-15.357609338469207,-15.658383725749422,-15.959158113029206,-16.259932500308565,-16.560706887587465,-16.861481274865966,-17.162255662144037,-17.463030049421675,-17.763804436698891,-18.064578823975651,0,0.017643818696483606,0.034927527702678977,0.056681746011084014,0.087219196191223425,0.12698766026425076,0.17610017977160025,0.23459212118003517,0.30246035594011189,0.3795908149191049,0.43546579396438528,0.56607932950454065
DP 410,62.7871769656623,0.0012027869800109723,-7.1461050662082437,-7.0612506541903022,-6.9763962421723322,-6.8915418301543223,-6.8066874181362778,-6.7218330061181994,-6.63697859410009,-6.5521241820819389,-6.4672697700637656,-6.3824153580455478,-6.2975609460272972,-6.2127065340090155,-6.1278521219906956,-6.0429977099723455,-5.958143297953959,-5.87328888593554,-5.7884344739170865,-5.7035800618985943,-5.6187256498800737,-5.533871237861514,-5.4496300209783195,-5.370907618275548,-5.29218521557272,-5.2134628128698477,-5.13474041016693,-5.056018007463968,-4.9772956047609584,-4.8985732020579036,-4.8198507993547972,-4.7411283966516553,-4.6624059939484583,-4.5836835912452152,-4.5049611885419338,-4.4262387858386028,-4.3475163831352246,-4.2687939804318029,-4.1900715777283315,-4.1113491750248166,-4.0326267723212545,-3.9539043696176477,-3.877705864930785,-3.8116030715939555,-3.745500278257047,-3.6793974849200541,-3.613294691582984,-3.5471918982458286,-3.4810891049085928,-3.414986311571274,-3.3488835182338756,-3.2827807248963961,-3.2166779315588321,-3.1505751382211851,-3.0844723448834617,-3.0183695515456526,-2.9522667582077653,-2.8861639648697954,-2.82006117153174,-2.7539583781936092,-2.6878555848553933,-2.6217527915170975,-2.5612147384156532,-2.5136612545311485,-2.4661077706465604,-2.4185542867618826,-2.371000802877123,-2.3234473189922777,-2.2758938351073459,-2.22834035122233,-2.18078686733723,-2.1332333834520427,-2.0856798995667707,-2.0381264156814147,-1.9905729317959704,-1.9430194479104428,-1.8954659640248308,-1.8479124801391316,-1.8003589962533479,-1.7528055123674782,-1.705252028481524,-1.6576985445954853,-1.6197436037579773,-1.5961867043129556,-1.5726298048678238,-1.5490729054225805,-1.5255160059772237,-1.5019591065317559,-1.4784022070861769,-1.4548453076404848,-1.4312884081946833,-1.4077315087487687,-1.3841746093027414,-1.3606177098566052,-1.3370608104103558,-1.3135039109639937,-1.2899470115175209,-1.2663901120709364,-1.2428332126242412,-1.2192763131774322,-1.1957194137305129,-1.1721625142834813,-1.1736757857674478,-1.1789925288338157,-1.1843092719000576,-1.1896260149661735,-1.1949427580321619,-1.2002595010980253,-1.2055762441637605,-1.2108929872293723,-1.2162097302948545,-1.2215264733602131,-1.2268432164254435,-1.2321599594905479,-1.237476702555526,-1.2427934456203777,-1.2481101886851034,-1.2534269317497033,-1.2587436748141756,-1.2640604178785217,-1.2891875474649797,-1.3275219134866056,-1.3658562795080722,-1.4041906455293847,-1.4425250115505412,-1.4808593775715417,-1.5191937435923848,-1.5575281096130711,-1.5958624756336033,-1.6341968416539765,-1.6725312076741945,-1.7108655736942568,-1.7491999397141622,-1.7875343057339104,-1.8258686717535035,-1.8642030377729402,-1.90253740379222,-1.9408717698113449,-1.97920613583031,-2.0175405018491217,-2.0813416348576688,-2.1560574404567974,-2.23077324605577,-2.3054890516545878,-2.3802048572532515,-2.4549206628517539,-2.5296364684501036,-2.6043522740482983,-2.6790680796463326,-2.7537838852442147,-2.8284996908419391,-2.9032154964395054,-2.9779313020369171,-3.0526471076341757,-3.127362913231273,-3.2020787188282185,-3.276794524425005,-3.3515103300216373,-3.4262261356181112,-3.5009419412144296,-3.60670114904302,-3.7202215742144942,-3.8337419993857691,-3.9472624245568491,-4.0607828497277305,-4.1743032748984144,-4.2878237000689063,-4.4013441252391861,-4.5148645504092757,-4.62838497557917,-4.7419054007488617,-4.8554258259183634,-4.9689462510876536,-5.0824666762567574,-5.1959871014256613,-5.3095075265943619,-5.4230279517628706,-5.53654837693118,-5.6500688020992893,-5.7635892272672065,-5.91339408567377,-6.0672309288478212,-6.2210677720216605,-6.3749046151952822,-6.5287414583686854,-6.6825783015418816,-6.8364151447148718,-6.9902519878876346,-7.1440888310602011,-7.2979256742325571,-7.4517625174046938,-7.6055993605766172,-7.7594362037483222,-7.9132730469198256,-8.0671098900911051,-8.2209467332621777,-8.37478357643305,-8.5286204196037,-8.6824572627741379,-8.8362941059443614,0,0.008219454368925105,0.016592690752080374,0.02745108231582077,0.042845289988069246,0.0629753505651278,0.0878853317949832,0.11758246928127014,0.15205212596635931,0.19122485862120128,0.21974266899532205,0.28640571662695746
DP 411,297.60931331911792,0.0026905650252876442,-48.97990772717808,-47.902339599969608,-46.824771472759636,-45.7472033455482,-44.669635218335287,-43.592067091120896,-42.514498963905019,-41.4369308366877,-40.359362709468918,-39.281794582248665,-38.204226455026934,-37.12665832780371,-36.049090200579037,-34.971522073352894,-33.893953946125229,-32.816385818896151,-31.738817691665574,-30.661249564433561,-29.583681437200052,-28.506113309965063,-27.437673817714792,-26.451392903216572,-25.465111988716853,-24.47883107421568,-23.492550159713065,-22.50626924520893,-21.519988330703335,-20.53370741619624,-19.547426501687692,-18.561145587177659,-17.574864672666163,-16.58858375815316,-15.60230284363872,-14.616021929122757,-13.629741014605349,-12.64346010008645,-11.657179185566083,-10.670898271044239,-9.6846173565209117,-8.69833644199613,-7.7486369942775228,-6.945265142679232,-6.1418932910794579,-5.3385214394781917,-4.5351495878754475,-3.7317777362712179,-2.9284058846654992,-2.1250340330582964,-1.321662181449613,-0.51829032983944334,0.28508152177221391,1.0884533733853621,1.8918252249999883,2.6951970766161018,3.4985689282337038,4.3019407798527869,5.105312631473355,5.9086844830954028,6.7120563347189348,7.515428186343958,8.2418106403979721,8.7885487410438259,9.3352868416911949,9.8820249423400579,10.428763042990427,10.975501143642319,11.522239244295703,12.068977344950607,12.615715445607016,13.162453546264937,13.709191646924349,14.255929747585272,14.80266784824771,15.349405948911661,15.896144049577112,16.442882150244067,16.989620250912541,17.536358351582511,18.083096452253997,18.629834552926987,19.051450407950231,19.285379937780021,19.519309467611343,19.7532389974442,19.987168527278552,20.221098057114471,20.455027586951886,20.688957116790814,20.92288664663127,21.156816176473267,21.390745706316757,21.624675236161796,21.858604766008355,22.09253429585641,22.326463825705993,22.560393355557125,22.79432288540978,23.028252415263932,23.262181945119643,23.496111474976853,23.320748953205097,23.203817375249319,23.086885797295061,22.969954219342345,22.853022641391174,22.736091063441563,22.619159485493505,22.502227907546924,22.385296329601953,22.268364751658492,22.151433173716569,22.034501595776185,21.917570017837352,21.800638439900073,21.683706861964311,21.5667752840301,21.44984370609744,21.332912128166303,20.99226004766258,20.502457441015618,20.012654834370267,19.522852227726478,19.033049621084302,18.543247014443718,18.053444407804744,17.563641801167357,17.073839194531583,16.584036587897387,16.094233981264821,15.604431374633831,15.114628768004458,14.624826161376664,14.135023554750472,13.645220948125891,13.155418341502896,12.665615734881499,12.175813128261703,11.686010521643508,10.928140188177546,10.055380066313013,9.1826199444500585,8.3098598225886864,7.4370997007288633,6.5643395788706504,5.6915794570140026,4.8188193351589,3.9460592133054115,3.0732990914534684,2.2005389696031186,1.3277788477543342,0.45501872590713976,-0.41774139593850845,-1.2905015177825478,-2.1632616396250341,-3.0360217614659364,-3.9087818833052554,-4.7815420051430175,-5.6543021269791911,-6.8354737082885775,-8.093751798417669,-9.3520298885451023,-10.610307978670848,-11.868586068794938,-13.126864158917337,-14.38514224903809,-15.643420339157132,-16.901698429274528,-18.159976519390252,-19.418254609504292,-20.676532699616683,-21.93481078972734,-23.193088879836406,-24.451366969943717,-25.709645060049414,-26.967923150153421,-28.226201240255765,-29.484479330356407,-30.74275742045538,-32.347752070311984,-33.991274423726459,-35.634796777139243,-37.278319130550337,-38.921841483959717,-40.565363837367421,-42.208886190773384,-43.852408544177656,-45.495930897580244,-47.139453250981163,-48.78297560438029,-50.42649795777784,-52.070020311173607,-53.71354266456774,-55.357065017960068,-57.000587371350733,-58.644109724739749,-60.287632078127096,-61.931154431512624,-63.574676784896482,0,0.033602084848691684,0.094114146878499713,0.19500239057878024,0.34431866384246756,0.54294029152834244,0.79114959169362664,1.0887764452333988,1.4351621266593546,1.8289800990512148,2.1215046020937018,2.800296543192736
DP 412,53.804039423936445,0.0039239436928536929,-20.447699899344819,-20.243856560418063,-20.040013221491346,-19.836169882564658,-19.632326543637994,-19.428483204711352,-19.224639865784738,-19.020796526858131,-18.816953187931567,-18.613109849005042,-18.409266510078524,-18.205423171152042,-18.001579832225591,-17.797736493299166,-17.59389315437274,-17.390049815446375,-17.186206476520024,-16.982363137593698,-16.778519798667396,-16.574676459741131,-16.372305810637393,-16.183189509141226,-15.994073207645071,-15.8049569061489,-15.6158406046527,-15.426724303156503,-15.237608001660295,-15.048491700164053,-14.859375398667797,-14.670259097171547,-14.481142795675272,-14.29202649417898,-14.102910192682682,-13.913793891186375,-13.724677589690058,-13.535561288193703,-13.346444986697341,-13.157328685200975,-12.968212383704589,-12.7790960822082,-12.596034693261304,-12.437193240675976,-12.278351788090511,-12.11951033550492,-11.960668882919187,-11.80182743033332,-11.64298597774731,-11.484144525161172,-11.325303072574879,-11.166461619988461,-11.007620167401905,-10.848778714815221,-10.689937262228389,-10.53109580964143,-10.372254357054333,-10.213412904467098,-10.054571451879719,-9.8957299992922074,-9.7368885467045612,-9.578047094116787,-9.4325591476548958,-9.3182298028887214,-9.2039004581223924,-9.0895711133559249,-8.9752417685893029,-8.860912423822537,-8.7465830790556236,-8.6322537342885681,-8.5179243895213563,-8.4035950447540131,-8.2892656999865117,-8.1749363552188736,-8.060607010451081,-7.9462776656831426,-7.83194832091506,-7.71761897614683,-7.6032896313784555,-7.488960286609931,-7.3746309418412617,-7.2603015970724494,-7.1689956091286211,-7.112225200478818,-7.0554547918287831,-6.9986843831785066,-6.941913974527993,-6.8851435658772395,-6.8283731572262631,-6.7716027485750372,-6.71483233992358,-6.6580619312718827,-6.6012915226199569,-6.5445211139677815,-6.4877507053153813,-6.4309802966627441,-6.374209888009867,-6.3174394793567448,-6.2606690707033961,-6.2038986620498049,-6.1471282533959783,-6.0903578447419191,-6.0932319402528705,-6.1057357911456851,-6.1182396420382226,-6.1307434929304678,-6.1432473438224315,-6.1557511947141084,-6.1682550456054965,-6.1807588964966111,-6.19326274738743,-6.2057665982779708,-6.2182704491682186,-6.230774300058183,-6.2432781509478659,-6.255782001837261,-6.2682858527263665,-6.28078970361519,-6.2932935545037267,-6.3057974053919805,-6.3658213700600648,-6.4575261591994622,-6.5492309483384705,-6.6409357374771032,-6.7326405266153531,-6.8243453157532157,-6.9160501048906937,-7.0077548940277836,-7.0994596831644987,-7.1911644723008221,-7.2828692614367663,-7.3745740505723294,-7.4662788397075044,-7.5579836288422912,-7.6496884179766989,-7.7413932071107245,-7.8330979962443594,-7.9248027853776257,-8.0165075745104826,-8.1082123636429735,-8.26102271611919,-8.4400219922867521,-8.6190212684539365,-8.7980205446207371,-8.9770198207871577,-9.1560190969531785,-9.3350183731188245,-9.5140176492840887,-9.6930169254489584,-9.87201620161346,-10.051015477777559,-10.230014753941282,-10.40901403010462,-10.588013306267571,-10.767012582430134,-10.946011858592325,-11.125011134754111,-11.304010410915531,-11.483009687076571,-11.6620089632372,-11.915478406016538,-12.187566270332374,-12.459654134647687,-12.731741998962471,-13.003829863276749,-13.275917727590507,-13.548005591903731,-13.820093456216451,-14.092181320528638,-14.364269184840316,-14.636357049151471,-14.908444913462111,-15.180532777772209,-15.452620642081802,-15.72470850639087,-15.996796370699442,-16.268884235007462,-16.540972099314981,-16.813059963621974,-17.085147827928445,-17.444290326927806,-17.813106477399405,-18.181922627870414,-18.550738778340861,-18.919554928810751,-19.288371079280068,-19.657187229748821,-20.026003380216995,-20.394819530684618,-20.763635681151673,-21.132451831618155,-21.50126798208408,-21.870084132549426,-22.23890028301421,-22.607716433478437,-22.976532583942081,-23.345348734405182,-23.714164884867678,-24.082981035329645,-24.451797185790994,0,0.026344609816477592,0.050359733857240185,0.078769362350708791,0.11767689230912518,0.16777915316171457,0.22930349545732703,0.302369922722488,0.38706465201219725,0.48332043978572914,0.55211914516372163,0.71277679601925181
DP 413,66.019408276841375,0.0027699565266852124,-17.183713657304821,-16.969593215462154,-16.75547277361942,-16.541352331776562,-16.327231889933586,-16.113111448090493,-15.898991006247282,-15.684870564403949,-15.470750122560542,-15.256629680716967,-15.042509238873324,-14.828388797029524,-14.614268355185631,-14.400147913341634,-14.1860274714975,-13.971907029653273,-13.75778658780891,-13.543666145964437,-13.329545704119855,-13.115425262275158,-12.902852714501149,-12.704211359677785,-12.505570004854288,-12.30692865003066,-12.108287295206875,-11.90964594038296,-11.711004585558902,-11.512363230734691,-11.313721875910348,-11.11508052108587,-10.916439166261242,-10.717797811436471,-10.519156456611569,-10.320515101786516,-10.121873746961322,-9.9232323921359935,-9.724591037310514,-9.5259496824849013,-9.3273083276591464,-9.1286669728332424,-8.9363959363842351,-8.76960647451328,-8.6028170126421042,-8.4360275507707,-8.2692380888990886,-8.102448627027238,-7.9356591651551778,-7.7688697032828919,-7.6020802414103921,-7.4352907795376648,-7.2685013176647111,-7.1017118557915451,-6.9349223939181561,-6.7681329320445442,-6.6013434701707085,-6.4345540082966481,-6.267764546422371,-6.1009750845478736,-5.9341856226731551,-5.7673961607982136,-5.6146541497228117,-5.494689966446157,-5.374725783169267,-5.2547615998921513,-5.1347974166147976,-5.0148332333372236,-4.8948690500594161,-4.7749048667813723,-4.6549406835031029,-4.5349765002246061,-4.4150123169458713,-4.2950481336669117,-4.175083950387716,-4.0551197671082946,-3.9351555838286432,-3.8151914005487586,-3.6952272172686453,-3.5752630339882967,-3.4552988507077234,-3.3353346674269173,-3.2395990068009866,-3.180206702692808,-3.1208143985843453,-3.0614220944755868,-3.0020297903665374,-2.9426374862572007,-2.883245182147574,-2.8238528780376533,-2.764460573927447,-2.7050682698169486,-2.645675965706161,-2.5862836615950853,-2.5268913574837133,-2.4674990533720567,-2.408106749260106,-2.3487144451478676,-2.2893221410353375,-2.2299298369225173,-2.1705375328094072,-2.1111452286960066,-2.1151699172040028,-2.1286583912053154,-2.1421468652063056,-2.155635339206972,-2.1691238132073138,-2.1826122872073328,-2.1961007612070227,-2.2095892352063982,-2.223077709205445,-2.23656618320417,-2.2500546572025684,-2.2635431312006431,-2.2770316051983968,-2.2905200791958271,-2.3040085531929293,-2.3174970271897126,-2.3309855011861687,-2.3444739751822996,-2.4079676466049764,-2.5047989040794136,-2.6016301615534561,-2.6984614190271081,-2.7952926765003689,-2.8921239339732394,-2.9889551914457124,-3.0857864489177933,-3.1826177063894847,-3.2794489638607813,-3.3762802213316827,-3.4731114788021968,-3.5699427362723162,-3.6667739937420416,-3.7636052512113753,-3.860436508680317,-3.9572677661488682,-4.0540990236170229,-4.1509302810847846,-4.2477615385521554,-4.4088704137907291,-4.597527707450773,-4.7861850011104288,-4.9748422947696884,-5.1634995884285608,-5.35215688208704,-5.540814175745119,-5.7294714694028182,-5.9181287630601185,-6.1067860567170333,-6.2954433503735583,-6.484100644029688,-6.6727579376854207,-6.8614152313407688,-7.050072524995719,-7.2387298186502811,-7.4273871123044515,-7.6160444059582275,-7.8047016996116145,-7.9933589932646116,-8.2603726921295948,-8.54697641809625,-8.8335801440624167,-9.1201838700280877,-9.4067875959932685,-9.6933913219579786,-9.97999504792219,-10.266598773885903,-10.553202499849135,-10.839806225811888,-11.126409951774146,-11.413013677735918,-11.6996174036972,-11.986221129657999,-12.2728248556183,-12.559428581578118,-12.846032307537442,-13.132636033496288,-13.419239759454655,-13.705843485412524,-14.084027291682542,-14.472387624244009,-14.860747956804964,-15.249108289365392,-15.637468621925304,-16.025828954484684,-16.414189287043545,-16.80254961960188,-17.190909952159711,-17.579270284717015,-17.967630617273784,-18.355990949830051,-18.744351282385789,-19.132711614941009,-19.521071947495688,-19.909432280049867,-20.297792612603526,-20.68615294515665,-21.074513277709279,-21.462873610261351,0,0.01909475617312343,0.039294438787515727,0.066190125916512285,0.10461797714028118,0.15502145120726168,0.2174867666623366,0.29201309258788322,0.37853936476070721,0.47686893480873177,0.54872081781477411,0.71664889326725789
DP 414,79.542410860602644,0.0021961857493904774,-15.977224008942223,-15.746322992085016,-15.5154219752276,-15.284520958369985,-15.053619941512149,-14.822718924654108,-14.591817907795855,-14.360916890937398,-14.130015874078735,-13.899114857219853,-13.668213840360758,-13.437312823501463,-13.206411806641956,-12.975510789782245,-12.744609772922322,-12.513708756062183,-12.282807739201843,-12.051906722341291,-11.821005705480543,-11.590104688619562,-11.360873871201655,-11.146675006647435,-10.932476142092977,-10.7182772775383,-10.504078412983388,-10.289879548428237,-10.075680683872879,-9.8614818193172677,-9.6472829547614438,-9.4330840902053943,-9.21888522564911,-9.0046863610925989,-8.79048749653586,-8.5762886319788851,-8.3620897674216952,-8.14789090286426,-7.9336920383066145,-7.7194931737487238,-7.5052943091906146,-7.2910954446322789,-7.0837758891077982,-6.9039738948451461,-6.7241719005822045,-6.5443699063189751,-6.3645679120554561,-6.1847659177916476,-6.0049639235275665,-5.82516192926319,-5.6453599349985311,-5.4655579407335919,-5.2857559464683535,-5.1059539522028352,-4.9261519579370328,-4.7463499636709425,-4.5665479694045645,-4.3867459751379014,-4.2069439808709532,-4.02714198660372,-3.8473399923362011,-3.6675379980683966,-3.5028992734915212,-3.3736419892833496,-3.2443847050748751,-3.1151274208661115,-2.9858701366570517,-2.856612852447697,-2.7273555682380479,-2.5980982840281022,-2.4688409998178624,-2.3395837156073296,-2.2103264313965019,-2.0810691471853788,-1.95181186297396,-1.8225545787622472,-1.6932972945502387,-1.5640400103379355,-1.4347827261253383,-1.3055254419124456,-1.1762681576992577,-1.0470108734857764,-0.94391079221546148,-0.88004713347131847,-0.81618347472683794,-0.75231981598201891,-0.68845615723685993,-0.62459249849136322,-0.56072883974552923,-0.49686518099935512,-0.43300152225284405,-0.36913786350599187,-0.30527420475880362,-0.24141054601127618,-0.17754688726341034,-0.11368322851520654,-0.049819569766662151,0.014044088982218633,0.07790774773143827,0.14177140648099798,0.20563506523089442,0.26949872398113095,0.26445618372009522,0.24966628717723655,0.23487639063473986,0.22008649409260683,0.20529659755084087,0.19050670100943595,0.17571680446839863,0.16092690792772113,0.1461370113874112,0.13134711484746384,0.11655721830788107,0.10176732176866378,0.086977425229808156,0.072187528691318656,0.057397632153192706,0.042607735615431158,0.027817839078033358,0.013027942541001388,-0.055720595923252514,-0.16044241238781934,-0.26516422885196528,-0.36988604531569685,-0.47460786177900954,-0.57932967824190629,-0.68405149470438109,-0.788773311166439,-0.89349512762808136,-0.99821694408930384,-1.1029387605501051,-1.2076605770104922,-1.3123823934704619,-1.4171042099300097,-1.5218260263891428,-1.6265478428478541,-1.7312696593061527,-1.8359914757640303,-1.9407132922214876,-2.0454351086785296,-2.2194947964764782,-2.4232716511263952,-2.6270485057758948,-2.8308253604249813,-3.0346022150736545,-3.2383790697219026,-3.4421559243697391,-3.6459327790171643,-3.8497096336641685,-4.0534864883107646,-4.2572633429569358,-4.461040197602701,-4.6648170522480381,-4.8685939068929729,-5.0723707615374831,-5.2761476161815795,-5.4799244708252628,-5.68370132546852,-5.8874781801113727,-6.0912550347538046,-6.3795516238143453,-6.6889791450992337,-6.9984066663836249,-7.3078341876675248,-7.6172617089509291,-7.9266892302338468,-8.2361167515162723,-8.5455442727982014,-8.8549717940796313,-9.1643993153605869,-9.473826836641031,-9.7832543579209972,-10.092681879200452,-10.402109400479437,-10.711536921757906,-11.020964443035902,-11.3303919643134,-11.639819485590404,-11.949247006866917,-12.258674528142931,-12.666870965191364,-13.086042763527022,-13.505214561862177,-13.924386360196769,-14.34355815853089,-14.762729956864479,-15.181901755197542,-15.601073553530076,-16.020245351862105,-16.439417150193616,-16.858588948524606,-17.277760746855076,-17.696932545185032,-18.116104343514472,-18.53527614184339,-18.954447940171793,-19.37361973849967,-19.792791536827021,-20.211963335153897,-20.63113513348021,0,0.015855873408965337,0.035093162928945806,0.062822925529428725,0.10316666834989359,0.15643658960664081,0.22267824944113829,0.30185344632422,0.39384111272746247,0.49837352196535034,0.575412320997932,0.75521506389547444
DP 415,94.691291860877243,0.003475655898157317,-29.186275184421657,-28.718446558012609,-28.250617931603024,-27.782789305192971,-27.314960678782338,-26.847132052371183,-26.379303425959503,-25.911474799547282,-25.443646173134535,-24.975817546721281,-24.507988920307458,-24.040160293893113,-23.572331667478249,-23.104503041062863,-22.636674414646961,-22.168845788230492,-21.7010171618135,-21.233188535396003,-20.765359908977956,-20.297531282559383,-19.83309179243717,-19.399154849342118,-18.965217906246504,-18.531280963150337,-18.09734402005363,-17.663407076956339,-17.229470133858509,-16.795533190760096,-16.361596247661151,-15.927659304561631,-15.493722361461574,-15.059785418360939,-14.62584847525976,-14.191911532158024,-13.757974589055726,-13.324037645952854,-12.890100702849439,-12.456163759745472,-12.022226816640933,-11.588289873535857,-11.168314247704645,-10.804184550801896,-10.440054853898491,-10.075925156994467,-9.7117954600897924,-9.3476657631844819,-8.9835360662785355,-8.6194063693719531,-8.25527667246472,-7.8911469755568584,-7.527017278648354,-7.1628875817392093,-6.7987578848294277,-6.434628187919011,-6.07049849100795,-5.7063687940962486,-5.3422390971839171,-4.9781094002709425,-4.613979703357332,-4.24985000644308,-3.9164794596487105,-3.6548812322776909,-3.3932830049060012,-3.1316847775336645,-2.8700865501606727,-2.608488322787025,-2.3468900954127236,-2.0852918680377655,-1.8236936406621524,-1.5620954132858851,-1.3004971859089647,-1.0388989585313886,-0.77730073115315468,-0.51570250377426863,-0.25410427639472677,0.0074939509854716263,0.26909217836632371,0.53069040574783333,0.79228863312999365,1.0538868605128091,1.2624446406796059,1.3914404966426595,1.520436352606428,1.6494322085709177,1.778428064536123,1.9074239205020487,2.0364197764686898,2.16541563243605,2.2944114884041262,2.423407344372924,2.5524032003424364,2.6813990563126651,2.8103949122836207,2.9393907682552864,3.0683866242276743,3.1973824802007789,3.3263783361746007,3.45537419214914,3.5843700481244012,3.7133659041003741,3.701873758312598,3.6714774274838473,3.6410810966558551,3.6106847658286187,3.5802884350021431,3.5498921041764158,3.5194957733514549,3.489099442527241,3.4587031117037914,3.4283067808810954,3.3979104500591584,3.3675141192379816,3.3371177884175531,3.3067214575978845,3.2763251267789726,3.2459287959608187,3.2155324651434238,3.1851361343267843,3.0454482220325607,2.8328975336719862,2.6203468453122523,2.4077961569533546,2.1952454685953007,1.9826947802380812,1.7701440918817115,1.5575934035261811,1.3450427151714852,1.1324920268176339,0.91994133846463222,0.70739065011245994,0.49483996176113082,0.28228927341064836,0.069738585060998934,-0.14281210328780322,-0.35536279163577156,-0.56791347998289332,-0.7804641683291722,-0.99301485667461165,-1.3459247415335167,-1.7589904630417921,-2.1720561845492368,-2.5851219060558432,-2.9981876275616264,-3.4112533490665555,-3.8243190705706618,-4.23738479207394,-4.6504505135763781,-5.0635162350779863,-5.4765819565787552,-5.88964767807869,-6.3027133995777893,-6.7157791210760633,-7.1288448425734954,-7.5419105640700908,-7.9549762855658619,-8.3680420070607919,-8.7811077285548915,-9.1941734500481527,-9.7782743535638623,-10.405136073404654,-11.0319977932445,-11.658859513083373,-12.2857212329213,-12.912582952758262,-13.539444672594291,-14.16630639242933,-14.793168112263434,-15.420029832096581,-16.046891551928759,-16.673753271759995,-17.300614991590251,-17.927476711419583,-18.554338431247928,-19.181200151075352,-19.808061870901785,-20.434923590727273,-21.061785310551794,-21.688647030375389,-22.51531653919772,-23.364189011929483,-24.21306148466028,-25.061933957390043,-25.910806430118814,-26.759678902846584,-27.608551375573384,-28.457423848299115,-29.306296321023929,-30.155168793747702,-31.004041266470491,-31.852913739192296,-32.7017862119131,-33.5506586846329,-34.399531157351717,-35.248403630069511,-36.097276102786338,-36.946148575502114,-37.795021048216988,-38.643893520930789,0,0.026700941074669,0.062944475275377762,0.11785443772277236,0.19836049884111948,0.30495875311080756,0.43773076048495568,0.59658136884551571,0.7812202063079613,0.99104829491904467,1.1462706645499876,1.5080401636169929
DP 416,62.522283142373141,0.0010422611458460601,-6.1699163864151538,-6.0969632340811621,-6.0240100817471429,-5.9510569294130873,-5.878103777079005,-5.8051506247449005,-5.7321974724107658,-5.6592443200765992,-5.5862911677424014,-5.5133380154081753,-5.440384863073926,-5.3674317107396474,-5.2944785584053378,-5.221525406070997,-5.1485722537366323,-5.0756191014022374,-5.0026659490678114,-4.9297127967333569,-4.8567596443988785,-4.78380649206437,-4.71138055715622,-4.64369962892043,-4.5760187006846,-4.5083377724487317,-4.4406568442128238,-4.372975915976876,-4.305294987740889,-4.237614059504863,-4.1699331312688015,-4.1022522030326973,-4.0345712747965576,-3.9668903465603744,-3.899209418324157,-3.8315284900878992,-3.7638475618516023,-3.6961666336152703,-3.6284857053788953,-3.5608047771424811,-3.49312384890603,-3.42544292066954,-3.3599317543814853,-3.3030997384332457,-3.2462677224849332,-3.1894357065365533,-3.1326036905881036,-3.0757716746395825,-3.0189396586909942,-2.9621076427423363,-2.905275626793606,-2.8484436108448072,-2.7916115948959406,-2.7347795789470029,-2.677947562997995,-2.6211155470489187,-2.56428353109977,-2.5074515151505521,-2.4506194992012666,-2.3937874832519133,-2.3369554673024862,-2.2801234513529911,-2.2280757722750293,-2.187191696639716,-2.1463076210043277,-2.1054235453688679,-2.0645394697333352,-2.02365539409773,-1.9827713184620515,-1.9418872428263005,-1.9010031671904748,-1.8601190915545796,-1.8192350159186081,-1.7783509402825659,-1.7374668646464511,-1.6965827890102616,-1.655698713374,-1.6148146377376658,-1.5739305621012585,-1.5330464864647786,-1.492162410828225,-1.4512783351916005,-1.4186459944217467,-1.3983914509458069,-1.3781369074697702,-1.357882363993637,-1.3376278205174101,-1.3173732770410851,-1.2971187335646663,-1.2768641900881499,-1.2566096466115402,-1.2363551031348325,-1.2161005596580294,-1.1958460161811315,-1.175591472704137,-1.1553369292270483,-1.1350823857498618,-1.1148278422725804,-1.0945732987952026,-1.0743187553177291,-1.0540642118401613,-1.0338096683624964,-1.0351048510077454,-1.0396738796884106,-1.0442429083689677,-1.0488119370494171,-1.0533809657297564,-1.0579499944099884,-1.06251902309011,-1.0670880517701258,-1.0716570804500312,-1.0762261091298289,-1.080795137809518,-1.0853641664890981,-1.0899331951685705,-1.0945022238479343,-1.0990712525271884,-1.1036402812063348,-1.1082093098853738,-1.1127783385643029,-1.1343784178421952,-1.1673327991549687,-1.200287180467605,-1.23324156178011,-1.2661959430924792,-1.2991503244047142,-1.3321047057168132,-1.3650590870287795,-1.3980134683406109,-1.4309678496523102,-1.4639222309638691,-1.4968766122752979,-1.5298309935865921,-1.5627853748977496,-1.5957397562087745,-1.628694137519664,-1.6616485188304195,-1.6946029001410414,-1.7275572814515254,-1.7605116627618789,-1.815360439500258,-1.8795928242074906,-1.9438252089145869,-2.0080575936215483,-2.0722899783283784,-2.1365223630350694,-2.200754747741628,-2.2649871324480539,-2.3292195171543435,-2.3934519018605003,-2.4576842865665238,-2.5219166712724119,-2.5861490559781646,-2.650381440683784,-2.7146138253892662,-2.7788462100946174,-2.8430785947998323,-2.9073109795049157,-2.9715433642098641,-3.0357757489146762,-3.1266968625336289,-3.2242904737144813,-3.3218840848951672,-3.41947769607568,-3.5170713072560233,-3.6146649184361963,-3.7122585296161983,-3.8098521407960275,-3.90744575197569,-4.0050393631551815,-4.1026329743345018,-4.2002265855136516,-4.2978201966926273,-4.3954138078714395,-4.4930074190500795,-4.5906010302285463,-4.6881946414068425,-4.7857882525849691,-4.8833818637629234,-4.9809754749407107,-5.1097634396835057,-5.2420177713274452,-5.3742721029712035,-5.50652643461477,-5.6387807662581659,-5.7710350979013745,-5.9032894295443947,-6.0355437611872338,-6.167798092829897,-6.3000524244723755,-6.4323067561146647,-6.5645610877567755,-6.6968154193987006,-6.8290697510404517,-6.9613240826820011,-7.0935784143233862,-7.22583274596458,-7.3580870776055907,-7.4903414092464242,-7.6225957408870642,0,0.0071177427534250166,0.01434577395952324,0.023697396330044172,0.036945818297414106,0.054264897883753625,0.0756933611428861,0.10123808157065664,0.1308872399833455,0.16458185998961319,0.18910292445660815,0.24642368707756662
DP 417,142.48133385351008,0.0017838966655410111,-20.23922940192741,-19.859438153771741,-19.479646905615507,-19.09985565745874,-18.720064409301443,-18.340273161143607,-17.960481912985244,-17.580690664826321,-17.200899416666871,-16.821108168506903,-16.441316920346384,-16.061525672185326,-15.681734424023727,-15.301943175861595,-14.922151927698939,-14.542360679535708,-14.162569431371974,-13.782778183207688,-13.402986935042863,-13.023195686877516,-12.646192598486902,-12.294283211622236,-11.942373824756995,-11.590464437891221,-11.2385550510249,-10.886645664158033,-10.534736277290612,-10.182826890422639,-9.830917503554117,-9.4790081166850619,-9.1270987298154527,-8.77518934294529,-8.4232799560745839,-8.0713705692033315,-7.7194611823315311,-7.3675517954591792,-7.01564240858628,-6.66373302171283,-6.3118236348388423,-5.959914247964301,-5.6194685243878055,-5.3248779957938028,-5.0302874671992317,-4.7356969386040824,-4.4411064100083548,-4.1465158814120517,-3.8519253528151776,-3.557334824217723,-3.2627442956196933,-2.9681537670210894,-2.6735632384219081,-2.3789727098221491,-2.0843821812218164,-1.7897916526209079,-1.4952011240194207,-1.2006105954173585,-0.90602006681472191,-0.61142953821151058,-0.31683900960772449,-0.022248481003360757,0.24718629240659923,0.45792351110151081,0.66866072979701285,0.8793979484931,1.0901351671897734,1.3008723858870364,1.5116096045848824,1.7223468232833195,1.9330840419823414,2.1438212606819524,2.3545584793821441,2.5652956980829282,2.7760329167843,2.9867701354862581,3.1975073541887995,3.4082445728919328,3.6189817915956519,3.8297190102999563,4.0404562290048514,4.2511934477103326,4.4187533656272775,4.5215463120541228,4.6243392584815792,4.72713220490965,4.8299251513383252,4.9327180977676166,5.0355110441975208,5.1383039906280255,5.2410969370591518,5.34388988349089,5.4466828299232333,5.5494757763561955,5.65226872278976,5.7550616692239389,5.8578546156587246,5.9606475620941275,6.0634405085301459,6.1662334549667683,6.269026401404,6.371819347841849,6.3575952279335644,6.3313467467399942,6.3050982655470547,6.2788497843547351,6.2526013031630541,6.2263528219719975,6.2001043407815741,6.1738558595917672,6.1476073784025962,6.12135889721405,6.0951104160261433,6.0688619348388517,6.0426134536521978,6.0163649724661674,5.9901164912807632,5.9638680100959975,5.9376195289118492,5.9113710477283368,5.79711460595213,5.6241848039954814,5.4512550020395123,5.2783252000842085,5.1053953981295734,4.9324655961756054,4.7595357942223133,4.5866059922696873,4.4136761903177293,4.2407463883664409,4.0678165864158311,3.8948867844658861,3.7219569825166086,3.5490271805680069,3.3760973786200674,3.2031675766728038,3.0302377747262037,2.8573079727802764,2.6843781708350232,2.5114483688904392,2.2260600561978143,1.8924737203586093,1.5588873845200657,1.2253010486821856,0.89171471284496,0.55812837700841045,0.22454204117251822,-0.10904429466272297,-0.44263063049728835,-0.77621696633120385,-1.1098033021644487,-1.4433896379970348,-1.7769759738289554,-2.1105623096602231,-2.4441486454908148,-2.7777349813207577,-3.1113213171500314,-3.4449076529786411,-3.7784939888065923,-4.1120803246338831,-4.58217758618285,-5.0864041920698231,-5.5906307979560728,-6.0948574038415879,-6.5990840097263908,-7.10331061561046,-7.6075372214938088,-8.1117638273764179,-8.61599043325831,-9.1202170391394848,-9.6244436450199267,-10.12867025089964,-10.632896856778613,-11.137123462656886,-11.641350068534425,-12.145576674411233,-12.649803280287303,-13.154029886162668,-13.658256492037301,-14.16248309791122,-14.825776117789145,-15.506744854249709,-16.187713590709546,-16.868682327168596,-17.549651063626939,-18.230619800084519,-18.911588536541352,-19.592557272997428,-20.273526009452773,-20.954494745907354,-21.63546348236121,-22.316432218814317,-22.997400955266667,-23.6783696917183,-24.359338428169139,-25.040307164619268,-25.721275901068648,-26.402244637517263,-27.083213373965169,-27.76418211041225,0,0.01654264000257542,0.043256382228619862,0.086230806223280387,0.14963145912021561,0.23381021690629641,0.33885857035120659,0.46470021959622421,0.61107192452938353,0.77744395333346,0.90090447909617133,1.1879614198974824
DP 418,103.839240064232,0.0049071774300213783,-44.306147412932916,-43.563812530107555,-42.821477647281291,-42.079142764454161,-41.3368078816261,-40.594472998797158,-39.852138115967279,-39.109803233136475,-38.367468350304819,-37.62513346747221,-36.882798584638707,-36.140463701804308,-35.398128818969028,-34.655793936132788,-33.913459053295647,-33.171124170457624,-32.428789287618706,-31.686454404778832,-30.944119521938109,-30.201784639096424,-29.464835402015133,-28.776357485858792,-28.087879569701435,-27.399401653543222,-26.710923737384022,-26.022445821223858,-25.333967905062796,-24.645489988900735,-23.957012072737783,-23.268534156573864,-22.580056240409004,-21.891578324243188,-21.203100408076438,-20.51462249190876,-19.826144575740113,-19.137666659570531,-18.449188743400011,-17.760710827228547,-17.072232911056133,-16.383754994882779,-15.717459449944267,-15.139894438317606,-14.562329426689896,-13.984764415061141,-13.407199403431335,-12.829634391800468,-12.252069380168569,-11.6745043685356,-11.096939356901599,-10.519374345266543,-9.9418093336304381,-9.3642443219932741,-8.78667931035507,-8.2091142987158126,-7.6315492870754973,-7.0539842754341375,-6.47641926379173,-5.8988542521482756,-5.3212892405037753,-4.7437242288582127,-4.2150102377604748,-3.8002835004473887,-3.385556763133224,-2.9708300258179876,-2.5561032885016766,-2.1413765511842895,-1.7266498138658286,-1.3119230765462904,-0.8971963392256801,-0.48246960190399268,-0.067742864581234866,0.34698387274259712,0.76171061006751,1.1764373473934941,1.5911640847205513,2.0058908220486891,2.4206175593778969,2.8353442967081843,3.25007103403954,3.6647977713719748,3.99532510457851,4.199551341910353,4.4037775792433544,4.6080038165775159,4.8122300539128418,5.0164562912493267,5.2206825285869627,5.4249087659257622,5.6291350032657181,5.8333612406068411,6.0375874779491081,6.2418137152925413,6.4460399526371326,6.6502661899828865,6.8544924273298005,7.0587186646778637,7.2629449020270984,7.4671711393774842,7.6713973767290327,7.8756236140817286,7.8560910110532056,7.807432244311987,7.7587734775719692,7.7101147108331665,7.661455944095577,7.6127971773591971,7.5641384106240377,7.5154796438900791,7.466820877157339,7.4181621104258095,7.3695033436954915,7.3208445769663921,7.2721858102384935,7.2235270435118144,7.1748682767863494,7.1262095100621012,7.0775507433390485,7.0288919766172171,6.80693113159929,6.4694328375664938,6.1319345435350074,5.7944362495048534,5.4569379554760289,5.1194396614485305,4.7819413674223723,4.4444430733975384,4.1069447793740315,3.7694464853518537,3.4319481913310188,3.0944498973115047,2.7569516032933179,2.4194533092764665,2.0819550152609394,1.7444567212467472,1.4069584272338751,1.0694601332223423,0.7319618392121412,0.39446354520326826,-0.16548300698538412,-0.82076753070992281,-1.4760520544331464,-2.1313365781550471,-2.7866211018756446,-3.4419056255949005,-4.0971901493128415,-4.7524746730294929,-5.4077591967447969,-6.0630437204588121,-6.7183282441714836,-7.3736127678828494,-8.0288972915928873,-8.6841818153016259,-9.3394663390090269,-9.9947508627151258,-10.650035386419896,-11.305319910123337,-11.960604433825486,-12.615888957526296,-13.542135163862163,-14.536124992330521,-15.530114820797413,-16.524104649262807,-17.518094477726709,-18.51208430618912,-19.506074134650053,-20.500063963109472,-21.494053791567413,-22.48804362002387,-23.482033448478802,-24.476023276932295,-25.47001310538424,-26.464002933834735,-27.457992762283713,-28.451982590731216,-29.445972419177213,-30.43996224762175,-31.433952076064749,-32.427941904506291,-33.738392618351348,-35.08400897640162,-36.429625334450378,-37.775241692497531,-39.120858050543184,-40.466474408587253,-41.812090766629773,-43.157707124670765,-44.503323482710172,-45.848939840748059,-47.194556198784447,-48.540172556819236,-49.885788914852505,-51.231405272884167,-52.577021630914274,-53.922637988942917,-55.26825434697,-56.613870704995406,-57.959487063019459,-59.305103421041814,0,0.039190619210928028,0.095125388589548276,0.18149158707646496,0.30840613239240711,0.47660494677711163,0.68622572832558559,0.93711424827278211,1.2287886559889523,1.5602673221447003,1.8057660082543794,2.37756218083257
DP 419,74.5653163131004,0.0030791893860759919,-21.206295817786511,-20.913722979453603,-20.62115014112042,-20.328577302787007,-20.036004464453363,-19.743431626119488,-19.450858787785393,-19.158285949451059,-18.865713111116488,-18.573140272781703,-18.28056743444666,-17.987994596111406,-17.695421757775886,-17.402848919440157,-17.110276081104193,-16.817703242768,-16.525130404431561,-16.2325575660949,-15.939984727758013,-15.64741188942088,-15.356954972351936,-15.08554154670451,-14.814128121056822,-14.542714695408867,-14.271301269760672,-13.999887844112177,-13.728474418463462,-13.457060992814458,-13.185647567165198,-12.914234141515694,-12.642820715865916,-12.371407290215874,-12.099993864565581,-11.828580438915017,-11.557167013264198,-11.285753587613121,-11.01434016196178,-10.742926736310181,-10.471513310658317,-10.200099885006193,-9.93739875212512,-9.7095472020840763,-9.4816956520426885,-9.25384410200095,-9.0259925519588755,-8.7981410019164521,-8.57028945187369,-8.3424379018305732,-8.114586351787116,-7.8867348017433185,-7.65888325169917,-7.43103170165468,-7.2031801516098479,-6.9753286015646694,-6.7474770515191453,-6.5196255014732714,-6.2917739514270581,-6.0639224013805046,-5.8360708513336039,-5.6082193012863586,-5.3995740418102551,-5.2357440654754228,-5.0719140891402326,-4.90808411280469,-4.7442541364687845,-4.5804241601325311,-4.4165941837959171,-4.2527642074589433,-4.0889342311216188,-3.9251042547839368,-3.761274278445899,-3.5974443021075082,-3.4336143257687572,-3.2697843494296488,-3.1059543730901873,-2.9421243967503665,-2.7782944204101918,-2.6144644440696609,-2.4506344677287721,-2.2868044913875316,-2.1561058912147169,-2.0751051382101191,-1.9941043852051059,-1.9131036321996715,-1.832102879193817,-1.7511021261875452,-1.6701013731808541,-1.5891006201737423,-1.5080998671662154,-1.427099114158263,-1.3460983611498947,-1.2650976081411083,-1.1840968551319002,-1.1030961021222756,-1.0220953491122298,-0.94109459610176516,-0.86009384309088233,-0.77909309007957794,-0.69809233706785589,-0.617091584055715,-0.62319369936525149,-0.64183488445680037,-0.66047606954789229,-0.67911725463853145,-0.6977584397287111,-0.71639962481843822,-0.73504080990770493,-0.75368199499652277,-0.7723231800848801,-0.79096436517278412,-0.80960555026023073,-0.82824673534721971,-0.84688792043375838,-0.8655291055198393,-0.88417029060546237,-0.90281147569063069,-0.92145266077534349,-0.94009384585959976,-1.0270950596765742,-1.1596707029061355,-1.2922463461351612,-1.4248219893636609,-1.5573976325916274,-1.6899732758190644,-1.8225489190459658,-1.9551245622723381,-2.0877002054981797,-2.2202758487234893,-2.3528514919482619,-2.4854271351725092,-2.6180027783962236,-2.7505784216194011,-2.8831540648420519,-3.015729708064169,-3.1483053512857606,-3.2808809945068154,-3.4134566377273341,-3.5460322809473275,-3.7664679342565357,-4.0245590639878515,-4.282650193718637,-4.5407413234488958,-4.7988324531786253,-5.0569235829078192,-5.3150147126364864,-5.573105842364634,-5.8311969720922407,-6.0892881018193288,-6.3473792315458795,-6.6054703612719035,-6.8635614909973981,-7.1216526207223643,-7.379743750446802,-7.63783488017071,-7.89592600989409,-8.1540171396169345,-8.4121082693392619,-8.6701993990610458,-9.0353889788108113,-9.42735443646001,-9.8193198941085829,-10.211285351756507,-10.603250809403807,-10.99521626705045,-11.387181724696484,-11.779147182341852,-12.171112639986607,-12.563078097630727,-12.955043555274187,-13.347009012917033,-13.738974470559221,-14.130939928200783,-14.522905385841719,-14.914870843482,-15.30683630112166,-15.698801758760672,-16.090767216399055,-16.482732674036797,-16.999861489850375,-17.53089865997924,-18.061935830107473,-18.592973000234977,-19.124010170361831,-19.655047340488014,-20.186084510613508,-20.717121680738341,-21.248158850862502,-21.779196020985989,-22.310233191108807,-22.841270361230958,-23.372307531352419,-23.903344701473205,-24.434381871593338,-24.965419041712774,-25.496456211831557,-26.027493381949647,-26.558530552067104,-27.089567722183823,0,0.021822999461318621,0.047102623004026983,0.082671667730746731,0.13417672984037135,0.20206926390425745,0.28641872020061182,0.3871867415933119,0.50423751628819347,0.6372510288021338,0.73506136981436376,0.96346495003923593
DP 420,76.821139622221224,0.0016600417042987256,-11.726361703020629,-11.560977709646377,-11.395593716271984,-11.230209722897451,-11.064825729522774,-10.899441736147967,-10.734057742773018,-10.56867374939792,-10.403289756022691,-10.237905762647314,-10.0725217692718,-9.907137775896155,-9.74175378252035,-9.5763697891444277,-9.4109857957683474,-9.2456018023921285,-9.0802178090157764,-8.9148338156392786,-8.7494498222626511,-8.5840658288858833,-8.4198780537360634,-8.266456355701747,-8.1130346576672761,-7.9596129596326577,-7.8061912615978715,-7.6527695635629405,-7.4993478655278469,-7.3459261674926033,-7.1925044694572,-7.0390827714216408,-6.8856610733859309,-6.7322393753500682,-6.578817677314043,-6.4253959792778677,-6.271974281241536,-6.118552583205048,-5.965130885168402,-5.8117091871316049,-5.6582874890946515,-5.5048657910575427,-5.3563700037612909,-5.2275780922343094,-5.098786180707128,-4.9699942691797414,-4.8412023576521577,-4.7124104461243768,-4.5836185345963942,-4.4548266230682154,-4.3260347115398332,-4.1972428000112538,-4.0684508884824711,-3.9396589769534875,-3.8108670654243104,-3.6820751538949326,-3.5532832423653535,-3.4244913308355742,-3.2956994193055942,-3.1669075077754183,-3.0381155962450404,-2.9093236847144635,-2.7913905231539493,-2.6987947869888331,-2.6061990508235064,-2.5136033146579764,-2.4210075784922402,-2.3284118423262972,-2.2358161061601494,-2.1432203699937933,-2.0506246338272347,-1.9580288976604676,-1.8654331614934949,-1.7728374253263168,-1.6802416891589329,-1.5876459529913418,-1.495050216823546,-1.4024544806555421,-1.3098587444873337,-1.2172630083189178,-1.1246672721502977,-1.0320715359814714,-0.958207076175856,-0.91243997354708317,-0.86667287091807343,-0.82090576828882134,-0.77513866565933054,-0.7293715630295996,-0.6836044603996303,-0.63783735776942019,-0.59207025513897182,-0.54630315250828254,-0.50053604987735423,-0.45476894724618672,-0.40900184461477873,-0.36323474198313249,-0.31746763935124506,-0.27170053671911948,-0.2259334340867534,-0.1801663314541469,-0.13439922882130198,-0.088632126188217877,-0.0921577737091961,-0.10272155973335009,-0.11328534575724374,-0.12384913178088018,-0.1344129178042559,-0.14497670382737338,-0.1555404898502295,-0.16610427587283033,-0.17666806189516904,-0.18723184791724981,-0.19779563393907085,-0.20835941996063245,-0.21892320598193618,-0.22948699200298031,-0.24005077802376473,-0.25061456404429039,-0.26117835006455636,-0.27174213608456288,-0.32095114190506396,-0.39592423639817143,-0.47089733089097696,-0.54587042538348507,-0.62084351987569153,-0.69581661436760056,-0.77078970885920628,-0.84576280335051379,-0.92073589784152254,-0.99570899233222987,-1.0706820868226343,-1.1456551813127416,-1.2206282758025504,-1.2956013702920557,-1.3705744647812641,-1.4455475592701708,-1.5205206537587799,-1.5954937482470868,-1.6704668427350911,-1.7454399372227984,-1.8700777160191426,-2.0160010301471596,-2.161924344274881,-2.3078476584022991,-2.4537709725294263,-2.5996942866562471,-2.7456176007827722,-2.891540914909,-3.03746422903493,-3.1833875431605629,-3.3293108572858947,-3.4752341714109272,-3.6211574855356621,-3.7670807996601017,-3.9130041137842357,-4.0589274279080758,-4.204850742031617,-4.3507740561548607,-4.4966973702778068,-4.6426206844004509,-4.8490843113316373,-5.0706837317624629,-5.2922831521929332,-5.5138825726230571,-5.7354819930528143,-5.957081413482225,-6.17868083391127,-6.4002802543399593,-6.6218796747682971,-6.8434790951962823,-7.0650785156238989,-7.2866779360511691,-7.5082773564780689,-7.7298767769046259,-7.951476197330825,-8.1730756177566679,-8.3946750381821449,-8.616274458607279,-8.8378738790320472,-9.05947329945646,-9.3518225317749586,-9.6520335973480513,-9.95224466292078,-10.252455728493112,-10.552666794065086,-10.852877859636667,-11.15308892520788,-11.453299990778712,-11.753511056349181,-12.05372212191927,-12.353933187488979,-12.654144253058311,-12.954355318627279,-13.254566384195854,-13.554777449764051,-13.854988515331883,-14.155199580899335,-14.455410646466408,-14.755621712033131,-15.055832777599436,0,0.011862235583027181,0.025903206952099588,0.045889279233395253,0.074897704927608222,0.11316798190190788,0.16073577899710909,0.21757645471847659,0.28360831504115752,0.35864510419013096,0.4138837233615269,0.54284385778298017
DP 421,201.05151385873575,0.001012492628934364,-14.329947926576397,-14.037719129909394,-13.745490333241959,-13.453261536574088,-13.161032739905794,-12.868803943237065,-12.57657514656789,-12.284346349898298,-11.992117553228267,-11.699888756557817,-11.407659959886928,-11.1154311632156,-10.82320236654385,-10.530973569871671,-10.238744773199056,-9.94651597652601,-9.6542871798525329,-9.3620583831786242,-9.0698295865042944,-8.7776007898295134,-8.4876036908633044,-8.2176920822272432,-7.9477804735907442,-7.6778688649538092,-7.4079572563164371,-7.138045647678636,-6.8681340390403944,-6.598222430401723,-6.3283108217626109,-6.0583992131230726,-5.788487604483084,-5.5185759958426646,-5.2486643872018188,-4.9787527785605263,-4.7088411699188084,-4.4389295612766473,-4.1690179526340527,-3.8991063439910252,-3.6291947353475607,-3.3592831267036618,-3.0984827552069047,-2.8741277629097679,-2.6497727706121834,-2.4254177783141566,-2.2010627860156866,-1.9767077937167699,-1.7523528014174081,-1.5279978091176021,-1.3036428168173524,-1.0792878245166571,-0.854932832215515,-0.63057783991392813,-0.406222847611897,-0.1818678553094209,0.042487136993500381,0.266842129296867,0.49119712160067747,0.7155521139049319,0.93990710620963125,1.1642620985147751,1.3688531578873604,1.5273277510386751,1.6858023441904466,1.8442769373426702,2.0027515304953423,2.1612261236484693,2.3197007168020489,2.4781753099560797,2.6366499031105648,2.7951244962655029,2.9535990894208886,3.1120736825767312,3.2705482757330229,3.4290228688897688,3.5874974620469691,3.7459720552046205,3.9044466483627231,4.06292124152128,4.2213958346802887,4.37987042783975,4.5049182174491422,4.57982501183664,4.6547318062245946,4.729638600613014,4.804545395001897,4.8794521893912357,4.9543589837810407,5.02926577817131,5.1041725725620379,5.1790793669532293,5.2539861613448817,5.3288929557369986,5.4037997501295774,5.4787065445226126,5.5536133389161195,5.6285201333100821,5.7034269277045109,5.7783337220994,5.8532405164947479,5.9281473108905631,5.9072565441846212,5.8839186928992806,5.8605808416144063,5.837242990330008,5.8139051390460814,5.7905672877626166,5.7672294364796315,5.7438915851971091,5.7205537339150654,5.6972158826334871,5.67387803135238,5.6505401800717436,5.62720232879158,5.6038644775118875,5.5805266262326594,5.5571887749539091,5.5338509236756286,5.5105130723978162,5.4213044620919746,5.2881809747251962,5.1550574873589206,5.0219339999931352,4.8888105126278436,4.7556870252630432,4.62256353789874,4.4894400505349257,4.3563165631716068,4.2231930758087781,4.0900695884464469,3.956946101084609,3.82382261372326,3.6906991263624076,3.5575756390020481,3.4244521516421815,3.2913286642828039,3.1582051769239246,3.0250816895655395,2.8919582022076442,2.6759798314059333,2.4244911060435133,2.1730023806815764,1.9215136553201302,1.6700249299591627,1.4185362045986918,1.167047479238706,0.91555875387919683,0.66407002852018571,0.41258130316165204,0.16109257780361066,-0.090396147553946871,-0.34188487291101349,-0.593373598267602,-0.84486232362369373,-1.0963510489793071,-1.3478397743344284,-1.5993284996890613,-1.8508172250432153,-2.1023059503968784,-2.4531032265195765,-2.8287288136876159,-3.2043544008551352,-3.5799799880221279,-3.9556055751886032,-4.3312311623545519,-4.7068567495199769,-5.0824823366848753,-5.4581079238492531,-5.8337335110131159,-6.209359098176443,-6.5849846853392533,-6.9606102725015306,-7.3362358596633,-7.7118614468245292,-8.0874870339852514,-8.4631126211454415,-8.8387382083051111,-9.214363795464255,-9.5899893826228784,-10.080376675356586,-10.583516473985286,-11.086656272613471,-11.589796071241096,-12.092935869868203,-12.596075668494771,-13.099215467120807,-13.602355265746302,-14.105495064371276,-14.608634862995705,-15.111774661619602,-15.614914460242971,-16.118054258865811,-16.621194057488104,-17.124333856109864,-17.627473654731087,-18.130613453351813,-18.633753251971957,-19.136893050591588,-19.640032849210662,0,0.011002447713482745,0.030072595452587291,0.061442422843184429,0.10781039852740343,0.16944152698358186,0.24641560904328547,0.3386786728527425,0.44603047555380632,0.56806802363681319,0.65869327909506059,0.86915657238357535
DP 422,200.6276845270271,0.0019336423281269709,-27.331113462582938,-26.773998264220243,-26.216883065856681,-25.659767867492338,-25.10265266912716,-24.545537470761158,-23.988422272394356,-23.431307074026716,-22.874191875658237,-22.317076677288966,-21.759961478918846,-21.202846280547913,-20.645731082176152,-20.088615883803566,-19.531500685430178,-18.974385487055958,-18.4172702886809,-17.860155090305039,-17.303039891928353,-16.74592469355083,-16.193062668642273,-15.678479606989272,-15.163896545335437,-14.649313483680775,-14.134730422025276,-13.62014736036895,-13.105564298711785,-12.590981237053789,-12.076398175394971,-11.56181511373533,-11.047232052074856,-10.532648990413545,-10.018065928751405,-9.5034828670884366,-8.9888998054246336,-8.4743167437600011,-7.9597336820945426,-7.4451506204282563,-6.9305675587611315,-6.4159844970931879,-5.9187660092132584,-5.4910066371618376,-5.0632472651095659,-4.6354878930564487,-4.207728521002486,-3.77996914894767,-3.3522097768920069,-2.9244504048354973,-2.4966910327781378,-2.0689316607199322,-1.6411722886608753,-1.2134129166009675,-0.78565354454021452,-0.35789417247861277,0.069865199583838189,0.49762457164713786,0.92538394371128418,1.3531433157762776,1.7809026878421181,2.2086620599088076,2.5987503960454461,2.9009384614254174,3.203126526806257,3.5053145921879558,3.807502657570518,4.1096907229539417,4.4118787883382309,4.71406685372338,5.0162549191093921,5.3184429844962748,5.6206310498840057,5.9228191152726115,6.2250071806620753,6.5271952460524,6.8293833114435873,7.131571376835641,7.4337594422285544,7.73594750762234,8.0381355730169837,8.34032363841248,8.5787893805526423,8.7216701320103969,8.8645508834690467,9.0074316349285759,9.1503123863889915,9.2931931378502775,9.43607388931245,9.5789546407755051,9.72183539223944,9.86471614370426,10.007596895169963,10.150477646636539,10.293358398103994,10.436239149572337,10.57911990104156,10.722000652511658,10.864881403982654,11.007762155454518,11.150642906927262,11.2935236584009,11.253876185946375,11.209440692563154,11.165005199180836,11.120569705799413,11.076134212418889,11.031698719039266,10.987263225660538,10.942827732282707,10.898392238905769,10.853956745529738,10.809521252154594,10.765085758780355,10.720650265407007,10.676214772034569,10.631779278663016,10.587343785292367,10.542908291922608,10.49847279855376,10.328425076099615,10.074633888729853,9.8208427013610269,9.567051513993146,9.3132603266262031,9.059469139260198,8.8056779518951451,8.5518867645310248,8.2980955771678442,8.0443043898055961,7.79051320244431,7.5367220150839582,7.2829308277245275,7.0291396403660675,6.7753484530085268,6.5215572656519321,6.2677660782962734,6.01397489094157,5.7601837035877956,5.5063925162349676,5.0945770944696305,4.6150348669937085,4.135492639518711,3.6559504120446462,3.1764081845715,2.696865957099297,2.2173237296280179,1.7377815021576521,1.2582392746882309,0.77869704721972333,0.29915481975215419,-0.1803874077144918,-0.65992963518020165,-1.1394718626450009,-1.6190140901088519,-2.0985563175717878,-2.5780985450337912,-3.0576407724948593,-3.53718299995501,-4.0167252274142307,-4.6856971717773037,-5.4020287835214678,-6.1183603952646388,-6.8346920070068045,-7.5510236187479842,-8.2673552304881532,-8.9836868422273479,-9.7000184539655088,-10.416350065702696,-11.132681677438892,-11.849013289174056,-12.565344900908249,-13.281676512641422,-13.998008124373648,-14.714339736104817,-15.430671347835009,-16.147002959564208,-16.863334571292409,-17.579666183019594,-18.295997794745809,-19.231254667006816,-20.190838867461061,-21.150423067914261,-22.110007268366441,-23.06959146881761,-24.029175669267747,-24.988759869716855,-25.948344070164943,-26.907928270612029,-27.867512471058106,-28.827096671503142,-29.786680871947159,-30.746265072390184,-31.705849272832204,-32.66543347327314,-33.62501767371311,-34.584601874152064,-35.544186074589945,-36.503770275026888,-37.463354475462722,0,0.020993604105496232,0.057370186693804615,0.11720272634958097,0.20564088000715178,0.32318999011187494,0.47000219327932791,0.64597448207092367,0.8507250209115752,1.0834853241551203,1.2563330338238614,1.6577474459026889
DP 423,278.17210724179097,0.0032764263462645841,-57.0092852760093,-55.770692758530082,-54.532100241049122,-53.293507723566485,-52.054915206082107,-50.816322688595939,-49.57773017110808,-48.339137653618472,-47.100545136127167,-45.861952618634106,-44.623360101139312,-43.3847675836428,-42.146175066144544,-40.907582548644577,-39.668990031142854,-38.430397513639392,-37.191804996134209,-35.953212478627314,-34.714619961118693,-33.476027443608324,-32.247692647514093,-31.111678313783102,-29.975663980050332,-28.839649646315852,-27.703635312579628,-26.567620978841642,-25.431606645101954,-24.295592311360487,-23.159577977617317,-22.023563643872404,-20.887549310125728,-19.751534976377332,-18.615520642627196,-17.479506308875315,-16.343491975121708,-15.207477641366349,-14.071463307609251,-12.935448973850416,-11.799434640089828,-10.663420306327531,-9.56867786193782,-8.639024925610677,-7.7093719892817685,-6.7797190529511155,-5.8500661166187173,-4.9204131802845632,-3.9907602439486567,-3.06110730761099,-2.1314543712715848,-1.2018014349304209,-0.27214849858750262,0.65750443775717349,1.587157374103598,2.5168103104517741,3.4464632468017036,4.3761161831533881,5.305769119506822,6.2354220558620019,7.1650749922189281,8.09472792857762,8.9369439514442757,9.5751377545786145,10.213331557714724,10.851525360852627,11.489719163992296,12.127912967133762,12.766106770276988,13.40430057342199,14.042494376568795,14.680688179717363,15.31888198286771,15.957075786019846,16.595269589173757,17.233463392329448,17.871657195486911,18.509850998646158,19.148044801807192,19.786238604970002,20.4244324081346,21.062626211300962,21.557454036767247,21.837229507853504,22.117004978941548,22.396780450031404,22.676555921123068,22.956331392216519,23.236106863311772,23.515882334408836,23.79565780550767,24.075433276608308,24.355208747710773,24.634984218815021,24.914759689921091,25.194535161028945,25.474310632138575,25.754086103250039,26.033861574363307,26.313637045478362,26.593412516595219,26.87318798771387,26.69670241811232,26.570152327921161,26.44360223773182,26.317052147544324,26.190502057358614,26.063951967174741,25.937401876992702,25.810851786812467,25.684301696634062,25.557751606457479,25.431201516282734,25.30465142610981,25.178101335938702,25.05155124576941,24.925001155601965,24.798451065436311,24.671900975272493,24.5453508851105,24.156673323747533,23.593239985436753,23.029806647127863,22.466373308820884,21.902939970515781,21.339506632212565,20.776073293911256,20.212639955611827,19.649206617314302,19.085773279018664,18.522339940724937,17.958906602433082,17.395473264143135,16.8320399258551,16.268606587568904,15.705173249284643,15.141739911002251,14.578306572721766,14.014873234443183,13.451439896166493,12.570265081079995,11.552911056860808,10.53555703264349,9.5182030084280314,8.5008489842144268,7.4834949600027363,6.4661409357928887,5.448786911584877,4.4314328873787705,3.4140788631745003,2.3967248389721179,1.3793708147715884,0.36201679057294467,-0.65533723362386842,-1.6726912578187749,-2.6900452820118423,-3.70739930620303,-4.7247533303923444,-5.7421073545798089,-6.7594613787653968,-8.1460509875276035,-9.6249538550362281,-11.103856722542876,-12.582759590047518,-14.061662457550195,-15.540565325050887,-17.019468192549578,-18.498371060046285,-19.97727392754102,-21.456176795033809,-22.935079662524537,-24.413982530013335,-25.892885397500066,-27.371788264984911,-28.850691132467691,-30.329593999948525,-31.808496867427383,-33.287399734904234,-34.766302602379135,-36.245205469852017,-38.142057623694548,-40.085352976612313,-42.028648329528089,-43.971943682441733,-45.91523903535348,-47.858534388263116,-49.801829741170771,-51.745125094076329,-53.688420446980011,-55.631715799881583,-57.575011152781165,-59.518306505678787,-61.461601858574305,-63.404897211467805,-65.348192564359337,-67.291487917248872,-69.2347832701363,-71.17807862302169,-73.1213739759052,-75.064669328786579,0,0.04011253147125915,0.11201388294291389,0.23167813957617855,0.40875022330959271,0.64426664665628264,0.93855852625545733,1.2914234467671657,1.7020823123611906,2.1689663034754831,2.5157558254795949,3.3205565760990954
DP 424,244.84673957319723,0.0056321546126130821,-90.214583320198628,-88.301238629748781,-86.387893939296248,-84.474549248840916,-82.561204558382812,-80.647859867921966,-78.734515177458277,-76.821170486991889,-74.907825796522715,-72.994481106050856,-71.0811364155762,-69.167791725098709,-67.254447034618508,-65.341102344135521,-63.427757653649763,-61.51441296316127,-59.601068272670034,-57.687723582175991,-55.774378891679177,-53.861034201179613,-51.962951306790536,-50.202226020028391,-48.441500733263474,-46.680775446495758,-44.92005015972525,-43.159324872951991,-41.398599586175941,-39.637874299397076,-37.877149012615462,-36.116423725831083,-34.355698439043927,-32.594973152253935,-30.834247865461212,-29.073522578665692,-27.312797291867383,-25.552072005066304,-23.791346718262449,-22.030621431455806,-20.269896144646388,-18.509170857834185,-16.810268366309781,-15.358659977776318,-13.907051589240037,-12.455443200700943,-11.003834812159047,-9.55222642361432,-8.1006180350667858,-6.6490096465164328,-5.1974012579632731,-3.7457928694072939,-2.2941844808484988,-0.842576092286878,0.6090322962775474,2.0606406848447909,3.5122490734148473,4.9638574619877245,6.41546585056341,7.8670742391418971,9.3186826277232058,10.77029101630734,12.089489398006158,13.099726925065573,14.109964452127855,15.12020197919299,16.130439506260977,17.140677033331844,18.150914560405567,19.161152087482108,20.171389614561566,21.181627141643876,22.191864668729025,23.202102195817016,24.212339722907902,25.222577250001621,26.232814777098216,27.243052304197676,28.253289831299991,29.263527358405181,30.273764885513213,31.284002412624083,32.073963274143786,32.533503931997849,32.9930445898548,33.452585247714694,33.912125905577433,34.3716665634431,34.831207221311679,35.290747879183179,35.750288537057536,36.209829194934827,36.669369852815,37.128910510698105,37.588451168584058,38.047991826472959,38.507532484364745,38.967073142259437,39.426613800157028,39.886154458057518,40.345695115960943,40.805235773867217,40.596070442342807,40.420494977514345,40.244919512688853,40.069344047866338,39.8937685830467,39.71819311823004,39.542617653416336,39.367042188605559,39.191466723797717,39.015891258992838,38.840315794190914,38.6647403293919,38.489164864595857,38.313589399802765,38.138013935012609,37.962438470225372,37.786863005441091,37.611287540659823,37.018357146805521,36.147183558680339,35.276009970558228,34.404836382439122,33.533662794323106,32.662489206210132,31.791315618100271,30.920142029993478,30.048968441889695,29.177794853789024,28.30662126569144,27.435447677596905,26.564274089505439,25.693100501417074,24.821926913331669,23.95075332524944,23.079579737170203,22.208406149094092,21.337232561021025,20.466058972951036,19.079818080512336,17.472827102616527,15.865836124723732,14.258845146833984,12.651854168947203,11.044863191063516,9.4378722131828479,7.8308812353051334,6.223890257430515,4.6168992795588721,3.0099083016902872,1.4029173238247024,-0.204073654037827,-1.8110646318973864,-3.4180556097538561,-5.0250465876073482,-6.6320375654577939,-8.2390285433052046,-9.8460195211496142,-11.453010498990986,-13.66771386355733,-16.034352505064778,-18.400991146568977,-20.767629788069968,-23.134268429567729,-25.500907071062262,-27.867545712553603,-30.234184354041609,-32.600822995526457,-34.967461637008107,-37.334100278486439,-39.700738919961623,-42.067377561433467,-44.434016202902271,-46.80065484436772,-49.167293485829944,-51.533932127288921,-53.900570768744743,-56.26720941019726,-58.633848051646545,-61.695479236143747,-64.834339113415979,-67.9731989906849,-71.1120588679505,-74.250918745212886,-77.389778622471923,-80.528638499727649,-83.66749837698,-86.806358254229309,-89.945218131475158,-93.0840780087178,-96.222937885957165,-99.3617977631932,-102.5006576404259,-105.63951751765541,-108.77837739488157,-111.91723727210446,-115.05609714932393,-118.19495702654031,-121.33381690375322,0,0.066091002957302275,0.18330167021279761,0.37761654125282734,0.6650407219480865,1.0472430058941797,1.5247466926438691,2.0972216209756804,2.7634104688101084,3.5207832606921752,4.083303805360627,5.3890693671059386
DP 425,289.07641597231259,0.0013070130274111089,-23.331466845779378,-22.82092637909334,-22.3103859124066,-21.79984544571915,-21.289304979031005,-20.778764512342146,-20.268224045652595,-19.757683578962322,-19.24714311227136,-18.73660264557968,-18.226062178887311,-17.71552171219421,-17.204981245500434,-16.694440778805944,-16.183900312110751,-15.673359845414851,-15.162819378718238,-14.652278912020922,-14.141738445322929,-13.631197978624195,-13.124939557100703,-12.657219946917259,-12.189500336733108,-11.721780726548239,-11.254061116362672,-10.786341506176395,-10.318621895989411,-9.8509022858017161,-9.38318267561333,-8.9154630654242144,-8.4477434552344057,-7.9800238450438812,-7.512304234852655,-7.04458462466072,-6.57686501446808,-6.1091454042747291,-5.6414257940806714,-5.1737061838859058,-4.7059865736904332,-4.2382669634942562,-3.7877376121650728,-3.4059701087415744,-3.0242026053173618,-2.6424351018924388,-2.2606675984668052,-1.8789000950404602,-1.4971325916133997,-1.1153650881856287,-0.733597584757147,-0.3518300813279534,0.029937422101953517,0.41170492553257521,0.79347242896390591,1.1752399323959501,1.5570074358287049,1.9387749392621716,2.3205424426963512,2.7023099461312419,3.08407744956684,3.4658449530031552,3.8113282849600205,4.0721474069083925,4.3329665288574963,4.5937856508073152,4.8546047727578587,5.1154238947091271,5.376243016661113,5.6370621386138273,5.8978812605672637,6.1587003825214186,6.4195195044762983,6.6803386264319009,6.9411577483882372,7.2019768703452867,7.4627959923030529,7.7236151142615563,7.9844342362207694,8.2452533581807135,8.50607248014138,8.7668916021027634,8.9685108820678856,9.0813290001084219,9.194147118149683,9.3069652361916724,9.4197833542343972,9.5326014722778574,9.6454195903220459,9.7582377083669609,9.87105582641261,9.9838739444589777,10.096692062506095,10.209510180553933,10.322328298602503,10.435146416651802,10.547964534701828,10.660782652752593,10.773600770804089,10.886418888856307,10.99923700690927,11.112055124962945,11.033534422355677,10.979562202397876,10.925589982440814,10.871617762484489,10.817645542528915,10.763673322574066,10.709701102619968,10.6557288826666,10.60175666271398,10.547784442762094,10.493812222810961,10.439840002860556,10.385867782910887,10.331895562961966,10.277923343013782,10.223951123066332,10.169978903119631,10.116006683173675,9.9551299467988486,9.72298184866191,9.4908337505257379,9.2586856523903318,9.0265375542557,8.7943894561218237,8.5622413579887251,8.330093259856385,8.0979451617248213,7.8657970635940178,7.6336489654639914,7.4015008673347271,7.1693527692062284,6.9372046710784971,6.70505657295153,6.4729084748253456,6.2407603766999067,6.0086122785752512,5.77646418045136,5.5443160823282431,5.1834089202412228,4.76731756352115,4.3512262068018277,3.9351348500832675,3.5190434933654511,3.1029521366484123,2.6868607799321231,2.2707694232165743,1.8546780665018032,1.4385867097877716,1.0224953530745062,0.60640399636199138,0.1903126396502422,-0.22577871706076519,-0.64187007377099992,-1.05796143048049,-1.4740527871892168,-1.8901441438971864,-2.3062355006044046,-2.7223268573108643,-3.287221336961764,-3.8893183554914552,-4.4914153740203435,-5.09351239254843,-5.6956094110757123,-6.2977064296021892,-6.8998034481278712,-7.5019004666527307,-8.103997485176798,-8.7060945037000721,-9.3081915222225113,-9.9102885407441832,-10.512385559265022,-11.11448257778507,-11.71657959630431,-12.318676614822747,-12.92077363334038,-13.522870651857216,-14.124967670373248,-14.727064688888463,-15.496962957268591,-16.285507571286104,-17.07405218530279,-17.862596799318677,-18.651141413333729,-19.43968602734795,-20.228230641361368,-21.01677525537395,-21.805319869385773,-22.593864483396743,-23.382409097406885,-24.170953711416221,-24.959498325424743,-25.748042939432462,-26.536587553439329,-27.325132167445382,-28.113676781450682,-28.902221395455058,-29.69076600945872,-30.479310623461458,0,0.016187346745561992,0.045282083287840856,0.093754004912431882,0.16548759343260638,0.26090367581943719,0.38013727298166478,0.52310653631012594,0.68949532997148011,0.87866713033686483,1.0191809284181146,1.3452532316943502
DP 426,60.629980390418012,0.005055496856122668,-29.148361764243727,-28.814463878662217,-28.480565993080635,-28.146668107498932,-27.812770221917152,-27.478872336335243,-27.144974450753253,-26.811076565171138,-26.477178679588949,-26.143280794006646,-25.809382908424219,-25.475485022841713,-25.141587137259119,-24.807689251676418,-24.473791366093607,-24.1398934805107,-23.805995594927694,-23.472097709344581,-23.138199823761376,-22.804301938178067,-22.472817164073348,-22.163050621374435,-21.853284078675379,-21.543517535976164,-21.233750993276793,-20.92398445057729,-20.614217907877613,-20.304451365177787,-19.994684822477833,-19.6849182797777,-19.375151737077427,-19.065385194377015,-18.755618651676446,-18.445852108975725,-18.136085566274847,-17.826319023573834,-17.516552480872654,-17.206785938171326,-16.897019395469862,-16.587252852768234,-16.28741405922937,-16.027286731541114,-15.767159403852576,-15.507032076163735,-15.246904748474579,-14.986777420785137,-14.726650093095383,-14.466522765405319,-14.206395437714965,-13.946268110024304,-13.686140782333354,-13.426013454642092,-13.165886126950531,-12.905758799258647,-12.645631471566494,-12.385504143874011,-12.125376816181237,-11.865249488488164,-11.605122160794778,-11.344994833101104,-11.106761521493304,-10.919614937244519,-10.7324683529954,-10.545321768745985,-10.358175184496242,-10.171028600246183,-9.9838820159958086,-9.7967354317451125,-9.6095888474941056,-9.4224422632427771,-9.235295678991136,-9.0481490947391716,-8.8610025104868946,-8.6738559262342978,-8.48670934198139,-8.2995627577281521,-8.11241617347461,-7.925269589220739,-7.7381230049665595,-7.5509764207120593,-7.4015864856542608,-7.3088324166051724,-7.2160783475556576,-7.1233242785057058,-7.0305702094553357,-6.9378161404045278,-6.8450620713532953,-6.7523080023016231,-6.6595539332495326,-6.5667998641970051,-6.4740457951440549,-6.3812917260906774,-6.2885376570368621,-6.1957835879826275,-6.1030295189279533,-6.0102754498728546,-5.9175213808173242,-5.8247673117613656,-5.7320132427049746,-5.6392591736481581,-5.6449667001304249,-5.6658007392641911,-5.6866347783974636,-5.707468817530251,-5.7283028566625394,-5.7491368957943374,-5.769970934925639,-5.7908049740564591,-5.8116390131867846,-5.8324730523166171,-5.853307091445962,-5.8741411305748041,-5.8949751697031694,-5.915809208831039,-5.936643247958413,-5.9574772870852959,-5.9783113262116911,-5.999145365337589,-6.097910201333721,-6.2486301296092179,-6.3993500578840807,-6.55006998615834,-6.7007899144319705,-6.8515098427049947,-7.0022297709773884,-7.15294969924917,-7.3036696275203408,-7.454389555790887,-7.605109484060808,-7.75582941233012,-7.9065493405988159,-8.0572692688668859,-8.20798919713434,-8.35870912540118,-8.5094290536674073,-8.6601489819330126,-8.8108689101979927,-8.9615888384623581,-9.2124991408072621,-9.5063495277831613,-9.8001999147584318,-10.094050301733095,-10.387900688707147,-10.681751075680559,-10.975601462653378,-11.269451849625566,-11.563302236597131,-11.857152623568101,-12.151003010538425,-12.444853397508162,-12.738703784477268,-13.032554171445751,-13.326404558413614,-13.620254945380875,-13.914105332347507,-14.207955719313535,-14.501806106278925,-14.795656493243715,-15.211628834376148,-15.658133106948993,-16.104637379521041,-16.551141652092305,-16.997645924662777,-17.444150197232442,-17.890654469801341,-18.337158742369436,-18.783663014936717,-19.230167287503253,-19.676671560068957,-20.123175832633873,-20.569680105198007,-21.016184377761352,-21.46268865032388,-21.90919292288563,-22.355697195446595,-22.802201468006771,-23.248705740566141,-23.695210013124733,-24.284461086418137,-24.889574414535339,-25.494687742651688,-26.09980107076716,-26.704914398881787,-27.31002772699556,-27.915141055108496,-28.520254383220568,-29.125367711331805,-29.730481039442175,-30.335594367551682,-30.940707695660358,-31.545821023768159,-32.150934351875151,-32.756047679981236,-33.361161008086469,-33.966274336190892,-34.571387664294456,-35.176500992397123,-35.781614320498953,0,0.034369312362325224,0.06848279324660439,0.11186509669184773,0.17298024258863232,0.25268922066163119,0.3511995479861551,0.46856644703634659,0.60476473340620307,0.7595490240242444,0.87187988557584783,1.1344718886566239
DP 427,208.36583884577396,0.0028682612857864032,-41.509974136093447,-40.657192363038114,-39.804410589981536,-38.951628816923716,-38.0988470438646,-37.246065270804266,-36.393283497742679,-35.5405017246798,-34.687719951615676,-33.83493817855031,-32.982156405483686,-32.1293746324158,-31.276592859346632,-30.423811086276231,-29.571029313204583,-28.718247540131639,-27.865465767057472,-27.012683993982019,-26.15990222090532,-25.307120447827387,-24.460894332734465,-23.673669759185884,-22.886445185636067,-22.099220612084991,-21.311996038532605,-20.524771464978976,-19.73754689142406,-18.95032231786789,-18.163097744310466,-17.375873170751749,-16.588648597191774,-15.801424023630528,-15.014199450068025,-14.226974876504242,-13.439750302939196,-12.652525729372881,-11.865301155805296,-11.078076582236456,-10.290852008666333,-9.5036274350949448,-8.743135982140819,-8.08957827510401,-7.4360205680659028,-6.78246286102651,-6.1289051539858193,-5.475347446943843,-4.821789739900562,-4.1682320328559914,-3.5146743258101347,-2.8611166187629826,-2.2075589117145351,-1.5540012046647909,-0.90044349761375653,-0.24688579056142917,0.40667191649219286,1.0602296235471076,1.7137873306033133,2.3673450376608107,3.0209027447195993,3.6744604517796828,4.2701422726431995,4.73077853552404,5.191414798406206,5.65205106128968,6.1126873241744679,6.573323587060572,7.0339598499479905,7.4945961128367271,7.9552323757267711,8.4158686386181358,8.87650490151081,9.3371411644048052,9.7977774273001135,10.258413690196733,10.719049953094668,11.179686215993923,11.64032247889449,12.10095874179637,12.561595004699567,13.022231267604079,13.385224714858611,13.601751631275826,13.818278547694392,14.034805464114298,14.25133238053553,14.467859296958121,14.684386213382041,14.900913129807311,15.117440046233925,15.333966962661867,15.550493879091158,15.767020795521788,15.983547711953763,16.200074628387075,16.416601544821727,16.633128461257726,16.849655377695065,17.06618229413375,17.282709210573771,17.499236127015124,17.433411895543561,17.363776278698833,17.29414066185543,17.2245050450134,17.154869428172752,17.085233811333467,17.015598194495539,16.945962577658975,16.876326960823778,16.806691343989939,16.737055727157479,16.667420110326379,16.597784493496651,16.528148876668258,16.458513259841251,16.388877643015611,16.319242026191329,16.249606409368404,15.988674015103642,15.600207422243473,15.211740829384754,14.823274236527428,14.434807643671547,14.046341050817089,13.657874457964049,13.269407865112447,12.880941272262278,12.492474679413528,12.104008086566219,11.715541493720336,11.327074900875866,10.938608308032855,10.550141715191243,10.16167512235107,9.7732085295123152,9.384741936675006,8.9962753438391125,8.6078087510046579,7.9793864865432491,7.24812283694967,6.5168591873574995,5.785595537766743,5.0543318881773809,4.3230682385894523,3.5918045890029231,2.860540939417783,2.1292772898340759,1.3980136402517569,0.66674999067086527,-0.0645136589086279,-0.79577730848669892,-1.5270409580633859,-2.2583046076386344,-2.9895682572124973,-3.720831906784936,-4.4520955563559621,-5.1833592059255915,-5.914622855493807,-6.9328425859200529,-8.02280472701207,-9.1127668681025877,-10.202729009191581,-11.292691150279071,-12.382653291365035,-13.472615432449514,-14.562577573532431,-15.652539714613869,-16.742501855693817,-17.832463996772205,-18.922426137849104,-20.012388278924458,-21.102350419998348,-22.192312561070683,-23.282274702141549,-24.37223684321086,-25.462198984278665,-26.552161125344977,-27.642123266409733,-29.063200473984303,-30.52107172201363,-31.978942970041466,-33.43681421806766,-34.894685466092376,-36.352556714115558,-37.810427962137148,-39.268299210157195,-40.726170458175758,-42.184041706192716,-43.641912954208152,-45.099784202222047,-46.557655450234407,-48.015526698245232,-49.473397946254423,-50.931269194262178,-52.389140442268392,-53.847011690272936,-55.304882938276087,-56.762754186277604,0,0.03163549133833804,0.08673587560693484,0.17752009642171609,0.31172810384688027,0.49012935597753948,0.71295760815774323,0.98005699964041992,1.290846500851921,1.6441564446258923,1.9065351710076139,2.5158126658882281
DP 428,188.03926905649087,0.0010715686563878926,-14.544992601112227,-14.252582698368579,-13.960172795624532,-13.667762892880045,-13.375352990135116,-13.08294308738977,-12.790533184643982,-12.498123281897769,-12.205713379151122,-11.913303476404041,-11.620893573656517,-11.328483670908582,-11.036073768160209,-10.7436638654114,-10.451253962662166,-10.158844059912497,-9.866434157162395,-9.574024254411869,-9.2816143516609,-8.9892044489095,-8.69900339865614,-8.4286822296787722,-8.1583610607009724,-7.888039891722733,-7.6177187227440566,-7.347397553764945,-7.0770763847854017,-6.8067552158054205,-6.5364340468249988,-6.26611287784414,-5.9957917088628534,-5.7254705398811234,-5.4551493708989591,-5.18482820191636,-4.9145070329333231,-4.6441858639498488,-4.3738646949659437,-4.1035435259815989,-3.8332223569968162,-3.5629011880116028,-3.3016156680878312,-3.0764731714485154,-2.8513306748087515,-2.6261881781685368,-2.4010456815278802,-2.1759031848867729,-1.9507606882452178,-1.7256181916032165,-1.5004756949607676,-1.2753331983178717,-1.0501907016745269,-0.82504820503073362,-0.59990570838649415,-0.37476321174180682,-0.14962071509667216,0.075521781548910344,0.30066427819494013,0.52580677484141614,0.75094927148833879,0.97609176813571,1.1815717671657167,1.3411719855725437,1.5007722039798277,1.6603724223875675,1.81997264079576,1.9795728592044084,2.1391730776135116,2.2987732960230702,2.4583735144330872,2.6179737328435566,2.7775739512544786,2.937174169665858,3.096774388077697,3.2563746064899868,3.4159748249027313,3.575575043315931,3.735175261729589,3.8947754801437013,4.0543756985582693,4.21397591697329,4.3401838525845022,4.4163025749089373,4.4924212972338431,4.5685400195592107,4.6446587418850491,4.72077746421135,4.7968961865381159,4.8730149088653532,4.94913363119305,5.0252523535212212,5.1013710758498529,5.1774897981789474,5.2536085205085179,5.3297272428385467,5.4058459651690463,5.4819646875000139,5.5580834098314442,5.6342021321633391,5.7103208544957047,5.7864395768285339,5.7682853596289361,5.7457997418787681,5.7233141241290708,5.70082850637984,5.67834288863109,5.6558572708828168,5.6333716531350158,5.6108860353876926,5.5884004176408419,5.5659147998944709,5.5434291821485733,5.5209435644031553,5.4984579466582089,5.4759723289137421,5.4534867111697469,5.4310010934262314,5.408515475683191,5.38602985794062,5.29711177418016,5.1639043331832353,5.0306968921868149,4.8974894511908875,4.7642820101954682,4.6310745692005373,4.4978671282061136,4.36465968721219,4.2314522462187592,4.0982448052258311,3.9650373642334062,3.8318299232414779,3.6986224822500544,3.565415041259127,3.4322076002686956,3.2990001592787666,3.1657927182893371,3.0325852773004063,2.8993778363119778,2.7661703953240484,2.5490248821901771,2.29590477613969,2.0427846700896941,1.789664564040198,1.5365444579911818,1.2834243519426738,1.0303042458946545,0.77718413984711909,0.52406403380008793,0.2709439277535407,0.01782382170749252,-0.23529628433806557,-0.48841639038312623,-0.74153649642770258,-0.99465660247177512,-1.2477767085153626,-1.5008968145584531,-1.7540169206010481,-2.0071370266431572,-2.2602571326847678,-2.6143528185107181,-2.9936935923321628,-3.3730343661530751,-3.7523751399734597,-4.1317159137933093,-4.5110566876126317,-4.8903974614314167,-5.2697382352496707,-5.6490790090673944,-6.0284197828845887,-6.4077605567012448,-6.7871013305173733,-7.1664421043329627,-7.5457828781480307,-7.92512365196256,-8.3044644257765654,-8.6838051995900276,-9.0631459734029569,-9.4424867472153675,-9.8218275210272434,-10.318136601754937,-10.827443389479035,-11.336750177202601,-11.846056964925607,-12.355363752648081,-12.864670540370003,-13.373977328091385,-13.883284115812225,-14.392590903532508,-14.901897691252275,-15.411204478971475,-15.920511266690143,-16.429818054408283,-16.939124842125857,-17.448431629842887,-17.957738417559391,-18.467045205275326,-18.976351992990736,-19.485658780705624,-19.994965568419911,0,0.011313405684429517,0.030724687678511612,0.062550829394782376,0.10957977164755608,0.17207868703401907,0.25012650116961416,0.34366817451540782,0.45250169895327508,0.5762206821148762,0.66808673694042153,0.88147151332991669
DP 429,60.825591388600259,0.0023252670393788563,-13.443781923739195,-13.289258332480109,-13.134734741220997,-12.980211149961816,-12.825687558702606,-12.671163967443341,-12.516640376184013,-12.362116784924641,-12.207593193665229,-12.05306960240577,-11.89854601114626,-11.744022419886694,-11.589498828627095,-11.434975237367446,-11.280451646107739,-11.125928054847989,-10.971404463588186,-10.816880872328337,-10.662357281068443,-10.507833689808498,-10.354426885078054,-10.211071264676951,-10.067715644275779,-9.9243600238745291,-9.7810044034732115,-9.63764878307182,-9.4942931626703633,-9.3509375422688379,-9.2075819218672272,-9.0642263014655615,-8.9208706810638159,-8.7775150606620027,-8.63415944026011,-8.4908038198581526,-8.347448199456128,-8.2040925790540271,-8.0607369586518569,-7.9173813382496228,-7.7740257178473033,-7.6306700974449226,-7.49190881704042,-7.371525113762524,-7.251141410484494,-7.130757707206306,-7.0103740039279963,-6.8899903006495276,-6.76960659737093,-6.6492228940921949,-6.5288391908133105,-6.4084554875342921,-6.2880717842551279,-6.1676880809758279,-6.0473043776963769,-5.926920674416797,-5.8065369711370689,-5.6861532678572031,-5.5657695645771961,-5.44538586129705,-5.3250021580167646,-5.2046184547363294,-5.0943669102469151,-5.0077573888419931,-4.9211478674369165,-4.8345383460316986,-4.7479288246263325,-4.6613193032208207,-4.5747097818151543,-4.4881002604093441,-4.4014907390033846,-4.3148812175972777,-4.2282716961910269,-4.1416621747846252,-4.0550526533780751,-3.9684431319713807,-3.8818336105645392,-3.7952240891575459,-3.7086145677504052,-3.6220050463431193,-3.535395524935685,-3.4487860035281046,-3.3796516718738054,-3.3367305377992791,-3.2938094037245622,-3.2508882696496437,-3.2079671355745236,-3.1650460014992063,-3.122124867423687,-3.0792037333479723,-3.0362825992720608,-2.9933614651959437,-2.950440331119633,-2.9075191970431185,-2.8645980629664081,-2.8216769288894983,-2.778755794812386,-2.7358346607350779,-2.69291352665757,-2.6499923925798612,-2.607071258501954,-2.5641501244238487,-2.5668007082304176,-2.5764452679400276,-2.5860898276494071,-2.5957343873585632,-2.6053789470674875,-2.6150235067761853,-2.6246680664846553,-2.6343126261929011,-2.643957185900915,-2.6536017456087033,-2.6632463053162625,-2.6728908650235894,-2.6825354247306983,-2.6921799844375762,-2.7018245441442232,-2.7114691038506429,-2.7211136635568391,-2.7307582232628045,-2.7764706075265977,-2.8462287763643355,-2.9159869452017873,-2.9857451140389544,-3.05550328287584,-3.1252614517124346,-3.1950196205487424,-3.264777789384766,-3.3345359582205036,-3.4042941270559579,-3.474052295891124,-3.5438104647260071,-3.6135686335606043,-3.6833268023949106,-3.7530849712289358,-3.8228431400626746,-3.8926013088961264,-3.9623594777292928,-4.03211764656217,-4.1018758153947656,-4.2180003653119522,-4.353996847498844,-4.48999332968545,-4.6259898118717748,-4.7619862940578086,-4.8979827762435555,-5.0339792584290208,-5.1699757406142011,-5.3059722227990971,-5.4419687049837071,-5.5779651871680258,-5.7139616693520647,-5.8499581515358159,-5.9859546337192864,-6.1219511159024629,-6.2579475980853578,-6.3939440802679695,-6.5299405624502889,-6.6659370446323285,-6.8019335268140866,-6.9944483920611233,-7.2010935208519617,-7.4077386496424333,-7.6143837784325408,-7.8210289072222832,-8.02767403601165,-8.2343191648006613,-8.4409642935892979,-8.6476094223775721,-8.8542545511654911,-9.06089967995303,-9.2675448087402081,-9.4741899375270133,-9.6808350663134615,-9.88748019509954,-10.094125323885249,-10.300770452670594,-10.507415581455582,-10.714060710240195,-10.920705839024443,-11.193415154656831,-11.473465629328278,-11.753516103999326,-12.033566578669975,-12.313617053340243,-12.593667528010116,-12.873718002679585,-13.153768477348653,-13.433818952017351,-13.713869426685632,-13.993919901353538,-14.273970376021047,-14.554020850688151,-14.834071325354865,-15.1141218000212,-15.394172274687124,-15.674222749352673,-15.954273224017804,-16.234323698682573,-16.514374173346894,0,0.015815168182713443,0.031550056090614474,0.05159699075958505,0.079855750193739541,0.11672152314672168,0.16228878087989104,0.21658184654538026,0.2795875409257762,0.35119104114579819,0.40317158930804037,0.52468493734139687
DP 430,175.07301026775693,0.0028733892118329002,-37.285946748085323,-36.548284890935491,-35.810623033784587,-35.07296117663261,-34.335299319479567,-33.597637462325416,-32.859975605170206,-32.122313748013873,-31.384651890856464,-30.64699003369801,-29.909328176538434,-29.171666319377781,-28.434004462216041,-27.696342605053228,-26.958680747889339,-26.221018890724324,-25.483357033558274,-24.745695176391148,-24.008033319222879,-23.270371462053564,-22.53822799977123,-21.855750613102852,-21.173273226433384,-20.490795839762832,-19.808318453091168,-19.125841066418413,-18.44336367974455,-17.760886293069596,-17.078408906393534,-16.395931519716392,-15.713454133038159,-15.030976746358816,-14.348499359678369,-13.666021972996845,-12.983544586314219,-12.301067199630475,-11.618589812945656,-10.936112426259719,-10.253635039572702,-9.571157652884585,-8.9112932531798155,-8.3418818701329673,-7.7724704870849841,-7.2030591040358765,-6.6336477209856417,-6.064236337934263,-5.4948249548817607,-4.9254135718281278,-4.3560021887733615,-3.7865908057174678,-3.2171794226604384,-2.6477680396022745,-2.0783566565429812,-1.5089452734825566,-0.93953389042100277,-0.37012250735831548,0.19928887570550236,0.76870025877044867,1.3381116418365246,1.9075230249037345,2.42758575548385,2.8325000754084395,3.237414395334183,3.6423287152610753,4.0472430351891209,4.4521573551183193,4.85707167504867,5.2619859949801651,5.6669003149128168,6.07181463484662,6.4767289547815725,6.8816432747176739,7.2865575946549326,7.6914719145933379,8.0963862345328987,8.5013005544736142,8.9062148744154737,9.3111291943584948,9.7160435143026618,10.120957834247974,10.441759938835977,10.636391732762435,10.831023526690069,11.025655320618888,11.220287114548897,11.414918908480079,11.609550702412456,11.804182496346002,11.998814290280741,12.193446084216667,12.388077878153776,12.582709672092049,12.777341466031531,12.971973259972183,13.166605053914036,13.361236847857054,13.555868641801263,13.750500435746641,13.94513222969322,14.13976402364097,14.100132121724672,14.045352530675947,13.990572939628414,13.9357933485821,13.881013757537005,13.826234166493112,13.771454575450436,13.716674984408952,13.661895393368695,13.607115802329654,13.552336211291788,13.497556620255166,13.442777029219732,13.387997438185515,13.333217847152506,13.278438256120701,13.223658665090104,13.168879074060722,12.945354283833211,12.609330035777191,12.273305787722439,11.937281539668959,11.601257291616751,11.265233043565805,10.929208795516162,10.593184547467771,10.257160299420658,9.92113605137482,9.5851118033302622,9.2490875552869678,8.91306330724495,8.5770390592042283,8.2410148111647512,7.9049905631265664,7.5689663150896394,7.232942067054001,6.8969178190196363,6.5608935709865408,6.01081884653086,5.3690053132600131,4.7271917799904166,4.0853782467220876,3.4435647134549994,2.8017511801891959,2.1599376469246421,1.5181241136613248,0.87631058039929077,0.23449704713849268,-0.40731648612103338,-1.0491300193793083,-1.6909435526363144,-2.3327570858920832,-2.9745706191465704,-3.616384152399819,-4.2581976856517985,-4.9000112189025158,-5.5418247521519888,-6.1836382854001926,-7.0837654122555263,-8.0484739895464141,-9.0131825668359529,-9.9778911441241185,-10.942599721410936,-11.90730829869638,-12.872016875980467,-13.836725453263185,-14.80143403054454,-15.766142607824563,-16.730851185103194,-17.695559762380476,-18.660268339656376,-19.624976916930951,-20.589685494204126,-21.554394071475961,-22.519102648746415,-23.48381122601555,-24.448519803283268,-25.413228380549654,-26.677780031011327,-27.975650727572365,-29.273521424132067,-30.571392120690287,-31.869262817247176,-33.167133513802646,-34.4650042103567,-35.76287490690936,-37.06074560346071,-38.358616300010588,-39.65648699655911,-40.954357693106274,-42.252228389651947,-43.550099086196305,-44.84796978273922,-46.145840479280764,-47.443711175820951,-48.741581872359681,-50.039452568897069,-51.337323265432993,0,0.029379162986294848,0.0791616787097297,0.160459805301266,0.280551847404033,0.44011543407049214,0.6393460316902071,0.87810219824461833,1.1558715131181647,1.4716234505698029,1.7060548433919367,2.2507075655954734
DP 431,302.53933645504128,0.0011877202583806751,-21.864333659523506,-21.381853577513784,-20.899373495503415,-20.416893413492406,-19.934413331480712,-19.451933249468379,-18.969453167455395,-18.48697308544174,-18.004493003427445,-17.522012921412482,-17.039532839396895,-16.557052757380625,-16.074572675363704,-15.592092593346136,-15.109612511327903,-14.627132429309022,-14.144652347289481,-13.662172265269291,-13.17969218324845,-12.697212101226956,-12.218842945032774,-11.777472509872151,-11.336102074710883,-10.894731639548963,-10.453361204386374,-10.011990769223145,-9.5706203340592353,-9.1292498988946882,-8.6878794637294732,-8.2465090285636151,-7.80513859339709,-7.3637681582299086,-6.9223977230620726,-6.4810272878935722,-6.0396568527244279,-5.5982864175546174,-5.1569159823841559,-4.7155455472130319,-4.2741751120412514,-3.8328046768688182,-3.4078917261673327,-3.04880949115524,-2.6897272561424845,-2.330645021129067,-1.9715627861149938,-1.6124805511002582,-1.2533983160848632,-0.89431608106880645,-0.535233846052092,-0.17615161103471644,0.18293062398332041,0.54201285900202023,0.90109509402137722,1.2601773290413967,1.6192595640620755,1.9783417990834138,2.3374240341054118,2.6965062691280686,3.0555885041513875,3.4146707391753646,3.7391749878422016,3.9829961788768844,4.2268173699122489,4.4706385609482737,4.7144597519849745,4.958280943022344,5.2021021340603832,5.4459233250990939,5.6897445161384743,5.9335657071785262,6.1773868982192441,6.4212080892606345,6.6650292803026963,6.9088504713454295,7.1526716623888342,7.3964928534329042,7.6403140444776447,7.88413523552306,8.1279564265691491,8.3717776176159013,8.5595311940069827,8.6631820235009087,8.76683285299552,8.8704836824908018,8.9741345119867635,9.0777853414833967,9.181436170980712,9.2850870004786987,9.3887378299773729,9.4923886594767044,9.5960394889767322,9.6996903184774315,9.8033411479788057,9.906991977480855,10.010642806983588,10.114293636486988,10.217944465991071,10.321595295495836,10.425246125001275,10.528896954507383,10.447874799390739,10.394735475043253,10.341596150696462,10.28845682635035,10.235317502004929,10.182178177660182,10.129038853316128,10.075899528972752,10.022760204630075,9.969620880288069,9.9164815559467527,9.8633422316061115,9.8102029072661772,9.7570635829269126,9.7039242585883354,9.6507849342504333,9.5976456099132257,9.5445062855767127,9.3916959145793264,9.1724366089524914,8.95317730332637,8.7339179977009511,8.51465869207624,8.29539938645223,8.0761400808289459,7.8568807752063732,7.6376214695844968,7.4183621639633381,7.1991028583428944,6.9798435527231542,6.7605842471041271,6.5413249414858079,6.322065635868201,6.1028063302512976,5.8835470246351065,5.6642877190196312,5.4450284134048612,5.2257691077908044,4.8874448213176844,4.4980910781567527,4.1087373349965217,3.7193835918369955,3.3300298486781559,2.94067610552003,2.5513223623626038,2.161968619205862,1.7726148760498355,1.3832611328944968,0.99390738973986448,0.60455364658592992,0.21519990343270054,-0.17415383971984219,-0.56350758287167013,-0.95286132602280882,-1.3422150691732415,-1.7315688123229724,-2.1209225554720108,-2.5102762986203446,-3.0362515993971555,-3.596383903795803,-4.1565162081937066,-4.7166485125908695,-5.27678081698729,-5.836913121382965,-6.3970454257779066,-6.9571777301720923,-7.5173100345655364,-8.077442338958253,-8.6375746433502023,-9.1977069477414286,-9.7578392521318964,-10.317971556521643,-10.87810386091062,-11.438236165298877,-11.998368469686385,-12.558500774073158,-13.118633078459165,-13.678765382844441,-14.392205953320335,-15.122682385691723,-15.853158818062377,-16.583635250432248,-17.314111682801386,-18.044588115169748,-18.775064547537369,-19.505540979904215,-20.236017412270332,-20.966493844635679,-21.696970277000268,-22.427446709364133,-23.157923141727217,-23.888399574089544,-24.618876006451142,-25.349352438811945,-26.079828871172008,-26.810305303531315,-27.540781735889894,-28.271258168247652,0,0.014901186317043976,0.041763834276336488,0.086568546521602618,0.15288315624999066,0.24109763212677976,0.35133770755448507,0.48352785232946832,0.63737529369933843,0.81229051902940119,0.94221662058197875,1.2436976131647912
DP 432,83.5139523303083,0.0053974820031754212,-40.9030112087723,-40.292708849176194,-39.682406489579463,-39.072104129982193,-38.461801770384263,-37.85149941078577,-37.241197051186695,-36.630894691586974,-36.0205923319867,-35.4102899723858,-34.799987612784321,-34.189685253182212,-33.579382893579556,-32.969080533976246,-32.3587781743724,-31.748475814767957,-31.138173455162871,-30.527871095557213,-29.917568735950951,-29.307266376344085,-28.701380088094112,-28.135238859487,-27.569097630879213,-27.002956402270797,-26.436815173661721,-25.870673945052022,-25.304532716441646,-24.738391487830654,-24.172250259219009,-23.606109030606728,-23.039967801993811,-22.47382657338024,-21.907685344766008,-21.341544116151152,-20.775402887535659,-20.209261658919505,-19.643120430302726,-19.076979201685273,-18.51083797306719,-17.944696744448482,-17.396745659947367,-16.921556011610004,-16.446366363271874,-15.971176714932978,-15.495987066593285,-15.020797418252801,-14.545607769911557,-14.070418121569519,-13.595228473226697,-13.120038824883116,-12.644849176538736,-12.169659528193595,-11.694469879847638,-11.21928023150093,-10.744090583153424,-10.268900934805149,-9.7937112864560856,-9.31852163810625,-8.84333198975563,-8.3681423414042264,-7.9330434417898692,-7.5914908857207513,-7.2499383296508082,-6.9083857735800693,-6.5668332175085355,-6.2252806614361926,-5.8837281053630441,-5.5421755492890865,-5.2006229932143366,-4.8590704371387776,-4.5175178810624166,-4.1759653249852571,-3.8344127689072871,-3.4928602128285209,-3.1513076567489464,-2.8097551006685686,-2.4682025445873896,-2.1266499885053998,-1.7850974324226134,-1.4435448763390251,-1.1711439624872535,-1.0024721460807335,-0.83380032967330941,-0.66512851326497069,-0.49645669685572641,-0.32778488044557358,-0.15911306403451367,0.0095587523774545418,0.1782305687903295,0.34690238520411548,0.51557420161880885,0.68424601803440943,0.85291783445091918,1.0215896508683331,1.1902614672866623,1.3589332837058938,1.5276051001260367,1.6962769165470897,1.8649487329690486,2.0336205493919097,2.0198408907549328,1.980594270962025,1.9413476511700893,1.9021010313791225,1.8628544115891257,1.8236077918000968,1.7843611720120462,1.7451145522249538,1.7058679324388424,1.6666213126536997,1.6273746928695256,1.5881280730863261,1.5488814533040896,1.5096348335228311,1.4703882137425384,1.4311415939632197,1.3918949741848663,1.3526483544074919,1.1707821210059044,0.893833898400049,0.61688567579529863,0.33993745319164265,0.0629892305890929,-0.21395899201236104,-0.49090721461270276,-0.76785543721194671,-1.0448036598100916,-1.3217518824071326,-1.5987001050030609,-1.875648327597897,-2.1525965501916313,-2.4295447727842534,-2.7064929953757852,-2.9834412179662055,-3.2603894405555334,-3.5373376631437523,-3.8142858857308628,-4.0912341083168737,-4.5514316176573439,-5.0901670100431673,-5.6289024024279,-6.1676377948115322,-6.7063731871940808,-7.2451085795755086,-7.7838439719558572,-8.3225793643351249,-8.8613147567132664,-9.4000501490903439,-9.9387855414662987,-10.477520933841175,-11.016256326214952,-11.554991718587637,-12.093727110959213,-12.632462503329707,-13.171197895699102,-13.709933288067392,-14.248668680434603,-14.787404072800705,-15.549498836116431,-16.367436081211178,-17.185373326304621,-18.003310571396813,-18.821247816487688,-19.63918506157729,-20.457122306665603,-21.275059551752648,-22.092996796838385,-22.910934041922872,-23.728871287006033,-24.546808532087944,-25.364745777168519,-26.182683022247865,-27.000620267325896,-27.818557512402659,-28.636494757478133,-29.454432002552313,-30.272369247625207,-31.090306492696833,-32.169243860287615,-33.277183982624273,-34.385124104959544,-35.493064227293473,-36.601004349626059,-37.7089444719573,-38.816884594287167,-39.92482471661571,-41.03276483894296,-42.140704961268739,-43.248645083593246,-44.356585205916431,-45.464525328238196,-46.572465450558681,-47.680405572877774,-48.788345695195545,-49.896285817511952,-51.004225939826974,-52.112166062140759,-53.220106184453059,0,0.039583090263794252,0.089240552719656641,0.16197727441117427,0.26809497230603463,0.40835167411530859,0.58285801465274456,0.79150278291326537,1.0339448799346562,1.3094516253138095,1.5127658875055363,1.9870936425319752
DP 433,174.90197183094489,0.004161306837203521,-53.964861997212843,-52.897469046325789,-51.830076095437121,-50.7626831445469,-49.695290193655126,-48.627897242761819,-47.560504291866863,-46.493111340970394,-45.425718390072362,-44.358325439172717,-43.290932488271544,-42.2235395373688,-41.156146586464466,-40.088753635558604,-39.021360684651121,-37.953967733742125,-36.886574782831531,-35.819181831919359,-34.751788881005652,-33.684395930090332,-32.624986905663157,-31.637433974316654,-30.649881042968552,-29.662328111618876,-28.674775180267631,-27.687222248914772,-26.699669317560321,-25.71211638620429,-24.724563454846678,-23.737010523487474,-22.749457592126667,-21.761904660764284,-20.774351729400312,-19.786798798034756,-18.799245866667629,-17.811692935298879,-16.824140003928573,-15.836587072556657,-14.849034141183159,-13.861481209808085,-12.906645876338457,-12.082682480774537,-11.258719085209,-10.434755689641824,-9.6107922940730042,-8.786828898502554,-7.9628655029304714,-7.1389021073567509,-6.3149387117813864,-5.4909753162043886,-4.6670119206257565,-3.8430485250454738,-3.0190851294635626,-2.1951217338800153,-1.3711583382948282,-0.54719494270800406,0.27676845288045437,1.1007318484705475,1.9246952440622767,2.7486586396556447,3.5012194251118438,4.0871718705307591,4.6731243159513483,5.2590767613735965,5.8450292067975056,6.4309816522231,7.0169340976503438,7.6028865430792623,8.18883898850984,8.774791433942088,9.3607438793759883,9.9466963248115725,10.532648770248827,11.118601215687734,11.704553661128315,12.290506106570554,12.876458552014473,13.462410997460054,14.048363442907309,14.634315888356218,15.098559578353317,15.380237259116797,15.661914939881987,15.943592620648891,16.2252703014175,16.506947982187839,16.78862566295988,17.070303343733631,17.35198102450909,17.633658705286283,17.915336386065171,18.197014066845771,18.47869174762808,18.760369428412105,19.042047109197856,19.323724789985317,19.605402470774486,19.88708015156536,20.168757832357954,20.450435513152257,20.393197470909239,20.313966035582794,20.234734600258097,20.155503164935151,20.076271729613975,19.997040294294518,19.917808858976837,19.838577423660897,19.759345988346716,19.680114553034258,19.600883117723573,19.521651682414639,19.442420247107435,19.363188811801987,19.283957376498297,19.20472594119634,19.125494505896167,19.046263070597725,18.722837454610115,18.236611871198573,17.750386287788857,17.264160704380973,16.777935120974945,16.291709537570743,15.805483954168411,15.319258370767908,14.833032787369232,14.346807203972425,13.860581620577467,13.374356037184343,12.88813045379305,12.401904870403618,11.915679287016022,11.429453703630271,10.943228120246358,10.457002536864293,9.9707769534840782,9.4845513701057129,8.68855290213464,7.75979044358188,6.8310279850309286,5.9022655264818189,4.9735030679345034,4.0447406093890477,3.115978150845395,2.1872156923035342,1.2584532337635326,0.32969077522531981,-0.59907168331105143,-1.5278341418456141,-2.4565966003783428,-3.3853590589092768,-4.31412151743836,-5.2428839759656451,-6.1716464344910964,-7.1004088930147216,-8.0291713515365455,-8.957933810056538,-10.260536769743576,-11.656604271732807,-13.052671773720073,-14.448739275705368,-15.844806777688706,-17.240874279670049,-18.636941781649444,-20.033009283626836,-21.429076785602277,-22.825144287575807,-24.221211789547251,-25.61727929151683,-27.013346793484331,-28.40941429544996,-29.805481797413549,-31.201549299375213,-32.597616801334908,-33.9936843032926,-35.389751805248324,-36.785819307202104,-38.615846639578379,-40.494096288518627,-42.372345937456863,-44.250595586393011,-46.128845235327226,-48.0070948842594,-49.885344533189553,-51.763594182117579,-53.6418438310438,-55.520093479967834,-57.398343128889941,-59.276592777810038,-61.154842426728074,-63.033092075644113,-64.911341724558142,-66.789591373470159,-68.667841022380173,-70.546090671288084,-72.424340320194119,-74.302589969097966,0,0.042528551012111754,0.11457924720591563,0.23223593278316254,0.40603528052646365,0.63695792045697019,0.92528659878751651,1.27081656417556,1.6728063719919648,2.1297643713212135,2.4690345291798241,3.2572608828408094
DP 434,274.25056228029962,0.0041143963733302688,-70.922356551330338,-69.385567211262043,-67.848777871191487,-66.3119885311188,-64.775199191044024,-63.238409850967024,-61.701620510887864,-60.164831170806607,-58.62804183072312,-57.091252490637522,-55.554463150549736,-54.017673810459854,-52.480884470367762,-50.9440951302735,-49.40730579017707,-47.87051645007854,-46.333727109977829,-44.796937769874958,-43.260148429769906,-41.723359089662729,-40.199239297813925,-38.789146637888066,-37.379053977960055,-35.968961318029876,-34.558868658097488,-33.148775998162961,-31.738683338226288,-30.3285906782874,-28.918498018346376,-27.508405358403195,-26.098312698457825,-24.68822003851027,-23.278127378560562,-21.868034718608715,-20.457942058654684,-19.047849398698474,-17.637756738740094,-16.227664078779565,-14.817571418816856,-13.407478758851981,-12.048404935001745,-10.893408866837785,-9.7384127986716464,-8.583416730503318,-7.4284206623328162,-6.2734245941601143,-5.118428525985232,-3.9634324578081648,-2.8084363896289162,-1.6534403214474842,-0.49844425326385938,0.65655181492195613,1.8115478831099503,2.9665439513001317,4.1215400194925,5.2765360876870506,6.4315321558837883,7.5865282240826959,8.7415242922838,9.8965203604870844,10.9432890410041,11.737523740279904,12.531758439557931,13.32599313883817,14.120227838120627,14.914462537405315,15.708697236692212,16.502931935981344,17.297166635272671,18.091401334566228,18.885636033862014,19.679870733160005,20.474105432460213,21.268340131762635,22.062574831067295,22.856809530374168,23.651044229683272,24.445278928994583,25.239513628308117,26.03374832762384,26.650214414960789,27.000023383543297,27.349832352128018,27.699641320715003,28.049450289304232,28.399259257895711,28.749068226489431,29.098877195085386,29.44868616368359,29.798495132284064,30.148304100886754,30.498113069491719,30.847922038098893,31.197731006708334,31.547539975319989,31.897348943933924,32.247157912550144,32.596966881168541,32.946775849789205,33.296584818412128,33.083795869495574,32.928717541754288,32.773639214015262,32.618560886278495,32.463482558544044,32.308404230811838,32.153325903081949,31.998247575354274,31.843169247628914,31.688090919905815,31.533012592185,31.377934264466447,31.222855936750165,31.067777609036209,30.912699281324468,30.757620953615024,30.602542625907823,30.44746429820297,29.965930226383,29.266753848930179,28.567577471479769,27.868401094031668,27.169224716585955,26.470048339142554,25.770871961701555,25.071695584262955,24.372519206826645,23.673342829392748,22.97416645196121,22.27499007453202,21.575813697105183,20.876637319680764,20.177460942258651,19.478284564838933,18.77910818742156,18.079931810006556,17.380755432593922,16.681579055183668,15.585795509422073,14.320032107506062,13.054268705592351,11.788505303681005,10.522741901771935,9.2569784998652462,7.9912150979608736,6.725451696058796,5.4596882941590863,4.1939248922616716,2.9281614903666155,1.6623980884738707,0.39663468658347933,-0.86912871530462632,-2.1348921171903532,-3.4006555190737844,-4.6664189209548681,-5.9321823228336132,-7.1979457247100527,-8.463709126584158,-10.19124176575235,-12.034222170152466,-13.8772025745501,-15.720182978945246,-17.56316338333793,-19.406143787728134,-21.249124192115875,-23.092104596501109,-24.935085000883848,-26.778065405264183,-28.621045809641927,-30.464026214017309,-32.307006618390091,-34.149987022760506,-35.992967427128363,-37.83594783149379,-39.6789282358567,-41.521908640217156,-43.364889044575115,-45.20786944893063,-47.574224678411696,-49.998738162941763,-52.423251647469442,-54.847765131994521,-57.2722786165171,-59.696792101037147,-62.121305585554609,-64.545819070069612,-66.970332554582129,-69.394846039092045,-71.819359523599516,-74.243873008104487,-76.668386492606842,-79.092899977106811,-81.517413461604079,-83.941926946098988,-86.3664404305913,-88.7909539150811,-91.215467399568368,-93.639980884053088,0,0.050149930042198483,0.13994817975081716,0.28933874011203214,0.51038905299198456,0.80439199478838508,1.17175966743196,1.6122395817488844,2.124859472584038,2.7076624069483044,3.1405506179119032,4.14518729552636
DP 435,156.64015070378306,0.0034850619110287939,-42.104122480326232,-41.293421858747983,-40.48272123716864,-39.672020615588025,-38.861319994006323,-38.050619372423434,-37.239918750839344,-36.429218129254082,-35.618517507667661,-34.807816886080076,-33.9971162644913,-33.186415642901338,-32.375715021310235,-31.565014399717946,-30.754313778124491,-29.943613156529842,-29.132912534934025,-28.32221191333706,-27.51151129173892,-26.70081067013961,-25.896104379052247,-25.145347629191917,-24.394590879330408,-23.643834129467724,-22.893077379603831,-22.142320629738748,-21.391563879872482,-20.640807130005019,-19.890050380136362,-19.139293630266536,-18.388536880395488,-17.637780130523261,-16.88702338064984,-16.136266630775239,-15.385509880899447,-14.63475313102246,-13.88399638114427,-13.1332396312649,-12.382482881384332,-11.631726131502582,-10.905584459972644,-10.277904265196392,-9.6502240704189042,-9.02254387564017,-8.3948636808601922,-7.7671834860789817,-7.1395032912965268,-6.5118230965128383,-5.884142901727909,-5.256462706941738,-4.6287825121543253,-4.0011023173656755,-3.3734221225757852,-2.7457419277846546,-2.1180617329922815,-1.4903815381986727,-0.86270134340382287,-0.23502114860773746,0.3926590461895863,1.0203392409881522,1.5941179010116071,2.0421246149242509,2.4901313288381646,2.9381380427533363,3.3861447566697684,3.8341514705874631,4.282158184506426,4.7301648984266471,5.1781716123481347,5.626178326270888,6.0741850401948856,6.5221917541201559,6.9701984680467035,7.418205181974499,7.866211895903561,8.3142186098338762,8.7622253237654668,9.2102320376983151,9.6582387516324353,10.106245465567808,10.461979914171796,10.679303784325885,10.896627654481293,11.113951524638013,11.331275394796029,11.548599264955353,11.765923135115987,11.98324700527791,12.200570875441157,12.4178947456057,12.635218615771565,12.852542485938724,13.069866356107193,13.287190226276964,13.504514096448039,13.721837966620427,13.939161836794113,14.156485706969114,14.373809577145407,14.591133447323019,14.555720115639668,14.498089489150916,14.4404588626635,14.382828236177415,14.325197609692687,14.267566983209292,14.209936356727235,14.152305730246493,14.094675103767109,14.037044477289058,13.979413850812357,13.921783224336995,13.864152597862962,13.806521971390262,13.748891344918915,13.691260718448907,13.633630091980219,13.575999465512885,13.331412957506188,12.962186249891031,12.592959542277294,12.223732834664965,11.854506127054055,11.485279419444542,11.11605271183647,10.746826004229817,10.377599296624574,10.008372589020754,9.6391458814183633,9.2699191738173763,8.9006924662178069,8.5314657586196763,8.1622390510229312,7.7930123434276313,7.42378563583373,7.0545589282412653,6.6853322206502224,6.3161055130605845,5.7086363646634668,4.9990600960479279,4.2894838274337745,3.5799075588210334,2.8703312902096738,2.1607550215997433,1.451178752991205,0.74160248438404264,0.032026215778313369,-0.67755005282604075,-1.3871263214289766,-2.0967025900305196,-2.80627885863065,-3.5158551272294032,-4.2254313958267264,-4.9350076644226695,-5.6445839330172021,-6.35416020161033,-7.0637364702020635,-7.7733127387923968,-8.7714535411172641,-9.8417388863312834,-10.912024231543773,-11.982309576754732,-13.052594921964173,-14.122880267172087,-15.193165612378467,-16.26345095758332,-17.333736302786637,-18.404021647988476,-19.474306993188726,-20.544592338387503,-21.6148776835847,-22.685163028780426,-23.755448373974573,-24.825733719167218,-25.896019064358345,-26.966304409547927,-28.036589754736006,-29.106875099922554,-30.512924358405602,-31.95628424469944,-33.399644130991753,-34.843004017282439,-36.286363903571612,-37.729723789859179,-39.173083676145211,-40.6164435624296,-42.059803448712536,-43.503163334993857,-44.946523221273594,-46.389883107551888,-47.833242993828392,-49.276602880103532,-50.719962766377,-52.163322652648915,-53.606682538919316,-55.050042425188124,-56.493402311455405,-57.936762197720995,0,0.03382658074366391,0.089814401093875007,0.18057623584812454,0.31456494148448383,0.492529064790168,0.71467427860336252,0.98084093428281749,1.290464724464506,1.6424105784854053,1.9036533072502326,2.5108331019768881
DP 436,70.611462085646025,0.003237750010348618,-21.282038047882544,-21.00080963263634,-20.719581217389941,-20.43835280214336,-20.157124386896559,-19.875895971649594,-19.59466755640241,-19.313439141155033,-19.03221072590749,-18.750982310659737,-18.469753895411785,-18.188525480163644,-17.907297064915316,-17.62606864966677,-17.344840234418051,-17.063611819169143,-16.782383403920026,-16.501154988670709,-16.219926573421223,-15.938698158171507,-15.65950292655091,-15.398606539778781,-15.137710153006454,-14.876813766233903,-14.615917379461097,-14.355020992688091,-14.094124605914857,-13.833228219141404,-13.57233183236772,-13.311435445593823,-13.05053905881968,-12.78964267204533,-12.528746285270755,-12.267849898495957,-12.006953511720925,-11.746057124945668,-11.4851607381702,-11.2242643513945,-10.963367964618579,-10.702471577842427,-10.449946392544506,-10.230906408794695,-10.011866425044561,-9.79282644129413,-9.5737864575433615,-9.3547464737923,-9.1357064900409171,-8.91666650628921,-8.6976265225372025,-8.4785865387848709,-8.2595465550322267,-8.04050657127927,-7.8214665875259994,-7.6024266037724093,-7.3833866200185136,-7.1643466362642991,-6.9453066525097613,-6.7262666687549206,-6.5072266849997629,-6.2881867012442889,-6.0876034453924541,-5.9300864695075362,-5.772569493622278,-5.6150525177367028,-5.4575355418508007,-5.3000185659645709,-5.1425015900780169,-4.9849846141911316,-4.82746763830393,-4.6699506624163947,-4.5124336865285333,-4.3549167106403495,-4.197399734751837,-4.0398827588630013,-3.8823657829738414,-3.7248488070843497,-3.5673318311945312,-3.409814855304389,-3.2522978794139208,-3.0947809035231297,-2.9691005857964865,-2.891176007636616,-2.8132514294763582,-2.7353268513157034,-2.6574022731546529,-2.579477694993209,-2.501553116831372,-2.4236285386691403,-2.345703960506516,-2.2677793823434955,-2.1898548041800838,-2.1119302260162778,-2.0340056478520747,-1.9560810696874826,-1.878156491522492,-1.8002319133571112,-1.7223073351913338,-1.6443827570251612,-1.5664581788585972,-1.4885336006916396,-1.4941528134654973,-1.5119855952302519,-1.5298183769945741,-1.5476511587584671,-1.5654839405219227,-1.5833167222849494,-1.6011495040475372,-1.6189822858097,-1.6368150675714264,-1.6546478493327215,-1.6724806310935818,-1.6903134128540094,-1.7081461946140064,-1.7259789763735698,-1.7438117581326997,-1.7616445398913978,-1.7794773216496624,-1.7973101034074934,-1.8808409271887048,-2.0081714806401045,-2.1355020340909889,-2.2628325875413648,-2.3901631409912292,-2.5174936944405797,-2.6448242478894133,-2.7721548013377362,-2.899485354785551,-3.0268159082328459,-3.1541464616796286,-3.2814770151259012,-3.40880756857166,-3.5361381220169044,-3.6634686754616386,-3.7907992289058585,-3.9181297823495664,-4.0454603357927592,-4.1727908892354355,-4.3001214426776047,-4.5118970346184284,-4.7598644976155038,-5.0078319606120685,-5.2557994236081207,-5.5037668866036631,-5.75173434959869,-5.9997018125932033,-6.2476692755872225,-6.4956367385807168,-6.7436042015737083,-6.9915716645661776,-7.2395391275581451,-7.4875065905495983,-7.7354740535405462,-7.9834415165309673,-8.2314089795208929,-8.4793764425103113,-8.7273439054992057,-8.97531136848759,-9.22327883147547,-9.5741851567074079,-9.9508274137463122,-10.327469670784613,-10.704111927822282,-11.080754184859329,-11.457396441895753,-11.834038698931554,-12.210680955966726,-12.587323213001286,-12.963965470035218,-13.340607727068512,-13.717249984101187,-14.093892241133242,-14.47053449816468,-14.847176755195502,-15.22381901222567,-15.600461269255238,-15.977103526284171,-16.353745783312487,-16.730388040340184,-17.227337515057144,-17.737655721922987,-18.247973928788188,-18.758292135652692,-19.268610342516546,-19.778928549379742,-20.289246756242274,-20.799564963104139,-21.309883169965367,-21.820201376825903,-22.330519583685788,-22.84083779054502,-23.35115599740357,-23.861474204261459,-24.3717924111187,-24.882110617975275,-25.392428824831203,-25.902747031686431,-26.413065238541027,-26.923383445394943,0,0.022637484708759179,0.047825547771864589,0.08245586440344542,0.13234368980506536,0.19798130666306979,0.27945137275766585,0.376729520365456,0.48970404675162688,0.61808668428361568,0.71226370282265483,0.93227531814810338
DP 437,230.36931217157377,0.0044124222515195335,-68.000597277566513,-66.5752949110927,-65.149992544616836,-63.724690178138815,-62.299387811658761,-60.874085445176576,-59.448783078692351,-58.023480712206009,-56.598178345717628,-55.172875979227207,-53.747573612734577,-52.322271246239907,-50.896968879743191,-49.471666513244386,-48.046364146743514,-46.621061780240588,-45.195759413735495,-43.770457047228348,-42.345154680719169,-40.919852314207866,-39.505746197256308,-38.192407384676713,-36.879068572095,-35.565729759511214,-34.252390946925324,-32.939052134337373,-31.6257133217473,-30.31237450915512,-28.999035696560849,-27.685696883964489,-26.372358071366044,-25.059019258765485,-23.745680446162847,-22.432341633558117,-21.119002820951295,-19.805664008342376,-18.492325195731336,-17.178986383118218,-15.865647570503002,-14.55230875788571,-13.28444738138071,-12.198497898658179,-11.112548415933517,-10.026598933206724,-8.9406494504778244,-7.8546999677467806,-6.7687504850136193,-5.6828010022783282,-4.59685151954092,-3.5109020368013821,-2.4249525540597152,-1.3390030713159158,-0.253053588569996,0.83289589417805032,1.9188453769282248,3.0047948596805263,4.090744342434947,5.1766938251914905,6.2626433079501611,7.3485927907109572,8.33670324628083,9.0965195557429226,9.85633586520718,10.616152174673596,11.375968484142172,12.13578479361292,12.895601103085816,13.655417412560869,14.41523372203809,15.175050031517472,15.93486634099901,16.694682650482697,17.454498959968564,18.214315269456591,18.974131578946782,19.733947888439118,20.493764197933626,21.253580507430303,22.013396816929095,22.773213126430104,23.369308674223582,23.719819210629261,24.070329747037157,24.420840283447227,24.771350819859489,25.121861356273968,25.472371892690628,25.8228824291095,26.17339296553055,26.523903501953818,26.874414038379253,27.224924574806902,27.575435111236754,27.925945647668797,28.276456184103026,28.626966720539457,28.977477256978094,29.327987793418959,29.678498329861963,30.029008866307191,29.892308731436398,29.76752567169369,29.642742611953224,29.517959552214936,29.393176492478922,29.268393432745111,29.14361037301358,29.018827313284234,28.89404425355713,28.769261193832239,28.644478134109619,28.519695074389226,28.394912014671032,28.270128954955116,28.145345895241366,28.020562835529894,27.895779775820639,27.770996716113618,27.331613822399074,26.682492749897989,26.033371677399231,25.384250604902785,24.735129532408681,24.086008459916869,23.4368873874274,22.787766314940281,22.138645242455446,21.489524169972963,20.840403097492839,20.191282025014985,19.5421609525395,18.89303988006634,18.243918807595474,17.594797735126985,16.945676662660777,16.296555590196913,15.647434517735384,14.998313445276214,13.958241441324626,12.750613759106344,11.542986076890372,10.33535839467671,9.127730712465306,7.92010303025625,6.7124753480494723,5.5048476658449488,4.2972199836427745,3.08959230144286,1.8819646192452588,0.67433693704994091,-0.53329074514306074,-1.7409184273338068,-2.9485461095222103,-4.15617379170835,-5.3638014738921775,-6.5714291560737061,-7.7790568382529548,-8.986684520429904,-10.658252064826101,-12.445810056331959,-14.23336804783537,-16.02092603933631,-17.808484030834826,-19.596042022330867,-21.383600013824459,-23.171158005315547,-24.958715996804223,-26.746273988290486,-28.533831979774209,-30.321389971255535,-32.108947962734334,-33.89650595421076,-35.684063945684692,-37.471621937156179,-39.2591799286252,-41.046737920091779,-42.834295911555884,-44.62185390301758,-46.942026432712858,-49.321383949286471,-51.700741465857625,-54.080098982426172,-56.459456498992289,-58.838814015555883,-61.218171532117,-63.597529048675511,-65.976886565231638,-68.356244081785263,-70.7356015983363,-73.1149591148849,-75.494316631431,-77.873674147974526,-80.25303166451566,-82.632389181054208,-85.011746697590283,-87.391104214123843,-89.770461730655029,-92.149819247183459,0,0.050632831044962509,0.13987922721309748,0.28751694076845125,0.50585320115200094,0.796150029477201,1.1587989960317659,1.5935482526331124,2.099446387084789,2.6745776256852811,3.1017251450083587,4.0933811913943554
DP 438,309.79667582925089,0.0021758036824203607,-40.708870835113046,-39.806618413511117,-38.904365991907923,-38.002113570303521,-37.099861148697933,-36.197608727091129,-35.295356305483104,-34.393103883873856,-33.4908514622634,-32.588599040651758,-31.686346619038847,-30.784094197424796,-29.88184177580948,-28.979589354192974,-28.07733693257525,-27.175084510956303,-26.272832089336159,-25.370579667714793,-24.468327246092219,-23.566074824468416,-22.671575893430852,-21.846859110572463,-21.02214232771281,-20.197425544851981,-19.372708761989912,-18.547991979126625,-17.723275196262122,-16.898558413396408,-16.073841630529504,-15.249124847661344,-14.42440806479199,-13.599691281921428,-12.774974499049623,-11.950257716176614,-11.125540933302393,-10.300824150426955,-9.4761073675502878,-8.6513905846724146,-7.8266738017933184,-7.001957018913016,-6.2082324139727261,-5.5384779855296316,-4.8687235570853069,-4.1989691286397575,-3.5292147001929983,-2.8594602717450135,-2.1897058432958048,-1.5199514148453748,-0.850196986393726,-0.18044255794085479,0.489311870513241,1.1590662989685627,1.8288207274251014,2.4985751558828637,3.1683295843418486,3.8380840128020579,4.5078384412634831,5.1775928697261273,5.8473472981899945,6.5171017266550857,7.1219016376072322,7.5751389611422351,8.0283762846784743,8.4816136082159446,8.9348509317546583,9.3880882552946172,9.84132557883581,10.294562902378253,10.747800225921933,11.201037549466855,11.654274873013005,12.107512196560402,12.56074952010905,13.013986843658921,13.467224167210038,13.9204614907624,14.373698814315997,14.826936137870851,15.280173461426921,15.733410784984228,16.081678693556761,16.272489999157521,16.463301304759543,16.654112610362819,16.844923915967343,17.035735221573137,17.226546527180147,17.417357832788426,17.608169138397972,17.798980444008748,17.9897917496208,18.180603055234084,18.371414360848615,18.562225666464407,18.753036972081457,18.94384827769975,19.1346595833193,19.325470888940103,19.516282194562166,19.707093500185461,19.548668271828557,19.447135366707109,19.345602461586921,19.244069556468,19.142536651350341,19.041003746233944,18.939470841118823,18.83793793600497,18.736405030892385,18.634872125781033,18.533339220671014,18.431806315562206,18.330273410454684,18.228740505348423,18.127207600243437,18.025674695139703,17.92414179003724,17.822608884936063,17.536072977502609,17.1261988206971,16.716324663892898,16.306450507090023,15.896576350288445,15.486702193488162,15.076828036689228,14.666953879891594,14.257079723095275,13.847205566300245,13.437331409506552,13.027457252714163,12.617583095923086,12.207708939133328,11.797834782344871,11.387960625557739,10.9780864687719,10.56821231198739,10.158338155204193,9.7484639984223,9.1185927819954635,8.3944341407893361,7.6702754995844842,6.9461168583809529,6.2219582171786838,5.4977995759777434,4.7736409347780837,4.0494822935796906,3.3253236523826231,2.6011650111868247,1.8770063699923349,1.1528477287991306,0.42868908760722968,-0.29546955358340005,-1.0196281947727091,-1.7437868359607438,-2.467945477147476,-3.1921041183329106,-3.9162627595170654,-4.6404214006999212,-5.6160107519606361,-6.6544607514517224,-7.6929107509414525,-8.7313607504297952,-9.7698107499167754,-10.808260749402384,-11.846710748886636,-12.885160748369493,-13.923610747850978,-14.962060747331108,-16.000510746809844,-17.03896074628722,-18.077410745763192,-19.115860745237867,-20.154310744711104,-21.192760744182998,-22.231210743653524,-23.269660743122667,-24.308110742590408,-25.346560742056809,-26.666371023038135,-28.017446512484678,-29.368522001929854,-30.719597491373587,-32.070672980815971,-33.421748470256944,-34.772823959696531,-36.123899449134655,-37.4749749385715,-38.826050428006866,-40.177125917440854,-41.528201406873535,-42.8792768963047,-44.23035238573452,-45.581427875162944,-46.932503364589984,-48.283578854015609,-49.634654343439891,-50.985729832862773,-52.336805322284135,0,0.027473013269107407,0.07707076953429183,0.15984287813419884,0.28235990228238383,0.44534311082567574,0.64902566345112822,0.89326810717440441,1.1775290454503153,1.5007184830900973,1.7407834541587286,2.2978111971955397
DP 439,210.84282631646946,0.0013847385207884626,-20.188518769124141,-19.772763959418963,-19.357009149713186,-18.94125434000679,-18.525499530299779,-18.109744720592179,-17.693989910883939,-17.27823510117511,-16.862480291465662,-16.4467254817556,-16.030970672044923,-15.615215862333637,-15.199461052621723,-14.783706242909203,-14.367951433196083,-13.952196623482344,-13.536441813768011,-13.120687004053034,-12.704932194337456,-12.28917738462127,-11.876626197804583,-11.492907919908518,-11.109189642011829,-10.725471364114542,-10.341753086216624,-9.958034808318093,-9.5743165304189368,-9.1905982525191749,-8.8068799746187842,-8.4231616967177843,-8.0394434188161643,-7.655725140913928,-7.272006863011069,-6.8882885851075963,-6.5045703072035046,-6.1208520292987911,-5.7371337513934693,-5.3534154734875221,-4.9696971955809568,-4.5859789176737786,-4.2153181014626995,-3.8968877491516851,-3.578457396840041,-3.260027044527765,-2.9415966922148642,-2.6231663399013314,-2.3047359875871707,-1.9863056352723782,-1.66787528295696,-1.3494449306409113,-1.0310145783242313,-0.71258422600692,-0.39415387368898147,-0.075723521370413008,0.24270683094878492,0.561137183268613,0.879567535589069,1.1979978879101532,1.5164282402318672,1.8348585925542091,2.1250384386609675,2.3492995468287603,2.5735606549971948,2.7978217631662683,3.0220828713359786,3.2463439795063342,3.4706050876773262,3.69486619584896,3.9191273040212358,4.143388412194148,4.367649520367701,4.5919106285418954,4.8161717367167256,5.040432844892198,5.2646939530683108,5.488955061245063,5.7132161694224566,5.9374772776004949,6.1617383857791648,6.3859994939584812,6.5626406336989671,6.6678506954908414,6.773060757283365,6.8782708190765405,6.9834808808703706,7.0886909426648561,7.1939010044599874,7.2991110662557759,7.4043211280522074,7.5095311898493051,7.6147412516470521,7.7199513134454465,7.8251613752445071,7.9303714370441938,8.0355814988445537,8.1407915606455621,8.24600162244722,8.3512116842495381,8.4564217460524986,8.56163180785612,8.52871253944005,8.4945025561502252,8.4602925728610661,8.42608258957257,8.3918726062847391,8.35766262299756,8.3234526397110624,8.28924265642522,8.255032673140045,8.2208226898555257,8.1866127065716725,8.15240272328849,8.1181927400059664,8.0839827567241151,8.0497727734429176,8.0155627901623827,7.9813528068825184,7.9471428236033184,7.8198285146784725,7.6304431885845476,7.44105786249132,7.2516725363987815,7.062287210306943,6.872901884215791,6.6835165581253451,6.4941312320355875,6.304745905946521,6.1153605798581481,5.9259752537704813,5.7365899276834993,5.5472046015972181,5.35781927551163,5.1684339494267322,4.9790486233425337,4.7896632972590236,4.600277971176209,4.4108926450940977,4.2215073190126784,3.9154503852922975,3.5593897585821632,3.2033291318727035,2.8472685051639361,2.4912078784558438,2.1351472517484518,1.7790866250417399,1.4230259983356996,1.0669653716303624,0.71090474492569589,0.35484411822172285,-0.0012165084815687352,-0.35727713518416965,-0.71333776188609777,-1.0693983885873255,-1.4254590152878786,-1.7815196419877419,-2.137580268686917,-2.493640895385413,-2.8497015220832234,-3.3451752739440717,-3.8755039542934235,-4.4058326346420404,-4.9361613149899224,-5.4664899953370671,-5.9968186756834774,-6.52714735602916,-7.0574760363740934,-7.5878047167182956,-8.1181333970617757,-8.6484620774045,-9.1787907577464924,-9.709119438087761,-10.239448118428296,-10.769776798768078,-11.300105479107142,-11.830434159445451,-12.360762839783048,-12.891091520119888,-13.42142020045601,-14.112531234418039,-14.821508662942222,-15.530486091465649,-16.23946351998832,-16.948440948510228,-17.657418377031405,-18.366395805551821,-19.075373234071481,-19.78435066259042,-20.493328091108584,-21.202305519625995,-21.91128294814267,-22.620260376658582,-23.329237805173783,-24.038215233688202,-24.747192662201865,-25.456170090714785,-26.165147519226956,-26.874124947738384,-27.583102376249045,0,0.015346950093661526,0.042118179312361531,0.086249361075428826,0.15149230491557597,0.23822144933525918,0.34655085026223759,0.47640482246475496,0.6275006570719448,0.79926927899543632,0.9268313596064377,1.2230382585020914
DP 440,268.21080180576297,0.0033566587456862174,-57.021876793783576,-55.791433083419342,-54.560989373053353,-53.330545662685651,-52.100101952316123,-50.869658241944983,-49.639214531572037,-48.408770821197308,-47.178327110820952,-45.947883400442784,-44.7174396900629,-43.486995979681261,-42.25655226929792,-41.02610855891276,-39.795664848525917,-38.56522113813736,-37.334777427747,-36.104333717354933,-34.873890006961112,-33.6434462965656,-32.423076976325355,-31.293378119771734,-30.163679263216267,-29.033980406659111,-27.904281550100183,-26.774582693539514,-25.644883836977115,-24.515184980412972,-23.385486123847055,-22.2557872672794,-21.126088410710004,-19.996389554138851,-18.86669069756595,-17.736991840991315,-16.607292984414933,-15.477594127836785,-14.347895271256913,-13.218196414675262,-12.088497558091893,-10.958798701506767,-9.8697160846307579,-8.9431003461764771,-8.0164846077204448,-7.0898688692626459,-6.1632531308030822,-5.2366373923417608,-4.3100216538786738,-3.3834059154138219,-2.4567901769472136,-1.5301744384788405,-0.60355870000870182,0.3230570384632071,1.2496727769368714,2.1762885154123017,3.1029042538894926,4.02951999236845,4.9561357308491676,5.8827514693316427,6.8093672078158782,7.7359829463018812,8.576262696262031,9.2150890860982937,9.8539154759363576,10.4927418657762,11.131568255617831,11.770394645461259,12.409221035306469,13.048047425153479,13.686873815002276,14.325700204852867,14.964526594705237,15.603352984559399,16.242179374415372,16.881005764273112,17.519832154132654,18.15865854399398,18.797484933857103,19.436311323722013,20.075137713588727,20.713964103457215,21.210599875481908,21.493946360685502,21.777292845890891,22.060639331098102,22.343985816307129,22.627332301517974,22.910678786730614,23.194025271945069,23.477371757161354,23.76071824237944,24.044064727599341,24.327411212821055,24.610757698044576,24.894104183269892,25.177450668497066,25.460797153726016,25.744143638956775,26.027490124189427,26.3108366094238,26.594183094660018,26.431377721295792,26.309585509019751,26.187793296745529,26.06600108447315,25.944208872202623,25.822416659933918,25.700624447667014,25.578832235402004,25.457040023138784,25.335247810877426,25.213455598617944,25.091663386360242,24.969871174104384,24.848078961850398,24.72628674959822,24.604494537347875,24.482702325099385,24.360910112852711,23.97625099638439,23.416343135972326,22.85643527556218,22.296527415153925,21.736619554747605,21.176711694343147,20.616803833940637,20.056895973540026,19.496988113141306,18.937080252744522,18.377172392349653,17.817264531956653,17.257356671565603,16.69744881117645,16.137540950789191,15.577633090403857,15.017725230020432,14.457817369638883,13.897909509259295,13.338001648881594,12.457654021032941,11.439970737332926,10.422287453634789,9.404604169938537,8.3869208862441464,7.3692376025516761,6.351554318861079,5.33387103517233,4.3161877514855034,3.2985044678005218,2.2808211841174488,1.2631379004362417,0.24545461675693742,-0.77222866692052117,-1.7899119505960563,-2.80759523426974,-3.8252785179415221,-4.8429618016114224,-5.86064508527945,-6.8783283689455974,-8.270178946967647,-9.75557576945022,-11.240972591930779,-12.726369414409355,-14.21176623688592,-15.697163059360467,-17.182559881833036,-18.667956704303588,-20.153353526772126,-21.638750349238695,-23.124147171703214,-24.609543994165755,-26.094940816626242,-27.580337639084814,-29.065734461541318,-30.55113128399584,-32.036528106448365,-33.521924928898891,-35.007321751347341,-36.492718573793873,-38.403035170104886,-40.36056953730867,-42.318103904510387,-44.275638271710072,-46.23317263890771,-48.190707006103331,-50.148241373296877,-52.105775740488369,-54.063310107677907,-56.020844474865349,-57.978378842050766,-59.935913209234172,-61.893447576415454,-63.850981943594789,-65.808516310772021,-67.766050677947277,-69.723585045120473,-71.681119412291565,-73.638653779460782,-75.596188146627753,0,0.040625519136206212,0.11324439732138694,0.23397777836569919,0.41261298703342225,0.6501933933071925,0.94705072591717787,1.3029805531735337,1.7171980934577511,2.1881234705164361,2.5379091519283574,3.349715806931
DP 441,99.6464436590265,0.0014925765672634337,-13.050745421451589,-12.836200782439249,-12.621656143426652,-12.407111504413784,-12.192566865400684,-11.978022226387319,-11.7634775873737,-11.548932948359829,-11.334388309345714,-11.119843670331326,-10.905299031316702,-10.690754392301809,-10.476209753286669,-10.261665114271276,-10.047120475255628,-9.832575836239732,-9.6180311972235728,-9.4034865582071632,-9.1889419191904924,-8.97439728017357,-8.7614080504457874,-8.5624176513461432,-8.36342725224623,-8.1644368531460447,-7.9654464540456047,-7.7664560549449009,-7.5674656558439226,-7.3684752567426779,-7.1694848576411729,-6.9704944585394095,-6.7715040594373681,-6.5725136603350673,-6.3735232612324966,-6.1745328621296576,-5.9755424630265628,-5.7765520639232,-5.57756166481957,-5.3785712657156708,-5.1795808666115075,-4.9805904675070884,-4.788007070017632,-4.6210519817926894,-4.45409689356744,-4.2871418053418973,-4.1201867171160558,-3.9532316288899114,-3.7862765406634717,-3.6193214524367292,-3.4523663642096913,-3.2854112759823546,-3.1184561877547154,-2.9515010995267783,-2.7845460112985423,-2.6175909230700074,-2.4506358348411745,-2.28368074661204,-2.1167256583826086,-1.9497705701528787,-1.7828154819228508,-1.6158603936925222,-1.4630178582782676,-1.3431050574193057,-1.2231922565600351,-1.1032794557004602,-0.98336665484057817,-0.86345385398039054,-0.743541053119896,-0.62362825225909524,-0.50371545139798835,-0.383802650536575,-0.26388984967485624,-0.14397704881283105,-0.024064247950498448,0.095848552912139839,0.21576135377508457,0.33567415463833555,0.4555869555018936,0.57549975636575756,0.69541255722992734,0.81532535809440343,0.91090880436600918,0.96999764383008591,1.0290864832944933,1.0881753227592357,1.1472641622243085,1.2063530016897157,1.2654418411554551,1.324530680621526,1.3836195200879287,1.4427083595546673,1.5017971990217356,1.5608860384891352,1.619974877956871,1.6790637174249383,1.7381525568933378,1.7972413963620693,1.8563302358311338,1.9154190753005316,1.9745079147702602,2.0335967542403215,2.0281276778125132,2.0141221411681878,2.0001166045242109,1.9861110678805818,1.9721055312373021,1.9580999945943736,1.9440944579517943,1.9300889213095613,1.9160833846676768,1.902077848026144,1.8880723113849593,1.8740667747441242,1.8600612381036346,1.8460557014634953,1.832050164823708,1.8180446281842688,1.8040390915451767,1.7900335549064357,1.7259242695413388,1.6284116957053709,1.5308991218697894,1.4333865480345906,1.3358739741997783,1.2383614003653487,1.1408488265313055,1.043336252697648,0.94582367886437291,0.84831110503148244,0.7507985311989821,0.65328595736686224,0.55577338353512762,0.45826080970378158,0.3607482358728154,0.26323566204223797,0.16572308821204182,0.068210514382233453,-0.029302059447189298,-0.12681463327622738,-0.28865866250187106,-0.47807418414399727,-0.6674897057857434,-0.85690522742710473,-1.0463207490680897,-1.235736270708687,-1.4251517923489037,-1.6145673139887455,-1.8039828356281964,-1.9933983572672749,-2.1828138789059657,-2.3722294005442781,-2.5616449221822046,-2.7510604438197577,-2.9404759654569181,-3.129891487093706,-3.3193070087301084,-3.5087225303661271,-3.69813805200177,-3.8875535736370264,-4.1553430923338359,-4.4427270363025926,-4.7301109802709185,-5.0174949242388074,-5.30487886820626,-5.5922628121732814,-5.8796467561398718,-6.1670307001060189,-6.4544146440717327,-6.7417985880370246,-7.029182532001867,-7.3165664759662867,-7.6039504199302561,-7.8913343638938134,-8.1787183078569168,-8.4661022518196,-8.7534861957818357,-9.0408701397436477,-9.328254083705021,-9.61563802766596,-9.9945701824038053,-10.383675322038984,-10.772780461673715,-11.161885601307967,-11.550990740941788,-11.940095880575162,-12.329201020208068,-12.71830615984052,-13.107411299472544,-13.496516439104097,-13.885621578735208,-14.274726718365871,-14.663831857996069,-15.05293699762583,-15.442042137255122,-15.831147276883984,-16.220252416512395,-16.609357556140314,-16.998462695767827,-17.387567835394858,0,0.011710288207870725,0.028066736347280481,0.053121801600090779,0.089906364119524726,0.13863866579867756,0.19935724182061337,0.27201776462837196,0.35648343475557559,0.4524742488716112,0.52353339745060168,0.68908608580139352
DP 442,102.36971496055769,0.0016512775682475623,-14.745516559982645,-14.500045182948977,-14.254573805915001,-14.009102428880734,-13.763631051846179,-13.518159674811329,-13.272688297776169,-13.027216920740717,-12.78174554370497,-12.536274166668921,-12.290802789632586,-12.045331412595944,-11.799860035559018,-11.554388658521786,-11.30891728148425,-11.063445904446425,-10.817974527408307,-10.57250315036989,-10.32703177333117,-10.081560396292168,-9.8378694411109571,-9.6102024509454722,-9.3825354607796729,-9.1548684706135646,-8.927201480447156,-8.6995344902804277,-8.4718675001133956,-8.2442005099460545,-8.016533519778406,-7.7888665296104476,-7.5611995394421738,-7.3335325492735972,-7.1058655591047062,-6.8781985689355061,-6.650531578766,-6.4228645885961884,-6.19519759842606,-5.9675306082556254,-5.7398636180848825,-5.5121966279138288,-5.29186328960561,-5.1008649053482387,-4.9098665210905184,-4.7188681368324561,-4.5278697525740483,-4.33687136831529,-4.1458729840561919,-3.9548745997967494,-3.7638762155369592,-3.5728778312768181,-3.3818794470163378,-3.1908810627555093,-2.9998826784943362,-2.8088842942328185,-2.6178859099709531,-2.4268875257087421,-2.235889141446187,-2.0448907571832882,-1.8538923729200432,-1.6628939886564524,-1.4880465895442352,-1.3508853313289058,-1.2137240731132193,-1.0765628148971815,-0.93940155668079062,-0.80224029846404443,-0.66507904024694509,-0.52791778202949091,-0.39075652381168441,-0.25359526559352391,-0.11643400737500996,0.020727250843857022,0.15788850906307964,0.29504976728265475,0.43221102550258472,0.56937228372286774,0.706533541943505,0.843694800164496,0.98085605838584089,1.118017316607538,1.2273378914365958,1.2948967832835163,1.362455675130819,1.430014566978506,1.4975734588265743,1.5651323506750237,1.6326912425238569,1.7002501343730698,1.7678090262226673,1.8353679180726472,1.9029268099230086,1.9704857017737525,2.0380445936248788,2.1056034854763865,2.1731623773282798,2.2407212691805518,2.308280161033208,2.3758390528862456,2.443397944739667,2.5109568365934662,2.504571114231366,2.4885048888290342,2.4724386634271047,2.4563724380255745,2.4403062126244444,2.4242399872237153,2.4081737618233872,2.3921075364234565,2.37604131102393,2.3599750856248032,2.3439088602260725,2.3278426348277494,2.3117764094298203,2.2957101840322918,2.2796439586351678,2.2635777332384426,2.2475115078421162,2.2314452824461908,2.1580644045348381,2.0464728553614031,1.9348813061884103,1.8232897570158553,1.7116982078437422,1.6001066586720623,1.4885151095008313,1.3769235603300356,1.2653320111596782,1.1537404619897633,1.0421489128202908,0.93055736365125463,0.81896581448265959,0.70737426531450687,0.59578271614678935,0.4841911669795157,0.37259961781267803,0.2610080686462834,0.14941651948032997,0.037824970314815243,-0.14734124627249903,-0.36404045667068324,-0.58073966706843316,-0.79743887746574393,-1.0141380878626249,-1.2308372982590612,-1.4475365086550624,-1.6642357190506372,-1.8809349294457647,-2.0976341398404634,-2.3143333502347256,-2.5310325606285513,-2.747731771021936,-2.9644309814148935,-3.1811301918074055,-3.397829402199489,-3.61452861259113,-3.8312278229823353,-4.0479270333731092,-4.2646262437634412,-4.5709528502248737,-4.899687364672106,-5.2284218791188382,-5.5571563935650765,-5.8858909080108193,-6.2146254224560655,-6.543359936900834,-6.8720944513450934,-7.2008289657888556,-7.5295634802321381,-7.8582979946749045,-8.1870325091171949,-8.5157670235589773,-8.84450153800028,-9.1732360524410748,-9.5019705668813863,-9.8307050813211863,-10.159439595760512,-10.488174110199338,-10.816908624637664,-11.250324548591811,-11.695372839677967,-12.140421130763627,-12.58546942184875,-13.030517712933364,-13.475566004017459,-13.920614295101041,-14.365662586184122,-14.810710877266683,-15.255759168348739,-15.700807459430269,-16.145855750511295,-16.590904041591795,-17.035952332671791,-17.481000623751275,-17.926048914830236,-18.37109720590869,-18.816145496986639,-19.26119378806407,-19.706242079140956,0,0.013105994014739218,0.03167518646368387,0.060270768067158642,0.10227918200262326,0.15794578394268932,0.22731555646832874,0.31033760724042547,0.40685346719140358,0.5165400039581709,0.597763242335424,0.78696027669051749
DP 443,153.95643094478248,0.0038169834730699039,-45.59564470041618,-44.721653721856448,-43.847662743295416,-42.973671764733133,-42.099680786169614,-41.225689807604837,-40.351698829038781,-39.477707850471482,-38.6037168719029,-37.729725893333068,-36.855734914761968,-35.981743936189645,-35.107752957616015,-34.233761979041162,-33.359771000465045,-32.485780021887649,-31.611789043309017,-30.737798064729144,-29.863807086147947,-28.989816107565524,-28.122277752076979,-27.3128136143733,-26.503349476668355,-25.693885338962112,-24.884421201254575,-24.074957063545785,-23.26549292583573,-22.45602878812436,-21.64656465041173,-20.837100512697816,-20.027636374982603,-19.218172237266124,-18.408708099548356,-17.599243961829316,-16.78977982410899,-15.980315686387398,-15.170851548664514,-14.361387410940353,-13.551923273214896,-12.742459135488186,-11.959499241181968,-11.282557573189028,-10.605615905194755,-9.92867423719914,-9.2517325692021988,-8.5747909012039241,-7.8978492332042993,-7.2209075652033539,-6.5439658972010708,-5.8670242291974546,-5.1900825611925008,-4.5131408931862067,-3.8361992251785844,-3.1592575571696244,-2.4823158891593291,-1.8053742211476969,-1.1284325531347337,-0.45149088512043745,0.22545078289519083,0.90239245091215792,1.5212690225367633,2.0046585397602477,2.4880480569850967,2.9714375742113055,3.4548270914388697,3.9382166086677954,4.4216061258980863,4.9049956431297312,5.3883851603627413,5.8717746775971049,6.3551641948328266,6.8385537120699125,7.3219432293083626,7.8053327465481681,8.2887222637893441,8.77211178103186,9.25550129827575,9.7388908155210032,10.222280332767612,10.705669850015562,11.089607388759172,11.324364609632218,11.559121830506671,11.793879051382543,12.028636272259801,12.263393493138487,12.498150714018582,12.732907934900073,12.967665155782971,13.202422376667295,13.437179597553017,13.671936818440139,13.906694039328681,14.141451260218602,14.37620848110997,14.610965702002728,14.845722922896902,15.080480143792482,15.315237364689466,15.549994585587848,15.512935892017666,15.4511604098381,15.389384927660013,15.327609445483338,15.265833963308125,15.204058481134345,15.142282998962017,15.080507516791132,15.018732034621689,14.95695655245367,14.895181070287142,14.833405588122034,14.771630105958353,14.709854623796137,14.648079141635362,14.586303659476016,14.524528177318127,14.462752695161679,14.199221781027312,13.801184067177575,13.403146353329371,13.005108639482684,12.607070925637545,12.209033211793921,11.810995497951831,11.412957784111285,11.014920070272259,10.616882356434767,10.218844642598814,9.8208069287643891,9.4227692149314972,9.0247315011001366,8.6266937872702982,8.2286560734420071,7.830618359615233,7.432580645789999,7.0345429319663024,6.6365052181441246,5.9812209130432246,5.2156845951923936,4.4501482773430663,3.6846119594952622,2.9190756416489521,2.1535393238041842,1.3880030059609234,0.6224666881191494,-0.14306962972108087,-0.90860594755982538,-1.6741422653970377,-2.4396785832327463,-3.2052149010669297,-3.9707512188996223,-4.7362875367307753,-5.5018238545604339,-6.2673601723885666,-7.0328964902151858,-7.798432808040304,-8.5639691258639026,-9.6412318289067418,-10.796429811372427,-11.951627793836463,-13.106825776298843,-14.262023758759593,-15.417221741218684,-16.572419723676134,-17.7276177061319,-18.882815688586035,-20.038013671038541,-21.193211653489374,-22.348409635938555,-23.503607618386066,-24.658805600831968,-25.81400358327619,-26.969201565718787,-28.124399548159708,-29.279597530598991,-30.434795513036622,-31.589993495472584,-33.108014201028546,-34.666352353003056,-36.224690504975918,-37.783028656947,-39.341366808916455,-40.899704960884193,-42.458043112850262,-44.016381264814576,-45.574719416777256,-47.133057568738224,-48.691395720697514,-50.2497338726551,-51.808072024611015,-53.366410176565239,-54.924748328517737,-56.48308648046855,-58.041424632417716,-59.5997627843651,-61.158100936310952,-62.716439088254859,0,0.036743638498774017,0.097307608272866969,0.1953610117199337,0.340098312314662,0.53232703293472416,0.77226688806794175,1.059745277501732,1.3941540896686113,1.7742698234494088,2.056410033431594,2.7122029004202752
DP 444,59.909138749663683,0.0019408632521068846,-11.076410832664793,-10.951138909121026,-10.825866985577218,-10.700595062033377,-10.575323138489503,-10.4500512149456,-10.324779291401665,-10.199507367857697,-10.074235444313693,-9.94896352076965,-9.8236915972255883,-9.6984196736814852,-9.5731477501373465,-9.4478758265931813,-9.3226039030489734,-9.197331979504737,-9.0720600559604758,-8.9467881324161667,-8.8215162088718362,-8.69624428532747,-8.5718776010615247,-8.45565815586882,-8.33943871067606,-8.2232192654832517,-8.1069998202903832,-7.9907803750974651,-7.8745609299044972,-7.7583414847114796,-7.6421220395183971,-7.5259025943252773,-7.4096831491320962,-7.2934637039388566,-7.1772442587455743,-7.0610248135522458,-6.9448053683588515,-6.8285859231654076,-6.7123664779719139,-6.5961470327783731,-6.4799275875847764,-6.3637081423911246,-6.2512132989831848,-6.1536170387480826,-6.05602077851287,-5.9584245182775435,-5.86082825804211,-5.7632319978065638,-5.6656357375709119,-5.56803947733514,-5.4704432170992616,-5.37284695686327,-5.2752506966271735,-5.1776544363909576,-5.0800581761546413,-4.982461915918206,-4.8848656556816623,-4.7872693954450076,-4.68967313520824,-4.5920768749713661,-4.4944806147343783,-4.396884354497284,-4.3075009748907211,-4.2372812421892529,-4.16706150948766,-4.0968417767859568,-4.0266220440841405,-3.9564023113822047,-3.8861825786801494,-3.8159628459779791,-3.7457431132756951,-3.6755233805732916,-3.6053036478707714,-3.535083915168137,-3.4648641824653832,-3.3946444497625179,-3.3244247170595349,-3.2542049843564302,-3.1839852516532106,-3.1137655189498781,-3.0435457862464292,-2.9733260535428574,-2.9172715017800139,-2.8824650561604925,-2.8476586105408148,-2.8128521649209741,-2.7780457193009744,-2.7432392736808136,-2.7084328280604968,-2.6736263824400179,-2.6388199368193805,-2.6040134911985819,-2.5692070455776252,-2.5344005999565082,-2.4995941543352309,-2.464787708713795,-2.4299812630921984,-2.3951748174704419,-2.3603683718485273,-2.32556192622645,-2.2907554806042141,-2.255949034981819,-2.2580565241325492,-2.2658608894697494,-2.2736652548067653,-2.2814696201435973,-2.289273985480246,-2.2970783508167112,-2.3048827161529921,-2.3126870814890927,-2.3204914468250055,-2.3282958121607358,-2.3361001774962853,-2.3439045428316478,-2.3517089081668296,-2.3595132735018258,-2.3673176388366368,-2.3751220041712671,-2.3829263695057139,-2.3907307348399742,-2.427770843463978,-2.4843019081859063,-2.5408329729075989,-2.5973640376290636,-2.6538951023502975,-2.7104261670712964,-2.7669572317920617,-2.8234882965125987,-2.8800193612329035,-2.9365504259529751,-2.9930814906728131,-3.0496125553924189,-3.1061436201117951,-3.1626746848309351,-3.2192057495498485,-3.2757368142685257,-3.332267878986976,-3.3887989437051904,-3.44533000842317,-3.5018610731409212,-3.5959784351342039,-3.7062047177776818,-3.8164310004209328,-3.926657283063951,-4.0368835657067388,-4.1471098483492863,-4.2573361309916047,-4.3675624136336966,-4.4777886962755531,-4.58801497891718,-4.6982412615585707,-4.8084675441997371,-4.91869382684066,-5.0289201094813611,-5.1391463921218286,-5.24937267476206,-5.3595989574020573,-5.4698252400418257,-5.5800515226813658,-5.6902778053206724,-5.8463183752732268,-6.0138130583602578,-6.1813077414469895,-6.34880242453342,-6.5162971076195593,-6.6837917907053894,-6.8512864737909291,-7.0187811568761651,-7.1862758399610955,-7.3537705230457426,-7.521265206130078,-7.6887598892141149,-7.856254572297857,-8.023749255381297,-8.1912439384644387,-8.3587386215472854,-8.5262333046298213,-8.693727987712073,-8.8612226707940174,-9.02871735387567,-9.24976391908433,-9.476761255842483,-9.7037585926003231,-9.9307559293578329,-10.157753266115016,-10.384750602871875,-10.611747939628417,-10.83874527638463,-11.065742613140527,-11.292739949896102,-11.519737286651349,-11.746734623406283,-11.973731960160888,-12.200729296915172,-12.427726633669137,-12.654723970422772,-12.881721307176102,-13.108718643929082,-13.335715980681757,-13.562713317434103,0,0.013173599428312407,0.02613436240363947,0.042503576096440517,0.065509466591048018,0.095484985873252409,0.13251290420185458,0.17661786811482072,0.22779510718666288,0.28595654062020964,0.32811562044296205,0.42666808638776954
DP 445,307.87644378692397,0.0039380950590356522,-73.367063368631065,-71.742847794728334,-70.118632220823557,-68.494416646916477,-66.870201073007337,-65.245985499095866,-63.6217699251823,-61.997554351266466,-60.373338777348486,-58.749123203428312,-57.124907629505962,-55.50069205558146,-53.876476481654691,-52.252260907725748,-50.628045333794667,-49.003829759861361,-47.379614185925867,-45.7553986119882,-44.131183038048327,-42.506967464106268,-40.896678284810108,-39.411727973727096,-37.926777662641982,-36.441827351554629,-34.956877040465073,-33.4719267293733,-31.986976418279394,-30.502026107183234,-29.0170757960849,-27.532125484984384,-26.047175173881651,-24.562224862776738,-23.077274551669628,-21.59232424056032,-20.107373929448819,-18.622423618335116,-17.137473307219217,-15.652522996101121,-14.167572684980842,-12.682622373858367,-11.253359863871513,-10.046851190316749,-8.8403425167597778,-7.6338338432006054,-6.4273251696392384,-5.2208164960756562,-4.014307822509867,-2.80779914894187,-1.6012904753716795,-0.3947818017992778,0.81172687177533343,2.0182355453521579,3.2247442189311792,4.4312528925124113,5.63776156609585,6.8442702396814825,8.0507789132693333,9.257287586859384,10.46379626045163,11.6703049340461,12.760023052236733,13.577226194708198,14.39442933718192,15.211632479657855,16.028835622136043,16.84603876461647,17.663241907099145,18.480445049584038,19.29764819207119,20.114851334560583,20.932054477052208,21.749257619546057,22.566460762042148,23.383663904540484,24.200867047041079,25.018070189543881,25.835273332048946,26.652476474556238,27.469679617065783,28.286882759577534,28.915180573826465,29.260115931727128,29.605051289630119,29.949986647535326,30.294922005442803,30.639857363352569,30.98479272126454,31.329728079178821,31.674663437095319,32.019598795014119,32.364534152935164,32.709469510858447,33.054404868784005,33.39934022671185,33.7442755846419,34.08921094257424,34.434146300508864,34.779081658445719,35.124017016384876,35.468952374326221,35.187052159101228,35.005304005768664,34.823555852438375,34.64180769911038,34.460059545784695,34.278311392461283,34.096563239140146,33.9148150858213,33.733066932504784,33.5513187791905,33.369570625878517,33.187822472568818,33.00607431926143,32.824326165956322,32.642578012653495,32.460829859352927,32.27908170605469,32.097333552758677,31.581886904250283,30.843969335277222,30.1060517663065,29.368134197338133,28.630216628372143,27.89229905940849,27.154381490447278,26.416463921488408,25.678546352531875,24.94062878357774,24.202711214625982,23.46479364567659,22.726876076729557,21.988958507784911,21.25104093884261,20.513123369902697,19.775205800965139,19.037288232029951,18.299370663097154,17.561453094166726,16.426233377783891,15.120735947676083,13.815238517570569,12.509741087467415,11.204243657366566,9.8987462272681,8.593248797171956,7.2877513670781022,5.9822539369866279,4.6767565068974619,3.3712590768106474,2.0657616467261617,0.76026421664402866,-0.54523321343581266,-1.8507306435132678,-3.1562280735884243,-4.4617255036612224,-5.7672229337316834,-7.0727203637998288,-8.37821779386562,-10.138267540647668,-12.011960737247584,-13.885653933845038,-15.759347130440002,-17.633040327032493,-19.5067335236225,-21.380426720210053,-23.254119916795094,-25.127813113377645,-27.001506309957769,-28.87519950653537,-30.748892703110524,-32.622585899683152,-34.496279096253389,-36.369972292821046,-38.243665489386288,-40.117358685949036,-41.991051882509318,-43.864745079067063,-45.738438275622443,-48.121169339452678,-50.56046551244247,-52.999761685429775,-55.439057858414536,-57.878354031396768,-60.317650204376541,-62.756946377353714,-65.196242550328392,-67.635538723300527,-70.074834896270247,-72.514131069237436,-74.953427242202011,-77.392723415164141,-79.832019588123728,-82.271315761080828,-84.710611934035356,-87.149908106987525,-89.589204279936965,-92.028500452884089,-94.46779662582847,0,0.049642435372944139,0.13922982571000639,0.28871737612338516,0.50998112585543709,0.80432340449620654,1.1721648819395334,1.6132536134344257,2.1266122334347233,2.7102724452380529,3.143814305026039,4.1497796285233877
DP 446,204.05108631581567,0.0010775899490302679,-15.392828615253396,-15.077956583521789,-14.763084551789733,-14.448212520057211,-14.133340488324217,-13.818468456590773,-13.503596424856845,-13.188724393122465,-12.873852361387623,-12.558980329652309,-12.244108297916529,-11.929236266180277,-11.614364234443574,-11.299492202706405,-10.984620170968766,-10.669748139230666,-10.3548761074921,-10.040004075753073,-9.72513204401358,-9.4102600122736142,-9.0977990546986547,-8.8070379925175519,-8.5162769303359571,-8.22551586815392,-7.9347548059713935,-7.6439937437884069,-7.35323268160495,-7.0624716194210153,-6.771710557236629,-6.4809494950517648,-6.1901884328664316,-5.8994273706806295,-5.6086663084943567,-5.3179052463076211,-5.0271441841204139,-4.73638312193274,-4.44562205974459,-4.1548609975559749,-3.8640999353668919,-3.5733388731773426,-3.2924165168884358,-3.0508494491944496,-2.8092823814999854,-2.5677153138050381,-2.3261482461096188,-2.0845811784137176,-1.8430141107173366,-1.601447043020479,-1.3598799753231436,-1.1183129076253275,-0.87674583992703292,-0.63517877222825825,-0.39361170452900668,-0.15204463682927602,0.089522430870933534,0.33108949857162134,0.572656566272788,0.8142236339744322,1.0557907016765538,1.2973577693791551,1.5175994158601513,1.6880810742468546,1.8585627326340468,2.0290443910217264,2.1995260494098909,2.3700077077985422,2.5404893661876815,2.7109710245773058,2.8814526829674181,3.0519343413580193,3.2224159997490998,3.3928976581406758,3.5633793165327314,3.7338609749252778,3.9043426333183096,4.0748242917118285,4.2453059501058377,4.4157876085003274,4.5862692668953091,4.7567509252907767,4.8912014544951354,4.9716044384741567,5.0520074224536735,5.132410406433686,5.2128133904141949,5.2932163743952021,5.373619358376712,5.4540223423587157,5.5344253263412133,5.6148283103242038,5.6952312943077,5.7756342782916876,5.8560372622761738,5.9364402462611636,6.0168432302466366,6.0972462142326158,6.1776491982190915,6.2580521822060513,6.3384551661935218,6.4188581501814888,6.3956227188738834,6.3702477495883141,6.3448727803032607,6.319497811018703,6.2941228417346515,6.26874787245111,6.2433729031680762,6.2179979338855382,6.1926229646035171,6.1672479953219925,6.1418730260409848,6.1164980567604728,6.0911230874804669,6.0657481182009763,6.040373148921983,6.0149981796434986,5.9896232103655187,5.9642482410880469,5.8680370520096927,5.7246006004640737,5.5811641489189912,5.4377276973744273,5.2942912458304026,5.1508547942869027,5.007418342743934,4.8639818912014974,4.7205454396595821,4.5771089881182032,4.433672536577359,4.2902360850370389,4.1467996334972446,4.0033631819579911,3.8599267304192577,3.7164902788810554,3.5730538273433852,3.4296173758062443,3.286180924269634,3.142744472733555,2.9103061794703904,2.6397230379506014,2.369139896431331,2.0985567549125883,1.8279736133943596,1.5573904718766645,1.2868073303594907,1.0162241888428294,0.74564104732670211,0.47505790581108848,0.204474764296003,-0.066108377218562261,-0.336691518732601,-0.60727466024612564,-0.87785780175911721,-1.1484409432715941,-1.4190240847835431,-1.6896072262949688,-1.9601903678058772,-2.2307735093162595,-2.6079356179473341,-3.0117437276132852,-3.4155518372786768,-3.8193599469435053,-4.2231680566077774,-4.62697616627148,-5.0307842759346313,-5.4345923855972105,-5.8384004952592239,-6.2422086049206991,-6.64601671458159,-7.0498248242419237,-7.4536329339016882,-7.8574410435609163,-8.2612491532195591,-8.6650572628776512,-9.0688653725351749,-9.4726734821921426,-9.8764815918485471,-10.280289701504394,-10.807187815553391,-11.347763889500049,-11.888339963446125,-12.428916037391609,-12.969492111336535,-13.510068185280883,-14.050644259224654,-14.591220333167845,-15.131796407110498,-15.672372481052541,-16.212948554994021,-16.753524628934958,-17.294100702875291,-17.834676776815066,-18.375252850754237,-18.915828924692853,-19.456404998630905,-19.996981072568357,-20.5375571465053,-21.078133220441597,0,0.011782781631485977,0.032247610630588008,0.0659344595966326,0.11573024237785715,0.18191992193562856,0.26458962235154043,0.36368147766201891,0.47898013788718469,0.61005243695376576,0.70738848028669365,0.93342769712855889
DP 447,194.5274936882318,0.0015027724681984842,-20.835470107469483,-20.413521157657168,-19.991572207844222,-19.569623258030642,-19.147674308216459,-18.725725358401654,-18.303776408586195,-17.881827458770132,-17.459878508953455,-17.037929559136149,-16.615980609318221,-16.194031659499668,-15.772082709680475,-15.350133759860693,-14.928184810040269,-14.506235860219213,-14.084286910397548,-13.662337960575261,-13.240389010752351,-12.8184400609288,-12.399695492748007,-12.009790662248879,-11.619885831749128,-11.229981001248742,-10.840076170747729,-10.450171340246081,-10.06026650974381,-9.6703616792409068,-9.2804568487373782,-8.8905520182332225,-8.5006471877284238,-8.1107423572230068,-7.7208375267169549,-7.3309326962102794,-6.9410278657029743,-6.5511230351950367,-6.1612182046864694,-5.7713133741772751,-5.3814085436674457,-4.9915037131569964,-4.6146941287951906,-4.2902661479294206,-3.9658381670630045,-3.6414101861959458,-3.3169822053282458,-2.9925542244598993,-2.6681262435909106,-2.3436982627212721,-2.019270281850996,-1.6948423009800748,-1.3704143201085053,-1.0459863392362911,-0.72155835836343452,-0.3971303774899333,-0.072702396615787077,0.25172558425900304,0.57615356513443639,0.900581546010514,1.2250095268872339,1.5494375077645999,1.8454128548012891,2.0749978264052569,2.3045827980098781,2.5341677696151557,2.7637527412210878,2.9933377128276781,3.2229226844349186,3.4525076560428203,3.6820926276513752,3.9116775992605839,4.1412625708704507,4.3708475424809663,4.600432514092148,4.8300174857039773,5.0596024573164637,5.2891874289296048,5.518772400543404,5.74835737215786,5.9779423437729617,6.2075273153887318,6.3888882506846931,6.4979119919360651,6.6069357331880987,6.7159594744408118,6.8249832156941945,6.93400695694824,7.0430306982029638,7.1520544394583476,7.2610781807144145,7.3701019219711412,7.4791256632285465,7.58814940448662,7.6971731457453636,7.8061968870047682,7.9152206282648541,8.0242443695256078,8.1332681107870375,8.2422918520491244,8.3513155933118917,8.4603393345753233,8.4322146710420025,8.3991597887874825,8.3661049065336535,8.333050024280503,8.2999951420280347,8.26694025977625,8.2338853775251444,8.20083049527473,8.1677756130249914,8.1347207307759426,8.1016658485275759,8.0686109662798948,8.0355560840328923,8.0025012017865684,7.9694463195409284,7.9363914372959714,7.9033365550517054,7.870281672808118,7.7417291413063962,7.5495100058568667,7.357290870408062,7.1650717349599748,6.9728525995126,6.7806334640659394,6.5884143286199981,6.3961951931747718,6.2039760577302632,6.01175692228647,5.8195377868434024,5.6273186514010405,5.4350995159593989,5.2428803805184794,5.0506612450782677,4.85844210963878,4.666222974200001,4.4740038387619459,4.2817847033246066,4.0895655678879823,3.776945454192254,3.4127232954542843,3.0485011367170238,2.6842789779804725,2.3200568192446172,1.9558346605094858,1.5916125017750569,1.2273903430413222,0.86316818430831044,0.4989460255759921,0.13472386684439025,-0.22949829188650914,-0.59372045061669509,-0.95794260934618547,-1.3221647680749551,-1.6863869268030274,-2.0506090855303878,-2.4148312442570372,-2.7790534029829881,-3.1432755617082293,-3.652082211538048,-4.19703669244261,-4.7419911733464168,-5.2869456542494619,-5.83190013515174,-6.3768546160532669,-6.9218090969540267,-7.4667635778540156,-8.0117180587532477,-8.5566725396517356,-9.1016270205494436,-9.6465815014463967,-10.191535982342574,-10.736490463238011,-11.281444944132673,-11.826399425026567,-12.371353905919721,-12.916308386812092,-13.461262867703716,-14.006217348594584,-14.718462256646339,-15.449296746892418,-16.18013123713774,-16.910965727382248,-17.641800217626,-18.372634707868965,-19.103469198111149,-19.834303688352545,-20.56513817859318,-21.295972668833031,-22.026807159072121,-22.757641649310433,-23.488476139547956,-24.219310629784705,-24.95014512002064,-25.680979610255861,-26.411814100490272,-27.142648590723883,-27.87348308095676,-28.604317571188805,0,0.0161021425956485,0.043877071810687153,0.089494181156709735,0.15691185112505765,0.24651425741954833,0.35841605598691972,0.49253856144302027,0.648591381415942,0.82599014706831919,0.95772149040372734,1.2636749546117849
DP 448,142.40309760330152,0.0011448281781829997,-12.983855110923024,-12.740249987272142,-12.496644863620906,-12.25303973996934,-12.009434616317415,-11.76582949266516,-11.522224369012552,-11.278619245359598,-11.035014121706293,-10.79140899805266,-10.547803874398673,-10.304198750744341,-10.060593627089665,-9.81698850343465,-9.5733833797792833,-9.3297782561235714,-9.0861731324675183,-8.8425680088111154,-8.5989628851543785,-8.35535776149729,-8.1135409802580458,-7.8878194498239962,-7.6620979193895842,-7.4363763889548284,-7.2106548585197165,-6.9849333280842529,-6.7592117976484438,-6.5334902672122777,-6.3077687367757607,-6.0820472063389,-5.8563256759016813,-5.63060414546411,-5.4048826150261924,-5.1791610845879221,-4.9534395541493019,-4.7277180237103291,-4.5019964932710055,-4.2762749628313257,-4.0505534323913,-3.824831901950918,-3.6064631223537531,-3.4175056936317247,-3.2285482649093256,-3.0395908361865591,-2.8506334074634223,-2.6616759787399169,-2.4727185500160402,-2.283761121291795,-2.0948036925671811,-1.9058462638421987,-1.7168888351168445,-1.5279314063911227,-1.3389739776650296,-1.150016548938569,-0.96105912021173712,-0.77210169148453722,-0.58314426275696785,-0.39418683402902982,-0.20522940530072317,-0.016271976572046314,0.15655027099013658,0.29172325411806382,0.42689623724636927,0.56206922037505014,0.69724220350410759,0.83241518663354108,0.96758816976335216,1.1027611528935397,1.2379341360241034,1.3731071191550428,1.50828010228636,1.6434530854180536,1.7786260685501223,1.9137990516825707,2.04897203481539,2.1841450179485915,2.3193180010821681,2.4544909842161191,2.5896639673504485,2.7248369504851548,2.8323157311389577,2.8982525536396482,2.9641893761407268,3.0301261986422028,3.0960630211440661,3.161999843646325,3.2279366661489717,3.2938734886520158,3.3598103111554467,3.42574713365927,3.4916839561634911,3.5576207786680984,3.623557601173101,3.6894944236784935,3.7554312461842767,3.8213680686904565,3.887304891197028,3.9532417137039864,4.0191785362113421,4.0851153587190865,4.0759981488136994,4.0591637438774866,4.0423293389416761,4.0254949340062671,4.0086605290712622,3.9918261241366704,3.9749917192024693,3.9581573142686728,3.941322909335284,3.924488504402297,3.9076540994697124,3.8908196945375311,3.8739852896057503,3.8571508846743776,3.8403164797434055,3.8234820748128344,3.806647669882675,3.789813264952909,3.7165281716497072,3.6056083967897119,3.4946886219301505,3.3837688470710172,3.2728490722123142,3.1619292973540376,3.0510095224961939,2.9400897476387793,2.82916997278179,2.718250197925236,2.6073304230691106,2.4964106482134127,2.3854908733581475,2.2745710985033112,2.1636513236489012,2.052731548794926,1.9418117739413741,1.8308919990882546,1.7199722242355679,1.6090524493833089,1.4259968474255926,1.2120249169356945,0.99805298644621776,0.78408105595716882,0.57010912546853909,0.35613719498034219,0.14216526449256775,-0.071806665994789062,-0.28577859648171278,-0.49975052696821926,-0.71372245745429586,-0.92769438793995029,-1.1416663184251765,-1.3556382489099859,-1.5696101793943606,-1.7835821098783184,-1.9975540403618468,-2.2115259708449524,-2.4254979013276325,-2.6394698318098886,-2.9410063646082496,-3.2644350825812971,-3.5878638005538828,-3.9112925185259972,-4.2347212364976494,-4.5581499544688366,-4.88157867243956,-5.2050073904098131,-5.5284361083796023,-5.8518648263489306,-6.1752935443177828,-6.4987222622861767,-6.8221509802540892,-7.1455796982215638,-7.4690084161885517,-7.792437134155084,-8.1158658521211411,-8.4392945700867426,-8.76272328805187,-9.0861520060165386,-9.51161403503114,-9.948414170203451,-10.385214305375287,-10.822014440546646,-11.258814575717528,-11.695614710887924,-12.132414846057845,-12.569214981227267,-13.006015116396242,-13.442815251564717,-13.879615386732731,-14.316415521900277,-14.753215657067315,-15.1900157922339,-15.626815927399974,-16.063616062565604,-16.500416197730747,-16.937216332895385,-17.374016468059587,-17.810816603223287,0,0.010613526777779094,0.027750002800264975,0.0553161134814996,0.095984536943004392,0.14998099349587959,0.21736411394138311,0.29808499190674492,0.39197476019644745,0.49869362234304931,0.57788687524153071,0.76201889437155146
DP 449,186.19527765560949,0.0017829083074270371,-24.051324903415932,-23.568844703220314,-23.086364503024008,-22.60388430282697,-22.121404102629203,-21.638923902430768,-21.156443702231591,-20.673963502031697,-20.191483301831116,-19.709003101629797,-19.226522901427774,-18.744042701225055,-18.261562501021604,-17.779082300817453,-17.296602100612578,-16.814121900407,-16.3316417002007,-15.849161499993709,-15.366681299786002,-14.884201099577561,-14.405360208504923,-13.959273443663282,-13.513186678820935,-13.067099913977861,-12.621013149134065,-12.174926384289558,-11.728839619444321,-11.282752854598357,-10.836666089751693,-10.390579324904298,-9.9444925600561813,-9.4984057952073542,-9.0523190303578,-8.6062322655075256,-8.1601455006565367,-7.7140587358048309,-7.267971970952396,-6.8218852060992461,-6.3757984412453679,-5.9297116763907889,-5.4985159994665915,-5.1268853780396677,-4.7552547566120085,-4.3836241351836076,-4.0119935137544713,-3.6403628923245961,-3.26873227089398,-2.8971016494626256,-2.5254710280305352,-2.1538404065977041,-1.7822097851641334,-1.4105791637298213,-1.0389485422947735,-0.667317920858986,-0.29568729942246019,0.075943322014805373,0.44757394345280888,0.819204564891549,1.1908351863310274,1.5624658077712457,1.9016779388402907,2.1652459042845882,2.428813869729642,2.692381835175444,2.9559498006219926,3.2195177660693,3.4830857315173542,3.7466536969661672,4.0102216624157236,4.2737896278660354,4.537357593317096,4.8009255587689106,5.0644935242214792,5.3280614896747966,5.5916294551288646,5.85519742058369,6.1187653860392581,6.3823333514955838,6.6459013169526582,6.909469282410484,7.1179517898028,7.2438048083921389,7.3696578269822508,7.4955108455731327,7.6213638641647767,7.7472168827572014,7.8730699013503962,7.9989229199443619,8.12477593853909,8.250628957134591,8.3764819757308651,8.50233499432791,8.6281880129257242,8.7540410315243076,8.879894050123653,9.0057470687237782,9.1316000873246743,9.257453105926345,9.38330612452877,9.509159143131976,9.4798066411568431,9.442894728951817,9.4059828167475743,9.3690709045441132,9.3321589923414461,9.2952470801395535,9.258335167938462,9.2214232557381415,9.184511343538615,9.1475994313398648,9.1106875191419068,9.0737756069447428,9.0368636947483552,8.99995178255275,8.963039870357937,8.9261279581639084,8.8892160459706577,8.8523041337782,8.7056644793537927,8.4858712681555915,8.2660780569582286,8.0462848457616811,7.8264916345659614,7.6066984233710695,7.3869052121770054,7.1671120009837654,6.9473187897913462,6.727525578599753,6.5077323674089937,6.2879391562190561,6.0681459450299435,5.8483527338416605,5.6285595226541991,5.4087663114675646,5.1889731002817472,4.9691798890967629,4.7493866779126073,4.5295934667292777,4.1710752088541962,3.753101486319443,3.3351277637855028,2.9171540412523838,2.4991803187200659,2.0812065961885806,1.6632328736579045,1.24525915112803,0.8272854285989889,0.40931170607074646,-0.00866201645667055,-0.42663573898327789,-0.84460946150906335,-1.2625831840340471,-1.6805569065582002,-2.09853062908155,-2.5165043516040786,-2.934478074125789,-3.3524517966466925,-3.7704255191667766,-4.3553626513395782,-4.9820426086361609,-5.6087225659318722,-6.2354025232266945,-6.8620824805206491,-7.48876243781372,-8.115442395105914,-8.7421223523972245,-9.3688023096876574,-9.9954822669772216,-10.622162224265873,-11.248842181553679,-11.875522138840577,-12.502202096126625,-13.128882053411775,-13.755562010696055,-14.382241967979446,-15.008921925261975,-15.6356018825436,-16.262281839824361,-17.082429260550459,-17.924075097980253,-18.765720935409142,-19.607366772837103,-20.449012610264194,-21.290658447690383,-22.132304285115662,-22.973950122540053,-23.815595959963538,-24.657241797386146,-25.498887634807804,-26.340533472228632,-27.182179309648514,-28.023825147067512,-28.865470984485597,-29.707116821902812,-30.548762659319106,-31.390408496734498,-32.232054334149026,-33.073700171562621,0,0.018741891568221293,0.050846903853266505,0.1034580291393016,0.18119711500394994,0.28450538391752916,0.41351279997719342,0.56812825475148765,0.74801824956073237,0.952511449174756,1.1043532974547967,1.4570590084187749
DP 450,84.026537607981112,0.0031482034150481235,-23.979401732576218,-23.620236506289363,-23.261071280002167,-22.901906053714594,-22.54274082742668,-22.183575601138397,-21.824410374849794,-21.465245148560811,-21.106079922271469,-20.746914695981783,-20.387749469691745,-20.028584243401344,-19.669419017110592,-19.31025379081948,-18.951088564528025,-18.591923338236207,-18.232758111944051,-17.873592885651515,-17.514427659358645,-17.155262433065424,-16.798696374102953,-16.465523066804806,-16.132349759506269,-15.799176452207362,-15.466003144908056,-15.132829837608384,-14.799656530308324,-14.46648322300787,-14.133309915707057,-13.800136608405856,-13.466963301104277,-13.133789993802294,-12.800616686499959,-12.467443379197224,-12.134270071894115,-11.801096764590627,-11.467923457286748,-11.134750149982494,-10.801576842677852,-10.468403535372833,-10.145935351829607,-9.86628816927371,-9.5866409867173363,-9.30699380416051,-9.02734662160323,-8.7476994390454745,-8.4680522564872618,-8.1884050739285925,-7.9087578913694623,-7.6291107088098631,-7.3494635262498074,-7.06981634368929,-6.7901691611283095,-6.5105219785668709,-6.2308747960049713,-5.9512276134426054,-5.6715804308797813,-5.3919332483165,-5.1122860657527527,-4.8326388831885492,-4.5765865598033209,-4.37558965125045,-4.1745927426971008,-3.9735958341432762,-3.7725989255889827,-3.5716020170342127,-3.3706051084789683,-3.1696081999232475,-2.9686112913670519,-2.767614382810383,-2.5666174742532424,-2.3656205656956262,-2.1646236571375335,-1.9636267485789669,-1.762629840019927,-1.5616329314604103,-1.3606360229004208,-1.1596391143399558,-0.9586422057790166,-0.75764529721760432,-0.59734487260549163,-0.49809013560126719,-0.39883539859650807,-0.29958066159121283,-0.20032592458538254,-0.10107118757901526,-0.0018164505721139307,0.0974382864353224,0.19669302344329381,0.29594776045180288,0.39520249746084563,0.49445723447042406,0.59371197148053745,0.69296670849118569,0.79222144550237128,0.89147618251409122,0.99073091952634729,1.0899856565391395,1.1892403935524654,1.2884951305663241,1.2803519014350893,1.2572434310617477,1.2341349606889813,1.211026490316784,1.1879180199451602,1.1648095495741071,1.1417010792036275,1.1185926088337144,1.0954841384643781,1.0723756680956102,1.0492671977274177,1.0261587273597959,1.003050256992742,0.979941786626265,0.9568333162603575,0.93372484589502069,0.91061637553025687,0.88750790516606537,0.78046846089780741,0.61747371180255528,0.45447896270795629,0.29148421361399951,0.12848946452069335,-0.034505284571967533,-0.19750003366397378,-0.36049478275533331,-0.52348953184604818,-0.68648428093611213,-0.84947903002552172,-1.0124737791142893,-1.1754685282024071,-1.3384632772898721,-1.5014580263766941,-1.6644527754628635,-1.8274475245483894,-1.9904422736332623,-2.153437022717485,-2.3164317718010619,-2.5872686227664232,-2.9043249735997754,-3.2213813244324836,-3.5384376752645483,-3.8554940260959714,-4.1725503769267425,-4.4896067277568683,-4.8066630785863609,-5.1237194294151944,-5.4407757802434018,-5.7578321310709537,-6.0748884818978608,-6.3919448327241222,-6.7090011835497494,-7.0260575343747211,-7.3431138851990569,-7.6601702360227337,-7.9772265868457746,-8.2942829376681786,-8.6113392884899334,-9.0598380665146649,-9.54119900436222,-10.022559942209019,-10.503920880055063,-10.985281817900363,-11.466642755744905,-11.948003693588678,-12.429364631431698,-12.910725569273978,-13.392086507115506,-13.873447444956261,-14.354808382796278,-14.836169320635522,-15.317530258474035,-15.798891196311759,-16.28025213414875,-16.761613071984964,-17.242974009820475,-17.724334947655191,-18.205695885489167,-18.840648531722994,-19.492668536419018,-20.14468854111427,-20.796708545808709,-21.448728550502366,-22.100748555195231,-22.752768559887322,-23.404788564578592,-24.056808569269077,-24.708828573958787,-25.360848578647683,-26.012868583335806,-26.664888588023125,-27.316908592709659,-27.968928597395404,-28.620948602080361,-29.2729686067645,-29.924988611447851,-30.577008616130435,-31.229028620812208,0,0.023135443098506854,0.0522782645860935,0.09504648738376073,0.15746149070625956,0.23996507677405859,0.34262184139928176,0.465365801338245,0.60799479195509309,0.770075950812098,0.8897038845182027,1.1687793088259997
DP 451,82.934230597184126,0.0054715917719641641,-41.224589148305704,-40.612194365877635,-39.999799583448969,-39.387404801019755,-38.775010018589931,-38.162615236159461,-37.550220453728443,-36.937825671296835,-36.325430888864638,-35.713036106431851,-35.100641323998467,-34.488246541564472,-33.875851759129866,-33.263456976694705,-32.65106219425892,-32.038667411822566,-31.426272629385643,-30.813877846948078,-30.201483064509951,-29.589088282071234,-28.98112488654867,-28.4130443921503,-27.844963897751313,-27.276883403351643,-26.708802908951377,-26.140722414550449,-25.572641920148882,-25.004561425746672,-24.436480931343851,-23.868400436940345,-23.3003199425362,-22.732239448131441,-22.164158953726041,-21.596078459319983,-21.027997964913304,-20.459917470505967,-19.891836976098013,-19.323756481689397,-18.755675987280149,-18.187595492870251,-17.637765763065271,-17.16093995423827,-16.6841141454105,-16.207288336581957,-15.730462527752627,-15.253636718922515,-14.776810910091632,-14.299985101259976,-13.823159292427503,-13.346333483594284,-12.869507674760271,-12.392681865925478,-11.915856057089911,-11.439030248253559,-10.962204439416425,-10.485378630578509,-10.008552821739821,-9.5317270129003546,-9.0549012040601049,-8.5780753952190825,-8.1414757670380986,-7.7987384944898324,-7.4560012219407605,-7.1132639493908858,-6.7705266768402037,-6.427789404288724,-6.0850521317364414,-5.7423148591833435,-5.3995775866294613,-5.0568403140747664,-4.7141030415192713,-4.3713657689629768,-4.0286284964058714,-3.6858912238479689,-3.3431539512892625,-3.0004166787297519,-2.6576794061694367,-2.3149421336083207,-1.9722048610464014,-1.6294675884836842,-1.3561182564456862,-1.1868524748761684,-1.017586693305746,-0.84832091173440893,-0.67905513016216557,-0.50978934858900826,-0.34052356701494918,-0.17125778543997378,-0.0019920038640941907,0.16727377771269683,0.33653955929039964,0.50580534086900808,0.67507112244852885,0.84433690402895611,1.0136026856102973,1.1828684671925447,1.3521342487757009,1.521400030359771,1.6906658119447484,1.859931593530634,1.8461733559298916,1.8068165101876554,1.7674596644463918,1.7281028187060974,1.688745972966782,1.6493891272284362,1.6100322814910704,1.5706754357546626,1.5313185900192381,1.4919617442847808,1.4526048985513051,1.413248052818795,1.3738912070872575,1.3345343613566947,1.2951775156271048,1.255820669898488,1.216463824170843,1.1771069784441728,0.99463968969574945,0.71676318441230846,0.43888667912998,0.16101017384875127,-0.11686633143137133,-0.39474283671039234,-0.67261934198829376,-0.95049584726509639,-1.2283723525407975,-1.5062488578153872,-1.7841253630888594,-2.062001868361238,-2.3398783736325073,-2.6177548789026623,-2.8956313841717214,-3.1735078894396662,-3.4513843947065164,-3.729260899972251,-4.0071374052368691,-4.28501391050039,-4.7467701290521607,-5.2873344219622123,-5.8278987148711625,-6.368463007779015,-6.9090273006857714,-7.4495915935914105,-7.99015588649596,-8.5307201793994185,-9.0712844723017643,-9.6118487652030318,-10.15241305810318,-10.69297735100224,-11.233541643900184,-11.774105936797051,-12.314670229692798,-12.855234522587455,-13.395798815480997,-13.936363108373463,-14.47692740126482,-15.017491694155073,-15.782188539583233,-16.60292117132277,-17.423653803061022,-18.244386434797988,-19.065119066533658,-19.885851698268041,-20.706584330001132,-21.527316961732915,-22.348049593463436,-23.168782225192686,-23.989514856920575,-24.810247488647196,-25.630980120372538,-26.451712752096594,-27.272445383819335,-28.093178015540811,-28.913910647260987,-29.734643278979863,-30.555375910697446,-31.376108542413753,-32.45874473104827,-33.570484065516744,-34.682223399983904,-35.793962734449678,-36.90570206891406,-38.01744140337717,-39.129180737838844,-40.240920072299176,-41.352659406758171,-42.464398741215831,-43.576138075672105,-44.687877410127051,-45.79961674458059,-46.911356079032828,-48.023095413483659,-49.134834747933184,-50.246574082381358,-51.358313416828061,-52.470052751273549,-53.581792085717595,0,0.040033448185569177,0.090020792385127044,0.16308097692454332,0.26963213612878129,0.41044354005821448,0.58562728327684455,0.79507297042238489,1.0384410883121713,1.314999753437696,1.5190547615254981,1.995138205547323
DP 452,152.19068661747451,0.0058627350591096842,-69.503994288629343,-68.175772495396416,-66.847550702161456,-65.519328908924692,-64.191107115685952,-62.862885322445372,-61.534663529202824,-60.206441735958386,-58.878219942712043,-57.549998149463825,-56.221776356213653,-54.893554562961555,-53.565332769707545,-52.237110976451696,-50.908889183193885,-49.580667389934213,-48.252445596672608,-46.924223803409049,-45.596002010143593,-44.26778021687624,-42.949355859916608,-41.719109355837247,-40.488862851755954,-39.258616347672714,-38.0283698435876,-36.798123339500449,-35.567876835411454,-34.337630331320433,-33.10738382722748,-31.877137323132608,-30.646890819035782,-29.416644314937024,-28.186397810836343,-26.956151306733695,-25.725904802629103,-24.495658298522574,-23.265411794414103,-22.035165290303702,-20.804918786191344,-19.57467228207706,-18.384673227882779,-17.355665875524931,-16.326658523165058,-15.297651170803148,-14.268643818439203,-13.239636466073256,-12.210629113705272,-11.181621761335252,-10.152614408963219,-9.1236070565891509,-8.0945997042130564,-7.065592351834928,-6.0365849994547762,-5.007577647072603,-3.9785702946883976,-2.9495629423021628,-1.9205555899139071,-0.89154823752362755,0.13745911486867529,1.16646646726301,2.1072758854978817,2.8422873451315658,3.577298804767322,4.312310264405137,5.0473217240450179,5.7823331836869629,6.5173446433309747,7.2523561029770551,7.9873675626252023,8.7223790222754047,9.4573904819276837,10.192401941582011,10.927413401238406,11.662424860896889,12.39743632055742,13.132447780220012,13.867459239884674,14.602470699551406,15.337482159220205,16.072493618891063,16.656388069771971,17.013603436476146,17.370818803182484,17.728034169890929,18.085249536601527,18.442464903314278,18.79968027002915,19.156895636746157,19.51411100346532,19.871326370186623,20.228541736910064,20.58575710363565,20.942972470363355,21.300187837093215,21.657403203825208,22.01461857055935,22.371833937295644,22.729049304034049,23.086264670774611,23.443480037517322,23.388244514800917,23.294706380251707,23.2011682457047,23.107630111159907,23.014091976617298,22.920553842076853,22.827015707538642,22.7334775730026,22.639939438468776,22.546401303937124,22.452863169407674,22.359325034880445,22.26578690035538,22.172248765832535,22.078710631311871,21.985172496793407,21.891634362277124,21.79809622776305,21.3977523854191,20.792866571193453,20.187980756970138,19.583094942749135,18.9782091285305,18.373323314314138,17.768437500100148,17.163551685888464,16.558665871679125,15.953780057472128,15.348894243267447,14.74400842906511,14.139122614865093,13.534236800667419,12.929350986472043,12.324465172279028,11.719579358088319,11.114693543899966,10.509807729713938,9.904921915530247,8.908700042022657,7.7447574302630455,6.5808148185057274,5.4168722067507282,4.2529295949979984,3.0889869832476187,1.9250443714995287,0.7611017597536992,-0.40284085198977926,-1.5667834637309961,-2.7307260754698852,-3.8946686872064844,-5.0586112989407619,-6.22255391067277,-7.3864965224024441,-8.5504391341298351,-9.71438174585491,-10.87832435757768,-12.042266969298167,-13.206209581016349,-14.844499022984989,-16.601380777031764,-18.358262531076065,-20.115144285117818,-21.872026039157074,-23.628907793193818,-25.385789547228057,-27.142671301259753,-28.899553055288948,-30.656434809315666,-32.413316563339841,-34.1701983173615,-35.927080071380637,-37.683961825397304,-39.440843579411386,-41.197725333423051,-42.954607087432123,-44.711488841438708,-46.468370595442771,-48.225252349444354,-50.534338120900337,-52.904785693773896,-55.275233266644875,-57.645680839513176,-60.016128412378947,-62.386575985242175,-64.75702355810283,-67.127471130960771,-69.497918703816339,-71.868366276669235,-74.238813849519516,-76.6092614223673,-78.9797089952124,-81.350156568055056,-83.720604140895034,-86.0910517137325,-88.461499286567332,-90.8319468593996,-93.20239443222934,-95.572842005056472,0,0.05612549981454918,0.14837265435463784,0.29758875090072606,0.51783124239137091,0.81032771599048548,1.1754102758403744,1.6128159133262845,2.1216207054121119,2.6999657003577577,3.12922799125064,4.1270294502244917
DP 453,69.62901034238493,0.0034285353216077512,-22.2664251447716,-21.975615650853385,-21.684806156934982,-21.393996663016392,-21.103187169097612,-20.812377675178634,-20.521568181259465,-20.230758687340089,-19.939949193420556,-19.649139699500818,-19.358330205580863,-19.067520711660741,-18.776711217740431,-18.485901723819918,-18.195092229899213,-17.90428273597832,-17.613473242057243,-17.322663748135952,-17.031854254214487,-16.741044760292823,-16.452337549087254,-16.182551081044824,-15.912764613002166,-15.64297814495928,-15.373191676916177,-15.103405208872847,-14.833618740829293,-14.563832272785515,-14.294045804741504,-14.024259336697279,-13.754472868652819,-13.484686400608153,-13.214899932563252,-12.945113464518133,-12.675326996472785,-12.405540528427215,-12.13575406038141,-11.865967592335409,-11.596181124289156,-11.3263946562427,-11.065264237821113,-10.838758426996632,-10.612252616171839,-10.385746805346717,-10.159240994521271,-9.9327351836955078,-9.7062293728694282,-9.4797235620430147,-9.253217751216301,-9.0267119403892533,-8.800206129561893,-8.57370031873421,-8.3471945079062024,-8.12068869707787,-7.894182886249224,-7.6676770754202552,-7.44117126459097,-7.2146654537613628,-6.9881596429314348,-6.76165383210119,-6.5542309661671734,-6.3913355729133121,-6.2284401796591062,-6.0655447864045788,-5.90264939314971,-5.7397539998945168,-5.576858606638984,-5.4139632133831226,-5.25106782012693,-5.0881724268704041,-4.9252770336135443,-4.762381640356355,-4.5994862470988309,-4.43659085384097,-4.273695460582787,-4.110800067324262,-3.9479046740654069,-3.785009280806221,-3.6221138875467029,-3.4592184942868553,-3.32924246236785,-3.2486462503656233,-3.1680500383629995,-3.0874538263599671,-3.0068576143565284,-2.9262614023526878,-2.8456651903484418,-2.7650689783437894,-2.6844727663387373,-2.6038765543332745,-2.5232803423274115,-2.4426841303211408,-2.3620879183144639,-2.281491706307385,-2.2008954942999,-2.1202992822920117,-2.0397030702837182,-1.9591068582750175,-1.8785106462659142,-1.797914434256408,-1.8036584448964106,-1.8220754787311344,-1.8404925125654139,-1.8589095463992491,-1.8773265802326342,-1.8957436140655775,-1.9141606478980682,-1.9325776817301203,-1.9509947155617233,-1.9694117493928824,-1.9878287832235917,-2.0062458170538551,-2.0246628508836779,-2.0430798847130522,-2.0614969185419789,-2.07991395237046,-2.0983309861984956,-2.1167480200260846,-2.2030969134155347,-2.3347347833584138,-2.4663726533007537,-2.5980105232425692,-2.729648393183854,-2.8612862631246081,-2.9929241330648271,-3.1245620030045194,-3.2561998729436796,-3.3878377428823097,-3.5194756128204032,-3.6511134827579732,-3.7827513526950103,-3.9143892226315105,-4.04602709256749,-4.1776649625029325,-4.3093028324378482,-4.4409407023722274,-4.5725785723060763,-4.7042164422393942,-4.9231730534742608,-5.1795531614848525,-5.4359332694949147,-5.6923133775044459,-5.9486934855134512,-6.2050735935219175,-6.4614537015298561,-6.7178338095372769,-6.974213917544156,-7.2305940255505163,-7.4869741335563447,-7.7433542415616436,-7.9997343495664124,-8.2561144575706624,-8.5124945655743574,-8.7688746735775513,-9.0252547815801982,-9.2816348895823211,-9.5380149975839164,-9.7943951055849858,-10.157216142654754,-10.546648669615372,-10.936081196575351,-11.325513723534673,-11.714946250493359,-12.104378777451384,-12.493811304408775,-12.883243831365505,-13.272676358321585,-13.662108885277025,-14.05154141223181,-14.440973939185957,-14.830406466139443,-15.219838993092297,-15.609271520044469,-15.998704046996037,-16.38813657394692,-16.777569100897185,-17.167001627846769,-17.556434154795728,-18.0702703375857,-18.59793045534169,-19.125590573097014,-19.653250690851618,-20.180910808605571,-20.708570926358806,-21.236231044111353,-21.763891161863206,-22.291551279614392,-22.819211397364864,-23.346871515114664,-23.874531632863786,-24.402191750612193,-24.929851868359918,-25.457511986106962,-25.985172103853298,-26.512832221598984,-27.040492339343931,-27.568152457088228,-28.09581257483179,0,0.02389520130710927,0.050205543012086115,0.086149537453277344,0.13785059269400599,0.2058354482745082,0.29019502060102442,0.39090830848372654,0.50786569569063289,0.64077486983656351,0.738202459973179,0.965830485707804
DP 454,175.21358430579031,0.0050941107215878266,-66.136269581787076,-64.827595082850436,-63.518920583911957,-62.210246084971438,-60.901571586029114,-59.592897087084772,-58.284222588138547,-56.975548089190447,-55.666873590240371,-54.3581990912884,-53.049524592334521,-51.74085009337869,-50.432175594420904,-49.123501095461258,-47.814826596499657,-46.506152097536145,-45.19747759857075,-43.888803099603379,-42.58012860063409,-41.2714541016629,-39.972570153153605,-38.761802084261888,-37.551034015368174,-36.34026594647257,-35.129497877574977,-33.918729808675472,-32.707961739774,-31.49719367087059,-30.28642560196522,-29.075657533057939,-27.864889464148693,-26.654121395237478,-25.443353326324324,-24.232585257409223,-23.021817188492189,-21.811049119573198,-20.600281050652267,-19.389512981729382,-18.17874491280455,-16.967976843877789,-15.797330241179111,-14.78717139959504,-13.777012558008956,-12.766853716420863,-11.756694874830773,-10.746536033238668,-9.73637719164456,-8.72621835004844,-7.7160595084503267,-6.7059006668501908,-5.6957418252480529,-4.6855829836439042,-3.6754241420377491,-2.665265300429589,-1.6551064588194202,-0.64494761720724336,0.36521122440693782,1.3753700660231223,2.38552890764131,3.3956877492615112,4.3182936969028125,5.0366068000211763,5.75491990314159,6.4732330062640422,7.1915461093885424,7.9098592125150793,8.6281723156436634,9.3464854187742876,10.064798521906949,10.783111625041661,11.501424728178415,12.219737831317204,12.938050934458051,13.656364037600923,14.374677140745863,15.092990243892812,15.811303347041825,16.529616450192883,17.24792955334598,17.966242656501123,18.535330257951127,18.88057608054913,19.225821903149221,19.571067725751433,19.916313548355706,20.261559370962111,20.606805193570636,20.952051016181223,21.297296838793919,21.642542661408729,21.987788484025625,22.333034306644613,22.67828012926573,23.023525951888907,23.36877177451418,23.714017597141613,24.059263419771082,24.404509242402682,24.7497550650364,25.095000887672164,25.024581177963224,24.927363293109583,24.830145408258055,24.732927523408677,24.635709638561472,24.538491753716364,24.441273868873441,24.344055984032643,24.246838099193994,24.149620214357487,24.052402329523158,23.955184444690929,23.857966559860863,23.760748675032932,23.663530790207172,23.56631290538353,23.469095020562062,23.371877135742704,22.975310394349115,22.379173032717311,21.783035671087781,21.186898309460503,20.590760947835477,19.994623586212711,19.398486224592215,18.802348862973972,18.206211501357995,17.61007413974427,17.013936778132816,16.417799416523618,15.821662054916681,15.225524693312009,14.62938733170958,14.033249970109425,13.437112608511518,12.840975246915873,12.244837885322514,11.6487005237314,10.6728601700066,9.53428483533681,8.39570950066923,7.2571341660039019,6.1185588313407759,4.9799834966799255,3.841408162021291,2.7028328273648516,1.5642574927106909,0.42568215805872173,-0.71289317659099083,-1.8514685112384859,-2.9900438458837284,-4.12861918052678,-5.2671945151675539,-6.4057698498061288,-7.5443451844424541,-8.6829205190765464,-9.82149585370842,-10.960071188338052,-12.556853447980405,-14.268192852694835,-15.979532257406849,-17.690871662116439,-19.402211066823622,-21.1135504715284,-22.824889876230777,-24.536229280930673,-26.247568685628231,-27.958908090323355,-29.670247495015996,-31.381586899706306,-33.092926304394133,-34.804265709079594,-36.515605113762618,-38.22694451844324,-39.938283923121389,-41.649623327797229,-43.360962732470583,-45.072302137141556,-47.315504337023164,-49.617807988885417,-51.920111640745262,-54.22241529260247,-56.524718944457312,-58.827022596309661,-61.129326248159529,-63.431629900006889,-65.733933551851848,-68.036237203694327,-70.33854085553439,-72.640844507371881,-74.943148159206913,-77.245451811039558,-79.547755462869659,-81.850059114697245,-84.152362766522572,-86.454666418345084,-88.756970070165465,-91.0592737219831,0,0.05210419189930051,0.14040721746448764,0.28461873125070092,0.49764605278042445,0.78069140599852793,1.1341015055444257,1.5576256140246274,2.050354609924705,2.6104601338212592,3.02631365134145,3.9924606636771496
DP 455,305.37603647251,0.001696279756420838,-31.425817008247741,-30.7311499539724,-30.036482899696157,-29.341815845418935,-28.64714879114079,-27.95248173686171,-27.257814682581689,-26.563147628300719,-25.868480574018832,-25.173813519735976,-24.4791464654522,-23.784479411167482,-23.089812356881819,-22.395145302595225,-21.700478248307693,-21.005811194019213,-20.311144139729812,-19.616477085439456,-18.921810031148141,-18.227142976855934,-17.538414534663158,-16.903134162716302,-16.267853790768523,-15.632573418819787,-14.997293046870094,-14.362012674919491,-13.726732302967914,-13.091451931015403,-12.456171559061954,-11.820891187107568,-11.185610815152234,-10.550330443195955,-9.9150500712387384,-9.2797696992805818,-8.644489327321482,-8.00920895536144,-7.3739285834004553,-6.7386482114385275,-6.1033678394756565,-5.4680874675118476,-4.8565673468779975,-4.3400893545093773,-3.8236113621398071,-3.3071333697692911,-2.7906553773978304,-2.2741773850254225,-1.7576993926520676,-1.2412214002777651,-0.724743407902519,-0.20826541552632483,0.30821257685081788,0.82469056922891038,1.3411685616079458,1.8576465539879305,2.37412454636886,2.8906025387507372,3.4070805311335612,3.9235585235173303,4.440036515902043,4.9565145082877029,5.4231200635208294,5.7733550273761853,6.1235899912325005,6.4738249550897793,6.8240599189480129,7.1742948828072119,7.5245298466673729,7.8747648105284931,8.2249997743905752,8.5752347382536254,8.9254697021176259,9.2757046659825857,9.6259396298485171,9.9761745937153989,10.326409557583254,10.676644521452063,11.026879485321833,11.377114449192565,11.727349413064269,12.077584376936912,12.347057114990072,12.495384605850864,12.643712096712619,12.792039587575358,12.94036707843906,13.088694569303735,13.237022060169378,13.38534955103599,13.533677041903578,13.682004532772133,13.830332023641651,13.978659514512147,14.126987005383615,14.275314496256037,14.423641987129455,14.571969478003822,14.720296968879179,14.868624459755504,15.016951950632782,15.165279441511027,15.046546166494526,14.969386932047129,14.892227697600704,14.815068463155281,14.737909228710819,14.660749994267359,14.583590759824869,14.506431525383348,14.429272290942844,14.352113056503285,14.274953822064726,14.197794587627163,14.120635353190554,14.043476118754937,13.966316884320303,13.889157649886648,13.81199841545398,13.734839181022306,13.514591385947211,13.198948962934017,12.883306539921852,12.567664116910688,12.252021693900534,11.936379270891409,11.620736847883304,11.305094424876213,10.989452001870138,10.673809578865077,10.358167155861045,10.042524732858025,9.7268823098560233,9.4112398868550446,9.0955974638550749,8.7799550408561284,8.4643126178581909,8.1486701948612765,7.8330277718653907,7.517385348870512,7.031113610879471,6.4717127195770008,5.912311828275512,5.3529109369750465,4.7935100456755588,4.2341091543771041,3.6747082630796406,3.1153073717831621,2.5559064804877116,1.9965055891932448,1.4371046978997932,0.87770380660733749,0.31830291531589344,-0.2410979759745657,-0.80049886726400032,-1.3598997585524484,-1.919300649839885,-2.4787015411263145,-3.03810243241175,-3.5975033236961784,-4.3523896783877127,-5.1561497086361445,-5.9599097388835123,-6.7636697691298151,-7.5674297993750566,-8.3711898296192384,-9.1749498598623553,-9.9787098901043834,-10.782469920345376,-11.586229950585311,-12.389989980824154,-13.193750011061958,-13.997510041298655,-14.801270071534331,-15.605030101768923,-16.408790132002459,-17.212550162234923,-18.016310192466346,-18.820070222696675,-19.623830252925949,-20.646716948926478,-21.693953353594981,-22.74118975826244,-23.788426162928765,-24.835662567594049,-25.882898972258232,-26.93013537692136,-27.977371781583347,-29.024608186244308,-30.071844590904171,-31.119080995562946,-32.16631740022067,-33.213553804877272,-34.26079020953285,-35.30802661418727,-36.355263018840674,-37.402499423492991,-38.449735828144178,-39.496972232794349,-40.544208637443376,0,0.021335865697853139,0.059820630367237483,0.1240246220159474,0.21905406117503751,0.34546804018660515,0.50344700162914335,0.69288270975911159,0.91335545747958169,1.1640203337234509,1.3502133587439729,1.7822499908568354
DP 456,189.48699021148744,0.0045432666098624095,-61.965245732544204,-60.717425845109915,-59.469605957673764,-58.221786070235737,-56.973966182795905,-55.726146295354233,-54.478326407910728,-53.230506520465369,-51.98268663301814,-50.734866745569107,-49.487046858118177,-48.239226970665477,-46.991407083210881,-45.743587195754472,-44.49576730829618,-43.247947420836084,-42.00012753337414,-40.752307645910371,-39.504487758444725,-38.256667870977239,-37.018284818626014,-35.864834174346015,-34.711383530064104,-33.557932885780325,-32.4044822414947,-31.251031597207206,-30.097580952917856,-28.944130308626661,-27.790679664333588,-26.637229020038678,-25.483778375741892,-24.330327731443234,-23.17687708714271,-22.023426442840329,-20.869975798536103,-19.716525154230009,-18.563074509922057,-17.40962386561224,-16.256173221300539,-15.102722576987009,-13.987867308355316,-13.027395366527758,-12.066923424698283,-11.106451482866904,-10.14597954103362,-9.18550759919843,-8.225035657361321,-7.26456371552231,-6.304091773681388,-5.3436198318385646,-4.3831478899938228,-3.4226759481471682,-2.4622040062986144,-1.5017320644481458,-0.541260122595769,0.41921181925851686,1.3796837611147112,2.3401557029728091,3.3006276448328093,4.2610995866947246,5.1376131854544971,5.8182213383257251,6.4988294911989,7.1794376440740191,7.8600457969510691,8.5406539498300749,9.2212621027110213,9.9018702555938987,10.582478408478721,11.263086561365489,11.943694714254196,12.624302867144849,13.304911020037434,13.985519172931969,14.666127325828446,15.346735478726872,16.027343631627229,16.70795178452952,17.388559937433769,18.069168090339943,18.607254843372374,18.931556128722097,19.255857414073791,19.580158699427496,19.904459984783188,20.228761270140861,20.553062555500517,20.877363840862174,21.201665126225819,21.52596641159143,21.850267696959037,22.17456898232864,22.498870267700227,22.823171553073809,23.147472838449385,23.471774123826943,23.796075409206473,24.120376694588025,24.444677979971519,24.76897926535705,24.690258554155665,24.593909217391,24.497559880628373,24.401210543867759,24.304861207109166,24.208511870352602,24.112162533598092,24.015813196845588,23.91946386009511,23.823114523346685,23.726765186600247,23.63041584985584,23.534066513113487,23.437717176373141,23.341367839634838,23.245018502898553,23.148669166164296,23.052319829432083,22.672715990833165,22.104271355346874,21.53582671986273,20.967382084380706,20.398937448900824,19.830492813423046,19.262048177947428,18.693603542473923,18.125158907002533,17.556714271533288,16.9882696360662,16.419825000601215,15.851380365138343,15.28293572967765,14.714491094219046,14.146046458762569,13.577601823308221,13.009157187856015,12.440712552405943,11.872267916958005,10.946093632375966,9.8666018105573574,8.7871099887408484,7.7076181669264416,6.6281263451141106,5.548634523303928,4.4691427014958318,3.3896508796898019,2.3101590578859166,1.2306672360840969,0.15117541428440148,-0.92831640751320343,-2.00780822930869,-3.0873000511021105,-4.1667918728933913,-5.246283694682595,-6.3257755164696805,-7.4052673382546619,-8.48475916003756,-9.56425098181835,-11.073916339218169,-12.69113016312078,-14.308343987021136,-15.925557810919207,-17.542771634815029,-19.159985458708576,-20.777199282599867,-22.394413106488869,-24.011626930375623,-25.628840754260136,-27.246054578142324,-28.863268402022314,-30.480482225899962,-32.097696049775422,-33.714909873648544,-35.332123697519457,-36.949337521388074,-38.566551345254453,-40.183765169118509,-41.800978992980355,-43.916374780891587,-46.087129352479785,-48.257883924065666,-50.428638495649118,-52.599393067230345,-54.770147638809284,-56.940902210385822,-59.111656781960065,-61.282411353532012,-63.453165925101636,-65.623920496668973,-67.794675068234042,-69.965429639796739,-72.136184211357161,-74.306938782915154,-76.477693354470915,-78.648447926024417,-80.819202497575461,-82.989957069124287,-85.1607116406707,0,0.048128701329243108,0.13080881704689093,0.26642242530035576,0.46682319502109848,0.73315040551193666,1.0657413615427,1.4643618707922041,1.9281503071553325,2.4553738863375165,2.8468616941582008,3.7561821310548553
DP 457,201.44939695396786,0.0013207873645306653,-18.71636575437827,-18.33452726679149,-17.952688779204163,-17.570850291616278,-17.18901180402781,-16.807173316438796,-16.425334828849216,-16.043496341259068,-15.661657853668363,-15.279819366077088,-14.897980878485253,-14.516142390892858,-14.134303903299889,-13.752465415706359,-13.370626928112271,-12.988788440517611,-12.606949952922399,-12.225111465326609,-11.843272977730265,-11.46143449013335,-11.08251313795267,-10.729846280262725,-10.377179422572215,-10.02451256488113,-9.6718457071894779,-9.3191788494972574,-8.9665119918044631,-8.6138451341111146,-8.2611782764171888,-7.9085114187226884,-7.5558445610276213,-7.2031777033319955,-6.8505108456357924,-6.4978439879390208,-6.1451771302416818,-5.7925102725437743,-5.4398434148452974,-5.0871765571462522,-4.7345096994466314,-4.3818428417464519,-4.0410845029534324,-3.7479608026039424,-3.4548371022538782,-3.161713401903226,-2.8685897015519974,-2.5754660012001875,-2.2823423008477937,-1.9892186004948216,-1.6960949001412668,-1.4029711997871321,-1.1098474994324141,-0.81672379907711323,-0.52360009872123359,-0.23047639836477188,0.0626473019922713,0.35577100234989556,0.6488947027081009,0.94201840306688578,1.2351421034262513,1.5282658037861994,1.7955603790844612,2.0025861820945003,2.2096119851051328,2.416637788116355,2.6236635911281687,2.8306893941405722,3.0377151971535725,3.2447410001671555,3.4517668031813349,3.6587926061961054,3.8658184092114611,4.0728442122274107,4.2798700152439544,4.48689581826109,4.6939216212788129,4.9009474242971267,5.1079732273160339,5.3149990303355317,5.5220248333556254,5.729050636376301,5.8923973653133261,5.9902244509603282,6.0880515366079484,6.1858786222561566,6.2837057079049874,6.3815327935544071,6.4793598792044405,6.5771869648550725,6.6750140505063085,6.7728411361581538,6.8706682218105914,6.9684953074636367,7.0663223931172885,7.1641494787715461,7.2619765644264085,7.3598036500818633,7.4576307357379337,7.5554578213946062,7.6532849070518738,7.7511119927097472,7.7236994961396324,7.6931688377297505,7.6626381793204912,7.6321075209118394,7.6015768625038014,7.5710462040963842,7.54051554568958,7.5099848872833919,7.4794542288778088,7.4489235704728536,7.4183929120685086,7.3878622536647747,7.3573315952616607,7.326800936859156,7.2962702784572722,7.2657396200559976,7.2352089616553394,7.2046783032552995,7.088100457973483,6.9141564658746226,6.7402124737764186,6.5662684816788532,6.3923244895819389,6.21838049748566,6.0444365053900277,5.8704925132950425,5.6965485212006932,5.5226045291069976,5.3486605370139442,5.1747165449215329,5.0007725528297646,4.8268285607386483,4.6528845686481661,4.478940576558327,4.30499658446914,4.1310525923805939,3.9571086002926954,3.7831646082054413,3.5010024511704749,3.17245961930409,2.8439167874383404,2.5153739555732315,2.1868311237087465,1.858288291844912,1.5297454599817073,1.2012026281191286,0.87265979625719825,0.54411696439589308,0.21557413253523036,-0.11296869932480048,-0.44151153118419073,-0.77005436304295549,-1.0985971949010718,-1.4271400267585628,-1.7556828586154136,-2.0842256904716248,-2.4127685223272075,-2.7413113541821512,-3.19954693432628,-3.6902072338919796,-4.1808675334570005,-4.671527833021333,-5.1621881325849879,-5.6528484321479535,-6.1435087317102433,-6.6341690312718411,-7.124829330832755,-7.615489630393,-8.1061499299525419,-8.59681022951142,-9.087470529069595,-9.5781308286271,-10.068791128183911,-10.559451427740045,-11.05011172729551,-11.54077202685027,-12.031432326404348,-12.522092625957747,-13.16261554019284,-13.819791429979233,-14.476967319764947,-15.134143209549945,-15.791319099334256,-16.448494989117869,-17.105670878900781,-17.76284676868298,-18.420022658464504,-19.077198548245313,-19.734374438025434,-20.391550327804865,-21.048726217583596,-21.705902107361613,-22.363077997138959,-23.020253886915572,-23.677429776691525,-24.334605666466732,-24.9917815562413,-25.64895744601511,0,0.014364549477631695,0.039269053471771433,0.080239966922194136,0.1407998736876932,0.22129494214639284,0.32182948310184767,0.44233300844554818,0.582543918707645,0.74193585773190329,0.8603007932054817,1.1351837397681017
DP 458,301.99575928211419,0.00539832197758809,-99.254193902056755,-97.064677509673061,-94.87516111728641,-92.68564472489669,-90.496128332504057,-88.3066119401084,-86.117095547709852,-83.9275791553083,-81.738062762903752,-79.548546370496268,-77.359029978085786,-75.169513585672291,-72.9799971932559,-70.790480800836463,-68.600964408414086,-66.411448015988768,-64.221931623560479,-62.032415231129121,-59.842898838694865,-57.653382446257638,-55.482510101999665,-53.479435953694122,-51.476361805385707,-49.473287657074238,-47.470213508759777,-45.4671393604424,-43.464065212121973,-41.460991063798573,-39.457916915472239,-37.454842767142885,-35.451768618810533,-33.448694470475232,-31.445620322136968,-29.442546173795662,-27.439472025451391,-25.436397877104152,-23.433323728753937,-21.430249580400719,-19.42717543204451,-17.424101283685353,-15.495671649654982,-13.865823600752488,-12.235975551846998,-10.606127502938508,-8.9762794540270257,-7.3464314051125408,-5.7165833561950556,-4.0867353072745711,-2.4568872583510966,-0.82703920942462139,0.80280883950485837,2.4326568884373465,4.0625049373728261,5.6923529863113043,7.3222010352527773,8.9520490841972542,10.58189713314473,12.211745182095195,13.841593231048657,15.471441280005113,16.9444250671628,18.051387301057819,19.158349534955892,20.265311768857028,21.372274002761174,22.479236236668385,23.586198470578655,24.693160704491934,25.800122938408293,26.907085172327697,28.014047406250089,29.121009640175586,30.227971874104089,31.334934108035633,32.441896341970285,33.5488585759079,34.655820809848613,35.762783043792382,36.869745277739142,37.97670751168895,38.829254682654856,39.300173247154042,39.771091811656248,40.242010376161581,40.712928940669968,41.1838475051814,41.654766069695924,42.125684634213542,42.596603198734236,43.067521763257972,43.538440327784791,44.009358892314694,44.480277456847674,44.951196021383687,45.422114585922827,45.893033150465016,46.363951715010288,46.834870279558615,47.30578884411004,47.776707408664485,47.410279058887447,47.169522660699492,46.928766262514642,46.688009864332905,46.44725346615428,46.206497067978781,45.965740669806365,45.724984271637084,45.484227873470914,45.243471475307842,45.002715077147911,44.761958678991043,44.521202280837315,44.2804458826867,44.039689484539153,43.798933086394783,43.558176688253518,43.317420290115315,42.624102375365339,41.629069653350754,40.634036931339416,39.63900420933124,38.643971487326304,37.6489387653246,36.653906043326131,35.658873321330866,34.6638405993388,33.668807877350012,32.673775155364453,31.678742433382073,30.683709711402962,29.688676989427076,28.693644267454392,27.698611545484937,26.7035788235187,25.708546101555719,24.713513379595934,23.7184806576394,22.182642157604231,20.415022450115242,18.647402742629403,16.879783035146772,15.11216332766727,13.344543620191018,11.576923912717941,9.80930420524796,8.04168449778123,6.2740647903176283,4.5064450828572378,2.7388253754000105,0.97120566794598706,-0.79641403950491452,-2.5640337469525707,-4.3316534543970953,-6.0992731618384166,-7.866892869276553,-9.63451257671154,-11.402132284143335,-13.790480840481582,-16.334018943098688,-18.877557045712457,-21.421095148322831,-23.964633250929865,-26.508171353533495,-29.051709456133789,-31.595247558730637,-34.138785661324135,-36.682323763914312,-39.225861866501042,-41.769399969084454,-44.312938071664419,-46.856476174241088,-49.400014276814353,-51.943552379384279,-54.487090481950787,-57.030628584513906,-59.5741666870737,-62.117704789630068,-65.357931200258847,-68.675574739808326,-71.993218279354281,-75.31086181889674,-78.62850535843593,-81.9461488979715,-85.2637924375038,-88.581435977032513,-91.89907951655799,-95.216723056079928,-98.534366595598485,-101.85201013511352,-105.16965367462521,-108.48729721413343,-111.80494075363828,-115.12258429313968,-118.44022783263759,-121.75787137213204,-125.07551491162333,-128.39315845111088,0,0.06769406339291599,0.18971371160452077,0.39322363661931209,0.69443336780248854,1.0951141255055512,1.5958366573506644,2.1962581162629551,2.8950485473465677,3.6895306618584383,4.2796676370867575,5.6490268611282541
DP 459,95.136549908291343,0.002951377169403573,-24.876865047215514,-24.477149637451518,-24.077434227687078,-23.677718817922187,-23.278003408156788,-22.878287998390988,-22.478572588624729,-22.078857178858,-21.679141769090805,-21.279426359323189,-20.879710949555097,-20.479995539786554,-20.08028013001757,-19.68056472024811,-19.280849310478207,-18.881133900707852,-18.481418490937031,-18.081703081165767,-17.681987671394058,-17.282272261621863,-16.885452812237187,-16.514697280082387,-16.143941747927112,-15.773186215771361,-15.402430683615121,-15.031675151458389,-14.660919619301215,-14.290164087143543,-13.919408554985392,-13.548653022826766,-13.177897490667661,-12.807141958508071,-12.436386426348001,-12.065630894187469,-11.694875362026448,-11.324119829864951,-10.953364297702977,-10.582608765540522,-10.211853233377584,-9.8410977012141814,-9.4822715497382024,-9.1711634848125048,-8.8600554198862564,-8.54894735495946,-8.23783929003212,-7.92673122510423,-7.6156231601757929,-7.304515095246817,-6.9934070303172895,-6.6822989653872158,-6.371190900456587,-6.0600828355254244,-5.7489747705937067,-5.4378667056614409,-5.1267586407286361,-4.8156505757952761,-4.50454251086137,-4.1934344459269246,-3.8823263809919313,-3.57121831605639,-3.286392056044519,-3.0628908355949234,-2.8393896151447677,-2.615888394694053,-2.392387174242776,-2.1688859537909382,-1.9453847333385392,-1.7218835128855803,-1.4983822924320609,-1.2748810719779793,-1.0513798515233401,-0.82787863106814,-0.60437741061237527,-0.38087619015605351,-0.1573749696991702,0.066126250758274191,0.28962747121628052,0.51312869167484787,0.73662991213397422,0.96013113259366112,1.1383141675549693,1.2485188533709826,1.3587235391876089,1.4689282250048499,1.5791329108227063,1.6893375966411783,1.7995422824602598,1.909746968279959,2.0199516541002689,2.1301563399211956,2.240361025742736,2.35056571156489,2.4607703973876562,2.5709750832110383,2.6811797690350341,2.7913844548596445,2.9015891406848673,3.0117938265107078,3.1219985123371616,3.2322031981642252,3.2223526007897205,3.1963711672253119,3.1703897336615561,3.1444083000984411,3.11842686653598,3.0924454329741584,3.0664639994129939,3.0404825658524661,3.0145011322925863,2.9885196987333593,2.9625382651747749,2.9365568316168393,2.9105753980595481,2.8845939645029066,2.8586125309469086,2.8326310973915607,2.8066496638368621,2.7806682302828087,2.6613095530462183,2.4796979089831748,2.2980862649208595,2.1164746208592518,1.9348629767983645,1.753251332738194,1.5716396886787467,1.3900280446200179,1.2084164005620024,1.0268047565047058,0.84519311244813444,0.6635814683922745,0.48196982433713514,0.300358180282717,0.11874653622901157,-0.06286510782397027,-0.24447675187624093,-0.42608839592778819,-0.60770003997861421,-0.78931168402872354,-1.0908407724000782,-1.4437646704539393,-1.7966885685070904,-2.1496124665595242,-2.5025363646112573,-2.85546026266226,-3.2083841607125563,-3.56130805876215,-3.9142319568110171,-4.2671558548591895,-4.6200797529066353,-4.9730036509533759,-5.3259275489993971,-5.6788514470447158,-6.0317753450893017,-6.3846992431331993,-6.7376231411763658,-7.0905470392188308,-7.4434709372605719,-7.79639483530162,-8.2954429188396528,-8.8310237752423468,-9.3666046316442166,-9.9021854880452729,-10.437766344445514,-10.973347200844946,-11.508928057243565,-12.044508913641344,-12.580089770038324,-13.115670626434499,-13.651251482829819,-14.18683233922436,-14.722413195618048,-15.257994052010948,-15.79357490840302,-16.329155764794269,-16.864736621184715,-17.400317477574347,-17.935898333963159,-18.471479190351175,-19.177762494769343,-19.903014530646178,-20.628266566522186,-21.353518602397312,-22.078770638271614,-22.804022674145077,-23.529274710017628,-24.254526745889351,-24.979778781760256,-25.705030817630277,-26.430282853499488,-27.155534889367811,-27.880786925235309,-28.606038961101923,-29.331290996967706,-30.056543032832664,-30.781795068696745,-31.507047104559938,-32.232299140422327,-32.95755117628385,0,0.022716140074844359,0.0536345940140018,0.10052714330984873,0.16928796793931214,0.26033911635513873,0.37375040772968177,0.50944038238253808,0.66716032304356976,0.84639740656136131,0.97899892901731733,1.2880363346423775
DP 460,110.21761033137437,0.0045675992385204381,-43.157812545742388,-42.41607161864215,-41.674330691541009,-40.932589764438923,-40.190848837335892,-39.44910791023193,-38.707366983126995,-37.965626056021129,-37.223885128914333,-36.482144201806626,-35.740403274697925,-34.998662347588287,-34.2569214204777,-33.515180493366223,-32.773439566253735,-32.03169863914038,-31.289957712026027,-30.548216784910753,-29.806475857794535,-29.064734930677385,-28.328381971782047,-27.640521236184284,-26.952660500585566,-26.264799764985863,-25.576939029385212,-24.889078293783573,-24.201217558180968,-23.513356822577357,-22.825496086972787,-22.137635351367251,-21.449774615760735,-20.761913880153273,-20.074053144544781,-19.386192408935333,-18.69833167332494,-18.010470937713521,-17.322610202101171,-16.634749466487833,-15.946888730873512,-15.25902799525822,-14.593357566014747,-14.01644941100616,-13.439541255996494,-12.862633100985759,-12.285724945973955,-11.708816790961091,-11.131908635947159,-10.555000480932167,-9.97809232591608,-9.4011841708989419,-8.82427601588072,-8.2473678608614414,-7.6704597058410871,-7.0935515508196731,-6.5166433957971828,-5.9397352407736177,-5.3628270857489921,-4.7859189307233,-4.2090107756965391,-3.6321026206687095,-3.1040418344553484,-2.6899597812004687,-2.2758777279444913,-1.861795674687422,-1.4477136214292643,-1.0336315681700101,-0.619549514909662,-0.20546746164822108,0.20861459161431098,0.62269664487793808,1.036778698142655,1.4508607514084648,1.8649428046753698,2.2790248579433667,2.693106911212459,3.1071889644826438,3.5212710177539197,3.9353530710262934,4.349435124299756,4.7635171775743119,5.093440982114676,5.2971254248404378,5.5008098675673542,5.7044943102954475,5.9081787530247114,6.1118631957551415,6.31554763848674,6.5192320812195046,6.7229165239534332,6.9266009666885395,7.1302854094248129,7.3339698521622507,7.5376542949008583,7.7413387376406293,7.9450231803815754,8.148707623123677,8.35239206586696,8.5560765086114117,8.7597609513570269,8.9634453941038128,8.9429218098357453,8.8939750099996253,8.8450282101646991,8.7960814103310021,8.7471346104985237,8.6981878106672621,8.6492410108372138,8.6002942110083787,8.551347411180771,8.502400611354366,8.45345381152919,8.4045070117052347,8.3555602118824854,8.3066134120609583,8.2576666122406444,8.20871981242155,8.15977301260367,8.1108262127870159,7.8888367222817735,7.5514827119196291,7.2141287015588285,6.8767746911993344,6.5394206808411628,6.202066670484319,5.8647126601288111,5.5273586497746274,5.1900046394217609,4.8526506290702232,4.51529661872002,4.1779426083711311,3.8405885980235719,3.5032345876773467,3.1658805773324374,2.8285265669888591,2.491172556646597,2.1538185463056703,1.8164645359660732,1.4791105256277981,0.91974682677334552,0.265233120732324,-0.38928058530739112,-1.0437942913457845,-1.6983079973828838,-2.3528217034186412,-3.0073354094530922,-3.661849115486258,-4.3163628215180783,-4.9708765275486124,-5.6253902335778205,-6.2799039396057132,-6.9344176456322923,-7.588931351657572,-8.2434450576815159,-8.8979587637041657,-9.5524724697254957,-10.206986175745506,-10.86149988176421,-11.516013587781602,-12.440859561702402,-13.433291796636148,-14.425724031568427,-15.418156266499221,-16.41058850142856,-17.403020736356392,-18.395452971282779,-19.387885206207674,-20.3803174411311,-21.372749676053065,-22.365181910973508,-23.357614145892544,-24.350046380810035,-25.342478615726119,-26.334910850640671,-27.327343085553778,-28.319775320465393,-29.312207555375561,-30.304639790284266,-31.297072025191451,-32.605152907454745,-33.94830917672089,-35.29146544598553,-36.634621715248592,-37.977777984510126,-39.320934253770176,-40.664090523028676,-42.007246792285656,-43.3504030615411,-44.693559330795033,-46.036715600047465,-47.379871869298348,-48.7230281385477,-50.066184407795475,-51.409340677041747,-52.752496946286513,-54.095653215529715,-55.43880948477144,-56.781965754011651,-58.1251220232503,0,0.037466807151470813,0.0925065363905799,0.1783613259190826,0.30466219921323279,0.4721248029381796,0.68089428072944036,0.93081634595392582,1.2213993962958993,1.551647065708214,1.7963709068330966,2.3661418207780489
DP 461,153.05113698753186,0.0015615918691935353,-18.581825514017872,-18.226195977695745,-17.870566441373114,-17.514936905049982,-17.159307368726342,-16.803677832402187,-16.448048296077509,-16.092418759752327,-15.736789223426635,-15.381159687100416,-15.025530150773687,-14.669900614446464,-14.314271078118731,-13.95864154179047,-13.603012005461709,-13.247382469132418,-12.891752932802623,-12.53612339647233,-12.18049386014151,-11.824864323810193,-11.471859162050485,-11.142473619506653,-10.813088076962311,-10.483702534417445,-10.154316991872058,-9.8249314493261526,-9.49554590677972,-9.16616036423278,-8.8367748216853066,-8.50738927913732,-8.1780037365888063,-7.8486181940397826,-7.5192326514902215,-7.1898471089401559,-6.8604615663895645,-6.5310760238384544,-6.2016904812868177,-5.8723049387346675,-5.5429193961819943,-5.2135338536288014,-4.8949286659499576,-4.61944540726465,-4.3439621485787958,-4.0684788898924058,-3.792995631205466,-3.5175123725179813,-3.2420291138299628,-2.9665458551413941,-2.6910625964522845,-2.4155793377626358,-2.1400960790724386,-1.8646128203816987,-1.5891295616904175,-1.3136463029985934,-1.0381630443062249,-0.76267978561331373,-0.48719652691986015,-0.21171326822586553,0.0637699904686717,0.33925324916375321,0.59111596541249078,0.78786333839568734,0.98461071137944023,1.1813580843637455,1.3781054573486007,1.5748528303340119,1.7716002033199776,1.9683475763064942,2.1650949492935636,2.3618423222811904,2.5585896952693621,2.7553370682580889,2.9520844412473748,3.14883181423721,3.345579187227596,3.54232656021854,3.7390739332100389,3.9358213062020897,4.1325686791946881,4.3293160521878429,4.4855990556287,4.5811845485421188,4.6767700414561046,4.7723555343706687,4.8679410272858039,4.9635265202015137,5.0591120131177929,5.1546975060346432,5.2502829989520716,5.3458684918700712,5.4414539847886418,5.5370394777077925,5.6326249706275062,5.7282104635478008,5.8237959564686612,5.9193814493901016,6.0149669423121113,6.1105524352346938,6.206137928157851,6.3017234210815865,6.2867939677397366,6.2617048596923963,6.236615751645644,6.2115266435994743,6.1864375355539005,6.1613484275089059,6.1362593194645028,6.1111702114206867,6.08608110337746,6.0609919953348186,6.0359028872927611,6.0108137792513014,5.9857246712104208,5.9606355631701327,5.9355464551304271,5.9104573470913166,5.8853682390527871,5.8602791310148508,5.753068290369729,5.5911083342644448,5.4291483781597911,5.2671884220557557,5.1052284659523357,4.94326850984955,4.7813085537473805,4.6193485976458426,4.4573886415449193,4.2954286854446213,4.1334687293449583,3.9715087732459127,3.8095488171474874,3.6475888610496887,3.4856289049525127,3.3236689488559605,3.1617089927600244,2.9997490366647206,2.8377890805700416,2.6758291244759844,2.4091402842764658,2.0975662224369467,1.7859921605980396,1.4744180987597533,1.1628440369220745,0.85126997508502411,0.539695913248586,0.22812185141275357,-0.08345221042244981,-0.39502627225704828,-0.70660033409102363,-1.0181743959243856,-1.3297484577571268,-1.6413225195892631,-1.9528965814207693,-2.26447064325167,-2.5760447050819493,-2.8876187669116109,-3.1991928287406615,-3.510766890569093,-3.9492675491986922,-4.4195013566951546,-4.8897351641909443,-5.3599689716860546,-5.8302027791805049,-6.300436586674274,-6.7706703941673778,-7.2409042016598022,-7.7111380091515604,-8.1813718166426472,-8.6516056241330617,-9.1218394316227975,-9.59207323911185,-10.06230704660026,-10.532540854087967,-11.002774661575028,-11.4730084690614,-11.943242276547116,-12.413476084032146,-12.883709891516503,-13.501689866056283,-14.136087633072199,-14.770485400087445,-15.404883167101964,-16.039280934115808,-16.673678701128971,-17.308076468141437,-17.942474235153181,-18.576872002164283,-19.211269769174685,-19.84566753618439,-20.480065303193413,-21.114463070201737,-21.748860837209381,-22.383258604216316,-23.017656371222596,-23.652054138228156,-24.286451905233026,-24.920849672237225,-25.555247439240723,0,0.014990020317829577,0.039662017732143943,0.079588095484882479,0.13852102720932083,0.21678942444866886,0.31448249872656669,0.43152984615818241,0.56768406282413031,0.722447493309897,0.8373185002362562,1.1043252646940804
DP 462,97.628208004233571,0.0029383500071831718,-25.281338879897184,-24.869823776846761,-24.458308673795855,-24.046793570744494,-23.635278467692636,-23.223763364640291,-22.812248261587488,-22.40073315853418,-21.989218055480411,-21.577702952426165,-21.166187849371422,-20.754672746316214,-20.3431576432605,-19.931642540204365,-19.520127437147696,-19.108612334090576,-18.697097231032966,-18.285582127974894,-17.874067024916329,-17.46255192185729,-17.054019512792173,-16.672331631613179,-16.290643750433695,-15.908955869253715,-15.527267988073218,-15.145580106892242,-14.763892225710745,-14.382204344528734,-14.000516463346244,-13.618828582163248,-13.237140700979747,-12.855452819795742,-12.473764938611234,-12.092077057426229,-11.710389176240724,-11.32870129505471,-10.947013413868191,-10.565325532681179,-10.183637651493664,-9.8019497703056455,-9.4325473042807353,-9.1122870795355855,-8.7920268547898566,-8.4717666300435575,-8.1515064052966935,-7.8312461805492584,-7.5109859558012628,-7.1907257310526864,-6.8704655063035531,-6.5502052815538425,-6.2299450568035581,-5.9096848320527089,-5.5894246073012921,-5.269164382549306,-4.9489041577967523,-4.6286439330436258,-4.3083837082899334,-3.9881234835356745,-3.6678632587808431,-3.3476030340254459,-3.0544059816592277,-2.8243571842270812,-2.5943083867943435,-2.3642595893610276,-2.13421079192713,-1.9041619944926456,-1.6741131970575795,-1.4440643996219291,-1.214015602185696,-0.98396680474888143,-0.753918007311484,-0.523869209873504,-0.29382041243493728,-0.063771614995790538,0.16627718244393958,0.39632597988425505,0.6263747773251529,0.85642357476663478,1.0864723722086973,1.3165211696513441,1.4999074396960996,1.6132988159786286,1.726690192261795,1.8400815685455942,1.9534729448300305,2.066864321115105,2.1802556974008112,2.2936470736871573,2.4070384499741344,2.5204298262617453,2.6338212025499956,2.7472125788388806,2.8606039551284,2.9739953314185557,3.0873867077093435,3.20077808400077,3.3141694602928311,3.42756083658553,3.5409522128788629,3.6543435891728269,3.6440133934351606,3.6172027748404116,3.5903921562463332,3.563581537652921,3.536770919060181,3.5099603004681,3.4831496818766992,3.4563390632859541,3.4295284446958854,3.4027178261064819,3.3759072075177436,3.3490965889296769,3.3222859703422762,3.2954753517555453,3.2686647331694831,3.241854114584088,3.2150434959993586,3.1882328774152997,3.0653036796588395,2.8782939148964788,2.69128415013486,2.5042743853739737,2.3172646206138268,2.1302548558544165,1.9432450910957531,1.7562353263378223,1.5692255615806323,1.3822157968241784,1.1952060320684714,1.0081962673134968,0.82118650255926062,0.63417673780576955,0.44716697305300962,0.26015720830099387,0.073147443549710367,-0.11386232120082873,-0.30087208595062603,-0.48788185069968681,-0.798315218379451,-1.16164608248984,-1.5249769465995,-1.888307810708421,-2.2516386748166206,-2.6149695389240728,-2.9783004030307914,-3.3416312671367971,-3.70496213124205,-4.0682929953465861,-4.431623859450383,-4.7949547235534462,-5.1582855876557732,-5.5216164517573816,-5.88494731585824,-6.248278179958378,-6.6116090440577695,-6.9749399081564407,-7.3382707722543739,-7.7016016363515751,-8.2153130388643749,-8.7666213527612342,-9.3179296666572728,-9.8692379805524642,-10.420546294446831,-10.97185460834036,-11.523162922233052,-12.074471236124888,-12.625779550015912,-13.177087863906108,-13.72839617779543,-14.279704491683944,-14.831012805571593,-15.382321119458444,-15.933629433344445,-16.4849377472296,-17.036246061113911,-17.587554374997417,-18.138862688880067,-18.690171002761893,-19.417143607758977,-20.163636312224384,-20.910129016688959,-21.656621721152622,-22.403114425615421,-23.149607130077374,-23.896099834538425,-24.642592538998603,-25.389085243457966,-26.135577947916421,-26.882070652373972,-27.628563356830725,-28.37505606128655,-29.121548765741544,-29.868041470195649,-30.614534174648863,-31.361026879101235,-32.107519583552687,-32.854012288003346,-33.600504992453068,0,0.022856474960115732,0.054425160370655881,0.1025771615647946,0.17323518861613785,0.26682428661928853,0.38341732364433651,0.52292980466854111,0.68510181791969615,0.86940034655212206,1.0057954548171888,1.3236136867173918
DP 463,264.123691939366,0.0038580761493107575,-64.88687709387716,-63.490756503838149,-62.094635913797141,-60.698515323754172,-59.302394733709193,-57.906274143662266,-56.510153553613321,-55.1140329635624,-53.71791237350952,-52.32179178345465,-50.925671193397768,-49.52955060333899,-48.1334300132781,-46.737309423215294,-45.341188833150511,-43.945068243083767,-42.548947653015006,-41.152827062944318,-39.756706472871571,-38.360585882796869,-36.975842724748851,-35.693497530400535,-34.411152336050215,-33.128807141697912,-31.846461947343624,-30.564116752987342,-29.281771558629046,-27.999426364268782,-26.717081169906546,-25.434735975542278,-24.152390781176035,-22.870045586807809,-21.587700392437579,-20.305355198065374,-19.023010003691173,-17.74066480931495,-16.458319614936787,-15.175974420556589,-13.893629226174419,-12.611284031790255,-11.374848934778521,-10.322056397037572,-9.2692638592946,-8.2164713215496228,-7.1636787838026423,-6.1108862460536528,-5.05809370830265,-4.0053011705496333,-2.9525086327946166,-1.8997160950375838,-0.846923557278539,0.20586898048252258,1.2586615182455885,2.3114540560106653,3.3642465937777533,4.4170391315468525,5.4698316693179567,6.52262420709107,7.5754167448661871,8.6282092826433168,9.5832822398999777,10.310339763710195,11.037397287522456,11.764454811336762,12.491512335153093,13.218569858971488,13.945627382791907,14.67268490661438,15.39974243043889,16.126799954265433,16.853857478094028,17.580915001924655,18.307972525757329,19.035030049592049,19.762087573428822,20.489145097267606,21.21620262110844,21.943260144951331,22.670317668796287,23.397375192643217,23.963203528318338,24.287184271786675,24.611165015257079,24.93514575872954,25.259126502204051,25.583107245680665,25.907087989159333,26.231068732640054,26.555049476122868,26.879030219607742,27.203010963094673,27.526991706583672,27.850972450074764,28.174953193567852,28.498933937063097,28.82291468056038,29.146895424059739,29.470876167561137,29.794856911064606,30.118837654570161,29.9398630911361,29.803476246772359,29.667089402410696,29.530702558051132,29.394315713693651,29.257928869338297,29.121542024985018,28.985155180633868,28.848768336284774,28.71238149193783,28.575994647592911,28.439607803250134,28.30322095890941,28.166834114570843,28.030447270234315,27.894060425899898,27.757673581567627,27.621286737237416,27.185508870682604,26.550132272791735,25.914755674903041,25.279379077016578,24.644002479132258,24.008625881250069,23.373249283370107,22.737872685492352,22.102496087616704,21.467119489743283,20.831742891872036,20.196366294002964,19.560989696136058,18.925613098271366,18.290236500408813,17.65485990254847,17.019483304690262,16.384106706834277,15.748730108980464,15.113353511128834,14.112193264413916,12.95426365753868,11.7963340506656,10.638404443794665,9.4804748369258576,8.322545230059232,7.1646156231947558,6.0066860163323774,4.8487564094721973,3.6908268026141262,2.5328971957582285,1.3749675889044692,0.21703798205287572,-0.94089162479660837,-2.0988212316438997,-3.2567508384890713,-4.41468044533208,-5.5726100521729389,-6.7305396590116686,-7.8884692658482329,-9.4743315453998349,-11.167182049251899,-12.860032553101689,-14.552883056949176,-16.245733560794381,-17.938584064637297,-19.631434568477943,-21.324285072316258,-23.01713557615232,-24.709986079986109,-26.402836583817543,-28.095687087646766,-29.788537591473617,-31.481388095298243,-33.174238599120564,-34.867089102940618,-36.559939606758363,-38.25279011057382,-39.94564061438696,-41.638491118197841,-43.817947727226532,-46.051476791820662,-48.28500585641256,-50.518534921001972,-52.752063985589146,-54.985593050173996,-57.219122114756523,-59.452651179336648,-61.686180243914521,-63.919709308490063,-66.15323837306326,-68.386767437634148,-70.620296502202649,-72.853825566768919,-75.087354631332786,-77.3208836958944,-79.554412760453616,-81.787941825010449,-84.021470889565137,-86.2549999541173,0,0.046461776832661991,0.12941090806066416,0.26725648034434679,0.4712013261186766,0.74243548435114981,1.0813366122922696,1.4876709435196498,1.9605433558436725,2.4981513360305652,2.8974636006199095,3.8242405240806105
DP 464,84.467865335121573,0.0031009468949310098,-23.722479858296708,-23.366005402665468,-23.009530947033859,-22.653056491401887,-22.296582035769589,-21.940107580136921,-21.583633124503908,-21.22715866887053,-20.870684213236814,-20.514209757602721,-20.157735301968287,-19.801260846333516,-19.444786390698361,-19.088311935062851,-18.731837479427007,-18.375363023790776,-18.018888568154239,-17.662414112517308,-17.305939656880046,-16.949465201242411,-16.595570507197507,-16.264893911340263,-15.934217315482611,-15.6035407196246,-15.272864123766189,-14.942187527907405,-14.611510932048242,-14.280834336188699,-13.950157740328754,-13.619481144468461,-13.288804548607763,-12.958127952746695,-12.627451356885246,-12.296774761023414,-11.966098165161213,-11.635421569298613,-11.304744973435625,-10.974068377572284,-10.643391781708541,-10.312715185844427,-9.9926640988374515,-9.7151155494364883,-9.4375670000350524,-9.16001845063317,-8.8824699012308361,-8.6049213518280272,-8.3273728024247635,-8.0498242530210451,-7.772275703616855,-7.4947271542122271,-7.2171786048071169,-6.9396300554015644,-6.6620815059955474,-6.3845329565890685,-6.1069844071821366,-5.8294358577747341,-5.5518873083668812,-5.2743387589585682,-4.9967902095497987,-4.7192416601405691,-4.4651115077700538,-4.2656250196780832,-4.0661385315856373,-3.866652043492719,-3.6671655553993303,-3.4676790673054678,-3.2681925792111342,-3.0687060911163275,-2.8692196030210497,-2.6697331149253,-2.470246626829077,-2.270760138732383,-2.0712736506352147,-1.8717871625375748,-1.6723006744394635,-1.4728141863408786,-1.2733276982418207,-1.0738412101422916,-0.87435472204229,-0.67486823394181716,-0.515774987719737,-0.4172725588333821,-0.31877012994649723,-0.2202677010590782,-0.1217652721711259,-0.023262843282642377,0.075239585606372242,0.17374201449592117,0.27224444338599796,0.37074687227661146,0.46924930116775476,0.56775173005943125,0.66625415895163864,0.76475658784437894,0.86325901673765171,0.96176144563145649,1.0602638745257933,1.1587663034206639,1.257268732316065,1.3557711612119985,1.3476611764493382,1.3247164671787739,1.301771757908778,1.2788270486393476,1.255882339370487,1.2329376301021926,1.2099929208344691,1.18704821156731,1.1641035023007198,1.1411587930346976,1.1182140837692451,1.0952693745043589,1.0723246652400387,1.0493799559762877,1.0264352467131088,1.0034905374504923,0.98054582818844627,0.9576011189269692,0.85135395930307889,0.68957052044821154,0.52778708159399046,0.36600364274040886,0.20422020388747197,0.0424367650351765,-0.11934667381647107,-0.28113011266747645,-0.442913551517842,-0.60469699036756064,-0.766480429216631,-0.92826386806506322,-1.0900473069128518,-1.2518307457599915,-1.4136141846064947,-1.5753976234523481,-1.7371810622975647,-1.8989645011421341,-2.0607479399860558,-2.2225313788293355,-2.4913466090409413,-2.8060340522444864,-3.120721495447389,-3.4354089386496507,-3.7500963818512782,-4.0647838250522588,-4.3794712682526,-4.6941587114523156,-5.0088461546513718,-5.3235335978498064,-5.6382210410475908,-5.95290848424474,-6.2675959274412483,-6.5822833706371222,-6.89697081383235,-7.2116582570269383,-7.526345700220892,-7.8410331434141938,-8.15572058660688,-8.4704080297989073,-8.9155500564130339,-9.393307270233171,-9.8710644840525585,-10.348821697871191,-10.826578911689088,-11.304336125506218,-11.782093339322621,-12.259850553138266,-12.737607766953154,-13.21536498076733,-13.693122194580713,-14.170879408393374,-14.648636622205258,-15.126393836016431,-15.604151049826839,-16.0819082636365,-16.559665477445407,-17.037422691253575,-17.515179905060982,-17.992937118867655,-18.623130856693191,-19.27026358702857,-19.917396317363188,-20.564529047696997,-21.211661778030038,-21.858794508362298,-22.505927238693754,-23.153059969024415,-23.800192699354344,-24.447325429683453,-25.094458160011772,-25.741590890339335,-26.388723620666084,-27.035856350992077,-27.682989081317217,-28.330121811641661,-28.977254541965294,-29.624387272288111,-30.271520002610178,-30.918652732931392,0,0.022828867209448052,0.051685971644019425,0.09410251993506448,0.15602023544302226,0.23787400061686823,0.33972762526854605,0.46151506498329392,0.60303458932797782,0.76385515197097542,0.882567430808622,1.159494801908405
DP 465,76.161343755816119,0.0014471411791345085,-10.147816571290713,-10.005589566044051,-9.8633625607972615,-9.7211355555503616,-9.5789085503033444,-9.4366815450562012,-9.294454539808946,-9.1522275345615665,-9.0100005293140661,-8.8677735240664539,-8.7255465188187262,-8.583319513570876,-8.4410925083229014,-8.2988655030748184,-8.1566384978266147,-8.0144114925782866,-7.8721844873298439,-7.72995748208128,-7.5877304768325988,-7.4455034715838053,-7.3043051084322039,-7.1723646213880121,-7.0404241343436977,-6.9084836472992492,-6.7765431602546693,-6.6446026732099517,-6.5126621861651151,-6.380721699120131,-6.24878121207503,-6.1168407250297907,-5.9849002379844229,-5.8529597509389193,-5.7210192638932869,-5.5890787768475221,-5.4571382898016223,-5.3251978027555973,-5.1932573157094355,-5.0613168286631458,-4.9293763416167247,-4.7974358545701641,-4.6697312672698192,-4.5589704791491723,-4.4482096910283575,-4.3374489029073766,-4.2266881147862216,-4.1159273266648926,-4.0051665385433965,-3.8944057504217291,-3.7836449622998947,-3.6728841741778866,-3.5621233860557067,-3.4513625979333593,-3.3406018098108397,-3.2298410216881526,-3.11908023356529,-3.0083194454422579,-2.8975586573190597,-2.7867978691956861,-2.6760370810721463,-2.5652762929484334,-2.4638535172577427,-2.3842197314614,-2.3045859456648805,-2.2249521598681845,-2.1453183740713144,-2.065684588274268,-1.9860508024770454,-1.9064170166796439,-1.8267832308820695,-1.7471494450843188,-1.6675156592863907,-1.5878818734882894,-1.5082480876900097,-1.4286143018915547,-1.3489805160929229,-1.269346730294115,-1.1897129444951324,-1.110079158695972,-1.0304453728966363,-0.95081158709712543,-0.88728524936899733,-0.84792046437723323,-0.80855567938526429,-0.76919089439308908,-0.72982610940070791,-0.69046132440812191,-0.65109653941533119,-0.61173175442233452,-0.57236696942913279,-0.53300218443572478,-0.49363739944211138,-0.45427261444829359,-0.41490782945426918,-0.37554304446004089,-0.33617825946560576,-0.29681347447096612,-0.25744868947612082,-0.2180839044810689,-0.17871911948581234,-0.13935433449035156,-0.14236914041503934,-0.15144811136314379,-0.16052708231102591,-0.16960605325868658,-0.17868502420612342,-0.1877639951533388,-0.19684296610032984,-0.20592193704710146,-0.21500090799364824,-0.22407987893997394,-0.23315884988607566,-0.24223782083195544,-0.2513167917776134,-0.26039576272304832,-0.26947473366826058,-0.2785537046132508,-0.2876326755580178,-0.29671164650256276,-0.33902354782242322,-0.40349125960112964,-0.46795897137957537,-0.53242668315776631,-0.59689439493569807,-0.66136210671337325,-0.72582981849078743,-0.79029753026794491,-0.854765242044845,-0.9192329538214874,-0.98370066559786873,-1.0481683773739938,-1.1126360891498606,-1.1771038009254686,-1.2415715127008191,-1.3060392244759107,-1.3705069362507465,-1.4349746480253227,-1.4994423597996391,-1.563910071573698,-1.6710889662467108,-1.7965732303247401,-1.9220574944025139,-2.0475417584800297,-2.1730260225572917,-2.2985102866342926,-2.4239945507110363,-2.5494788147875309,-2.6749630788637591,-2.8004473429397381,-2.9259316070154568,-3.0514158710909181,-3.1769001351661226,-3.3023843992410735,-3.4278686633157616,-3.5533529273901965,-3.6788371914643769,-3.8043214555382954,-3.9298057196119611,-4.0552899836853671,-4.232838076949454,-4.4234027426571449,-4.6139674083645286,-4.8045320740716084,-4.9950967397783792,-5.1856614054848453,-5.3762260711909988,-5.5667907368968468,-5.7573554026023892,-5.9479200683076323,-6.1384847340125468,-6.3290493997171708,-6.51961406542148,-6.7101787311254926,-6.9007433968291858,-7.0913080625325753,-7.2818727282356495,-7.4724373939384314,-7.6630020596408963,-7.8535667253430628,-8.1049751753635455,-8.36314468487075,-8.6213141943776233,-8.8794837038841763,-9.1376532133904043,-9.3958227228963072,-9.65399223240189,-9.9121617419071377,-10.170331251412065,-10.42850076091667,-10.686670270420949,-10.944839779924912,-11.203009289428543,-11.461178798931861,-11.71934830843483,-11.977517817937498,-12.235687327439836,-12.493856836941834,-12.752026346443536,-13.010195855944881,0,0.010315741183474116,0.022450603924082727,0.039667024658990586,0.0646393038754101,0.097577135849186092,0.13851199284313162,0.18742338114272403,0.24424220201874139,0.308809557551954,0.35632655201980229,0.46726763089480228
DP 466,201.69661860625689,0.0018374379537565019,-26.057545529686809,-25.525801380528215,-24.994057231368789,-24.462313082208656,-23.930568933047681,-23.398824783885924,-22.867080634723411,-22.335336485560102,-21.803592336396,-21.271848187231125,-20.740104038065454,-20.208359888898993,-19.676615739731744,-19.144871590563731,-18.613127441394923,-18.081383292225318,-17.549639143054947,-17.01789499388379,-16.48615084471183,-15.954406695539106,-15.426725790862191,-14.935614470729467,-14.444503150595933,-13.953391830461607,-13.462280510326497,-12.971169190190587,-12.480057870053907,-11.988946549916408,-11.497835229778124,-11.006723909639051,-10.515612589499192,-10.024501269358534,-9.5333899492170868,-9.04227862907484,-8.55116730893181,-8.06005598878798,-7.5689446686433595,-7.077833348497955,-6.5867220283517485,-6.0956107082047568,-5.6210862089612839,-5.2129097772505082,-4.8047333455389207,-4.3965569138265268,-3.988380482113326,-3.5802040503993124,-3.1720276186844925,-2.7638511869688616,-2.3556747552524224,-1.9474983235351748,-1.539321891817115,-1.1311454600982449,-0.72296902837856747,-0.31479259665808018,0.093383835063217,0.50156026678532306,0.90973669850823768,1.3179131302319609,1.7260895619564898,2.1342659936818333,2.506469291770522,2.7947341446171268,3.0829989974645589,3.371263850312809,3.6595287031618877,3.9477935560117867,4.2360584088625091,4.5243232617140521,4.8125881145664238,5.1008529674196144,5.3891178202736274,5.6773826731284656,5.9656475259841235,6.2539123788406039,6.5421772316979157,6.830442084556041,7.1187069374149994,7.4069717902747714,7.6952366431353765,7.98350149599679,8.2109373411806637,8.34712823741974,8.48331913365966,8.6195100299004128,8.755700926142012,8.8918918223844532,9.02808271862774,9.16427361487186,9.3004645111168269,9.436655407362629,9.57284630360928,9.7090371998567555,9.8452280961050782,9.9814189923542465,10.11760988860425,10.253800784855091,10.389991681106778,10.526182577359306,10.662373473612671,10.798564369866892,10.760288805116053,10.717740062071602,10.675191319028013,10.632642575985264,10.590093832943381,10.54754508990235,10.504996346862182,10.462447603822856,10.419898860784402,10.377350117746797,10.33480137471005,10.292252631674156,10.249703888639113,10.207155145604933,10.164606402571611,10.122057659539141,10.079508916507528,10.036960173476773,9.8746023801446086,9.6323699991743617,9.3901376182050136,9.14790523723655,8.905672856268998,8.6634404753023233,8.4212080943365635,8.1789757133716812,7.9367433324077075,7.6945109514446264,7.452278570482453,7.2100461895211687,6.967813808560777,6.7255814276012966,6.4833490466426991,6.2411166656850083,5.998884284728204,5.7566519037722985,5.5144195228172972,5.27218714186319,4.8792891442460276,4.4218181336037423,3.9643471229623319,3.5068761123218168,3.0494051016821713,2.5919340910434316,2.1344630804055704,1.6769920697685767,1.2195210591324883,0.76205004849726832,0.30457903786294316,-0.1528919727705014,-0.61036298340305362,-1.0678339940347366,-1.5253050046655163,-1.9827760152954248,-2.4402470259244415,-2.8977180365525697,-3.3551890471798242,-3.8126600578061849,-4.4506811564108935,-5.13384191025048,-5.8170026640891264,-6.5001634179268146,-7.183324171763557,-7.86648492559934,-8.5496456794341871,-9.2328064332680633,-9.9159671871009856,-10.599127940932993,-11.282288694764006,-11.965449448594091,-12.648610202423201,-13.331770956251404,-14.01493171007861,-14.6980924639049,-15.381253217730201,-16.06441397155459,-16.747574725377991,-17.430735479200465,-18.322515713309873,-19.237478080682628,-20.152440448054442,-21.067402815425233,-21.982365182795089,-22.897327550163979,-23.812289917531881,-24.7272522848988,-25.642214652264776,-26.55717701962978,-27.472139386993796,-28.387101754356859,-29.302064121718939,-30.217026489080059,-31.131988856440188,-32.04695122379934,-32.961913591157568,-33.876875958514788,-34.791838325871062,-35.706800693226313,0,0.019993825488191324,0.054664053303108827,0.1117039888661453,0.19601624447280169,0.30808283809687415,0.44804901704272493,0.61581668323933469,0.81102161169377418,1.032930886738751,1.1977216688821632,1.5804196263653536
DP 467,240.3529147246233,0.0059295920595091771,-93.8662474163177,-91.88253002032917,-89.898812624337751,-87.915095228343475,-85.931377832346257,-83.947660436346212,-81.963943040343324,-79.980225644337565,-77.996508248328865,-76.012790852317323,-74.029073456302882,-72.045356060285584,-70.061638664265459,-68.077921268242392,-66.094203872216426,-64.1104864761877,-62.126769080155981,-60.14305168412141,-58.15933428808399,-56.1756168920437,-54.207646659944132,-52.381402391823876,-50.555158123700821,-48.728913855574859,-46.902669587445992,-45.076425319314225,-43.250181051179545,-41.42393678304196,-39.597692514901532,-37.771448246758204,-35.945203978612007,-34.118959710462846,-32.292715442310808,-30.466471174155863,-28.640226905998084,-26.813982637837377,-24.987738369673771,-23.161494101507277,-21.335249833337883,-19.5090055651656,-17.746602784493998,-16.239568971071314,-14.732535157645708,-13.225501344217163,-11.718467530785698,-10.211433717351296,-8.70439990391396,-7.1973660904736994,-5.6903322770305111,-4.1832984635843866,-2.6762646501353267,-1.1692308366833251,0.33780297677159776,1.8448367902294527,3.3518706036902404,4.8589044171539664,6.3659382306206167,7.8729720440901882,9.38000585756269,10.88703967103813,12.257143803000504,13.307741030455025,14.358338257912553,15.408935485373046,16.459532712836506,17.510129940302967,18.560727167772395,19.611324395244814,20.661921622720186,21.712518850198563,22.763116077679904,23.813713305164228,24.864310532651519,25.914907760141798,26.965504987635061,28.016102215131287,29.066699442630505,30.117296670132692,31.167893897637885,32.218491125146024,33.040872084716682,33.520923249484383,34.00097441425519,34.481025579028945,34.9610767438057,35.441127908585528,35.921179073368364,36.401230238154241,36.88128140294311,37.361332567735047,37.841383732529984,38.321434897327961,38.801486062128937,39.281537226932919,39.761588391739963,40.241639556550005,40.72169072136311,41.201741886179221,41.681793050998337,42.1618442158205,41.95340249377071,41.774014325367808,41.594626156968026,41.415237988571306,41.235849820177648,41.05646165178706,40.877073483399528,40.697685315015065,40.518297146633671,40.338908978255354,40.1595208098801,39.980132641507936,39.800744473138835,39.621356304772775,39.441968136409848,39.262579968049941,39.0831917996931,38.903803631339365,38.290076248327011,37.386782546421031,36.4834888445183,35.580195142618727,34.676901440722389,33.773607738829206,32.870314036939277,31.967020335052474,31.063726633168923,30.160432931288547,29.257139229411411,28.35384552753742,27.450551825666661,26.547258123799107,25.643964421934733,24.740670720073574,23.837377018215598,22.934083316360823,22.03078961450926,21.127495912660898,19.686991596393405,18.016246905643531,16.345502214896765,14.674757524153199,13.004012833412739,11.333268142675495,9.6625234519413912,7.99177876121038,6.3210340704825914,4.6502893797579112,2.9795446890364179,1.3087999983180552,-0.361944692397122,-2.032689383109203,-3.7034340738180611,-5.3741787645238137,-7.0449234552263826,-8.7156681459257932,-10.386412836622078,-12.057157527315177,-14.362917423041509,-16.827438622874997,-19.291959822705138,-21.756481022531887,-24.221002222355278,-26.685523422175287,-29.150044621991981,-31.614565821805229,-34.079087021615152,-36.543608221421742,-39.008129421224858,-41.472650621024663,-43.93717182082105,-46.401693020614161,-48.866214220403783,-51.330735420190145,-53.795256619973088,-56.259777819752685,-58.724299019528885,-61.188820219301725,-64.380451520409167,-67.652880469191075,-70.9253094179696,-74.197738366744616,-77.470167315516278,-80.742596264284458,-84.015025213049228,-87.287454161810416,-90.559883110568379,-93.832312059322788,-97.104741008073873,-100.37716995682152,-103.64959890556563,-106.92202785430642,-110.19445680304369,-113.46688575177755,-116.73931470050805,-120.01174364923484,-123.28417259795852,-126.55660154667862,0,0.069119635072749666,0.19148267545123257,0.39421138168858805,0.69406284311736621,1.0927756738609209,1.5908934774214814,2.1880714757869928,2.8829992764688996,3.6730398874179007,4.2598172117119439,5.6219410306671822
DP 468,237.56480816417809,0.0043956780389800536,-69.071269254838043,-67.614840088578092,-66.158410922316079,-64.701981756051907,-63.245552589785547,-61.7891234235172,-60.332694257246708,-58.87626509097408,-57.419835924699328,-55.963406758422494,-54.506977592143507,-53.050548425862388,-51.594119259579195,-50.137690093293891,-48.681260927006448,-47.22483176071686,-45.768402594425211,-44.311973428131431,-42.855544261835554,-41.399115095537489,-39.954213152494376,-38.613057308365114,-37.271901464233679,-35.930745620100119,-34.589589775964434,-33.248433931826632,-31.907278087686709,-30.566122243544619,-29.224966399400412,-27.883810555254069,-26.542654711105634,-25.201498866955021,-23.860343022802322,-22.519187178647471,-21.178031334490509,-19.836875490331391,-18.495719646170155,-17.154563802006791,-15.813407957841298,-14.472252113673678,-13.177854315979681,-12.070490914036945,-10.963127512092044,-9.8557641101449835,-8.74840070819578,-7.6410373062444128,-6.53367390429088,-5.4263105023351939,-4.3189471003773559,-3.2115836984173551,-2.1042202964551944,-0.9968568944908669,0.11050650747561018,1.2178699094442498,2.3252333114150447,3.4325967133880009,4.5399601153631108,5.6473235173403733,6.7546869193197923,7.8620503213013739,8.8690392617571341,9.6418179627719116,10.414596663788883,11.187375364808039,11.960154065829402,12.732932766852942,13.505711467878681,14.278490168906623,15.051268869936745,15.824047570969059,16.596826272003572,17.369604973040268,18.142383674079166,18.91516237512025,19.687941076163536,20.460719777208997,21.233498478256674,22.00627717930654,22.779055880358591,23.551834581412844,24.157131114864548,24.511200439201414,24.86526976354055,25.219339087881878,25.573408412225469,25.92747773657128,26.281547060919305,26.63561638526955,26.989685709622009,27.343755033976738,27.697824358333673,28.051893682692828,28.405963007054225,28.760032331417829,29.114101655783688,29.468170980151744,29.822240304522051,30.176309628894582,30.530378953269327,30.884448277646339,30.7351961182104,30.604680473490628,30.474164828773116,30.343649184057877,30.213133539344881,30.082617894634154,29.952102249925694,29.821586605219487,29.691070960515567,29.560555315813875,29.430039671114464,29.299524026417284,29.16900838172241,29.038492737029753,28.907977092339394,28.777461447651273,28.64694580296544,28.516430158281842,28.0662933936497,27.403070847166472,26.739848300685562,26.07662575420704,25.413403207730852,24.750180661257012,24.086958114785553,23.423735568316431,22.760513021849665,22.097290475385257,21.434067928923238,20.770845382463548,20.107622836006225,19.44440028955125,18.781177743098628,18.117955196648364,17.454732650200462,16.79151010375492,16.128287557311744,15.465065010870923,14.405987681060173,13.177252955960805,11.94851823086376,10.719783505769058,9.491048780676639,8.2623140555866073,7.0335793304988705,5.8048446054134235,4.5761098803303524,3.34737515524956,2.1186404301711246,0.889905705094997,-0.33882901997878573,-1.5675637450502857,-2.7962984701194125,-4.02503319518625,-5.2537679202507466,-6.4825026453129055,-7.7112373703727686,-8.9399720954302957,-10.637153281321664,-12.451451617222819,-14.265749953121492,-16.080048289017686,-17.894346624911403,-19.708644960802623,-21.522943296691395,-23.337241632577619,-25.151539968461396,-26.965838304342729,-28.780136640221478,-30.594434976097844,-32.408733311971631,-34.22303164784303,-36.037329983711857,-37.851628319578261,-39.665926655442142,-41.480224991303587,-43.2945233271625,-45.108821663018958,-47.459906324423009,-49.870639548442938,-52.281372772460429,-54.692105996475327,-57.102839220487631,-59.513572444497491,-61.924305668504815,-64.335038892509488,-66.745772116511773,-69.156505340511487,-71.567238564508671,-73.977971788503311,-76.388705012495365,-78.7994382364851,-81.210171460472026,-83.62090468445659,-86.0316379084387,-88.4423711324181,-90.853104356395136,-93.263837580369454,0,0.0510215863571041,0.14124077553959752,0.29065338887317627,0.51163767003299843,0.80547380071473529,1.1725613157941455,1.612645788152792,2.1247622647610638,2.7069687613333504,3.1393806100815067,4.1431904100963788
DP 469,73.232133185108665,0.003413201723982386,-23.147129452291352,-22.832174956365229,-22.517220460438846,-22.202265964512229,-21.887311468585366,-21.5723569726583,-21.257402476730963,-20.942447980803383,-20.627493484875586,-20.312538988947541,-19.99758449301925,-19.682629997090732,-19.367675501161962,-19.05272100523295,-18.7377665093037,-18.422812013374223,-18.107857517444497,-17.792903021514526,-17.477948525584331,-17.162994029653881,-16.850316876859331,-16.558136027554042,-16.265955178248504,-15.973774328942669,-15.681593479636584,-15.389412630330211,-15.097231781023558,-14.805050931716655,-14.512870082409471,-14.22068923310202,-13.928508383794298,-13.636327534486291,-13.344146685178041,-13.051965835869485,-12.759784986560673,-12.4676041372516,-12.175423287942248,-11.883242438632621,-11.591061589322727,-11.298880740012564,-11.016077723450467,-10.770786481090862,-10.525495238730896,-10.28020399637056,-10.034912754009854,-9.7896215116487912,-9.5443302692873644,-9.2990390269255663,-9.0537477845634058,-8.8084565422008883,-8.5631652998379941,-8.31787405747474,-8.0725828151111241,-7.8272915727471339,-7.582000330382785,-7.3367090880180639,-7.0914178456529839,-6.8461266032875363,-6.6008353609217352,-6.3555441185555557,-6.1309264990753682,-5.9545479843697047,-5.77816946966366,-5.6017909549572336,-5.4254124402504367,-5.2490339255432605,-5.0726554108357051,-4.89627689612777,-4.71989838141946,-4.5435198667107723,-4.3671413520017088,-4.1907628372922652,-4.0143843225824449,-3.8380058078722463,-3.6616272931616725,-3.4852487784507185,-3.3088702637393879,-3.1324917490276767,-2.9561132343155925,-2.7797347196031281,-2.6390186551640622,-2.551797108861559,-2.46457556255861,-2.37735401625521,-2.2901324699513634,-2.202910923647067,-2.1156893773423247,-2.0284678310371316,-1.941246284731494,-1.8540247384254058,-1.7668031921188723,-1.6795816458118888,-1.5923600995044564,-1.5051385531965782,-1.4179170068882496,-1.3306954605794747,-1.2434739142702507,-1.1562523679605772,-1.0690308216504569,-0.98180927533988971,-0.98828808785838818,-1.0083241248899917,-1.0283601619211067,-1.0483961989517352,-1.0684322359818714,-1.0884682730115218,-1.1085043100406795,-1.128540347069354,-1.1485763840975367,-1.1686124211252329,-1.1886484581524381,-1.2086844951791538,-1.228720532205384,-1.2487565692311242,-1.2687926062563739,-1.2888286432811373,-1.3088646803054105,-1.3289007173291942,-1.422523558294255,-1.5652054278187111,-1.7078872973425907,-1.8505691668659028,-1.9932510363886391,-2.1359329059108059,-2.2786147754323944,-2.4212966449534132,-2.5639785144738614,-2.7066603839937335,-2.8493422535130293,-2.9920241230317552,-3.1347059925499114,-3.2773878620674863,-3.4200697315844968,-3.5627516011009281,-3.7054334706167946,-3.8481153401320829,-3.9907972096467947,-4.1334790791609333,-4.3707401907341321,-4.6485365403042165,-4.9263328898737333,-5.2041292394426746,-5.4819255890110545,-5.7597219385788483,-6.0375182881460807,-6.3153146377127518,-6.5931109872788367,-6.8709073368443638,-7.14870368640932,-7.4265000359736995,-7.7042963855375053,-7.98209273510075,-8.2598890846634188,-8.53768543422552,-8.8154817837870443,-9.0932781333480044,-9.3710744829083854,-9.6488708324682015,-10.041956305732453,-10.463865422089917,-10.88577453844669,-11.307683654802789,-11.729592771158178,-12.15150188751289,-12.573411003866912,-12.995320120220237,-13.417229236572881,-13.839138352924834,-14.261047469276091,-14.682956585626666,-15.104865701976548,-15.526774818325748,-15.948683934674238,-16.370593051022055,-16.792502167369168,-17.214411283715613,-17.636320400061347,-18.058229516406403,-18.61487898307643,-19.186501014882126,-19.7581230466871,-20.329745078491303,-20.9013671102948,-21.472989142097575,-22.044611173899614,-22.616233205700894,-23.187855237501502,-23.759477269301343,-24.331099301100476,-24.902721332898849,-25.474343364696526,-26.045965396493433,-26.61758742828966,-27.189209460085117,-27.760831491879859,-28.332453523673852,-28.904075555467145,-29.47569758725967,0,0.0240767438730482,0.05160041434127418,0.090042416541310982,0.14561996062837212,0.21883911548530063,0.30977966770391951,0.41840446950586463,0.54457366261672724,0.68794933267727776,0.79330150962058243,1.0393518426266601
DP 470,91.287024959927251,0.0034965645303111034,-28.508715002414956,-28.06053866198469,-27.612362321553956,-27.164185981122735,-26.716009640691006,-26.267833300258808,-25.819656959826098,-25.3714806193929,-24.923304278959233,-24.47512793852507,-24.026951598090395,-23.578775257655266,-23.13059891721964,-22.6824225767835,-22.2342462363469,-21.786069895909804,-21.33789355547221,-20.889717215034135,-20.441540874595557,-19.993364534156512,-19.548433506294558,-19.1327105983912,-18.716987690487326,-18.301264782582958,-17.88554187467804,-17.469818966772625,-17.054096058866691,-16.638373150960238,-16.22265024305327,-15.806927335145778,-15.391204427237778,-14.97548151932925,-14.559758611420211,-14.144035703510635,-13.728312795600571,-13.312589887689963,-12.896866979778856,-12.481144071867218,-12.065421163955074,-11.649698256042402,-11.247345259125836,-10.8984725380758,-10.549599817025157,-10.200727095973917,-9.8518543749220786,-9.5029816538696359,-9.1541089328165874,-8.8052362117629475,-8.4563634907086964,-8.1074907696538414,-7.75861804859839,-7.4097453275423257,-7.06087260648568,-6.7119998854284244,-6.3631271643705576,-6.0142544433120895,-5.6653817222530316,-5.31650900119337,-4.9676362801331049,-4.6187635590722378,-4.299348594821244,-4.0486693245999241,-3.7979900543779781,-3.5473107841554223,-3.2966315139322444,-3.0459522437084523,-2.7952729734840438,-2.5445937032590127,-2.2939144330333678,-2.0432351628071017,-1.7925558925802221,-1.5418766223527249,-1.291197352124607,-1.0405180818958739,-0.78983881166652226,-0.53915954143655243,-0.28848027120596481,-0.037801000974758081,0.21287826925706355,0.46355753948950162,0.6634336072249194,0.7871036707026241,0.91077373418100771,1.0344437976600755,1.1581138611398252,1.2817839246202589,1.4054539881013735,1.5291240515831728,1.6527941150656495,1.7764641785488131,1.900134242032657,2.0238043055171833,2.1474743690023934,2.271144432488283,2.3948144959748583,2.518484559462113,2.64215462295005,2.7658246864386755,2.8894947499279784,3.0131648134179585,3.002426576757431,2.973396980728467,2.9443673847002305,2.9153377886727125,2.886308192645918,2.8572785966198442,2.8282490005944974,2.7992194045698642,2.7701898085459562,2.7411602125227681,2.712130616500303,2.6831010204785657,2.6540714244575421,2.6250418284372441,2.5960122324176669,2.5669826363988104,2.5379530403806791,2.5089234443632678,2.3751787120690584,2.171622239271688,1.9680657664751244,1.7645092936793609,1.5609528208844077,1.3573963480902558,1.1538398752969174,0.95028340250438337,0.7467269297126522,0.54317045692173016,0.33961398413162192,0.13605751134231225,-0.067498961446190262,-0.2710554342338799,-0.47461190702077094,-0.6781683798068493,-0.88172485259212741,-1.0852813253765936,-1.28883779816025,-1.4923942709431033,-1.8304578618085459,-2.2261691766888374,-2.6218804915683318,-3.0175918064470189,-3.4133031213249168,-3.8090144362019998,-4.2047257510782847,-4.6004370659537814,-4.9961483808284619,-5.3918596957023572,-5.7875710105754434,-6.1832823254477347,-6.5789936403192142,-6.9747049551899121,-7.3704162700597839,-7.766127584928876,-8.1618388997971625,-8.55755021466464,-8.9532615295313285,-9.3489728443972062,-9.9086022750235,-10.509213171319628,-11.109824067614834,-11.710434963909107,-12.311045860202464,-12.911656756494887,-13.512267652786399,-14.112878549076978,-14.713489445366614,-15.314100341655378,-15.91471123794318,-16.515322134230072,-17.115933030516029,-17.716543926801087,-18.317154823085186,-18.917765719368393,-19.518376615650652,-20.118987511932005,-20.719598408212427,-21.320209304491929,-22.112332088177368,-22.925735981801562,-23.739139875424794,-24.552543769047034,-25.365947662668336,-26.179351556288658,-26.992755449908007,-27.806159343526403,-28.619563237143868,-29.432967130760357,-30.246371024375858,-31.059774917990385,-31.873178811603989,-32.686582705216573,-33.499986598828229,-34.313390492438913,-35.126794386048644,-35.940198279657388,-36.7536021732652,-37.567006066871983,0,0.026478059387856738,0.06164485209648439,0.11445671001975156,0.19179574949338282,0.29415533145434092,0.42161285383703906,0.57407893783327024,0.751281932986898,0.95265706200570777,1.1015387597813129,1.4486275489402223
DP 471,299.9650783953436,0.002713557297175844,-49.663374017708414,-48.569178039164782,-47.474982060619567,-46.380786082072881,-45.286590103524745,-44.1923941249751,-43.098198146423947,-42.004002167871327,-40.909806189317237,-39.815610210761619,-38.721414232204516,-37.627218253645943,-36.533022275085877,-35.438826296524276,-34.344630317961212,-33.250434339396676,-32.156238360830656,-31.062042382263133,-29.967846403694111,-28.873650425123621,-27.788749424478166,-26.787504103771372,-25.786258783063094,-24.785013462353305,-23.783768141642035,-22.782522820929263,-21.781277500214998,-20.780032179499234,-19.778786858781981,-18.77754153806324,-17.776296217342995,-16.775050896621256,-15.773805575898022,-14.772560255173287,-13.771314934447068,-12.770069613719349,-11.768824292990139,-10.767578972259424,-9.766333651527221,-8.7650883307935317,-7.8010738364373058,-6.9859844071761552,-6.1708949779135027,-5.3558055486493421,-4.5407161193836831,-3.7256266901165218,-2.9105372608478572,-2.0954478315776863,-1.2803584023060179,-0.4652689730328472,0.34982045624183045,1.1649098855180167,1.9799993147956996,2.7950887440748886,3.6101781733555778,4.4252676026377733,5.2403570319214676,6.0554464612066576,6.8705358904933576,7.6856253197815567,8.4224229023014381,8.9765370422491788,9.5306511821984383,10.084765322149218,10.638879462101547,11.19299360205539,11.747107742010746,12.301221881967637,12.855336021926057,13.409450161886001,13.963564301847466,14.51767844181045,15.071792581774966,15.625906721741025,16.180020861708595,16.734135001677672,17.288249141648304,17.842363281620457,18.396477421594131,18.950591561569318,19.3776045301109,19.613962738019932,19.85032094593052,20.086679153842628,20.323037361756295,20.559395569671505,20.795753777588242,21.032111985506511,21.268470193426342,21.504828401347698,21.741186609270603,21.977544817195042,22.213903025121052,22.450261233048561,22.686619440977633,22.922977648908258,23.159335856840411,23.395694064774094,23.632052272709316,23.868410480646112,23.687630813688184,23.568046632436229,23.448462451185833,23.328878269937015,23.209294088689738,23.089709907444039,22.970125726199893,22.850541544957281,22.730957363716257,22.61137318247679,22.491789001238871,22.372204820002526,22.252620638767723,22.133036457534509,22.013452276302825,21.893868095072712,21.774283913844148,21.654699732617154,21.308483392576878,20.811175376363479,20.3138673601517,19.816559343941542,19.31925132773301,18.821943311526077,18.324635295320775,17.827327279117089,17.330019262915009,16.832711246714535,16.33540323051572,15.838095214318496,15.340787198122877,14.843479181928894,14.346171165736514,13.848863149545764,13.351555133356621,12.854247117169088,12.356939100983185,11.8596310847989,11.091160722679207,10.206474265050671,9.3217878074237159,8.43710134979838,7.5524148921746006,6.6677284345524539,5.7830419769318908,4.8983555193128865,4.0136690616955164,3.1289826040797108,2.244296146465516,1.3596096888529072,0.47492323124190511,-0.40976322636753293,-1.2944496839753432,-2.1791361415815831,-3.063822599186218,-3.9485090567892511,-4.83319551439071,-5.71788197199057,-6.9141474591898442,-8.188311385165953,-9.4624753111403663,-10.736639237113081,-12.010803163084116,-13.284967089053456,-14.559131015021114,-15.833294940987049,-17.107458866951312,-18.381622792913905,-19.655786718874751,-20.929950644833955,-22.204114570791436,-23.478278496747262,-24.752442422701353,-26.026606348653775,-27.300770274604513,-28.574934200553557,-29.849098126500866,-31.123262052446542,-32.7473980198898,-34.410423445274709,-36.073448870657948,-37.736474296039425,-39.399499721419218,-41.062525146797263,-42.7255505721736,-44.38857599754818,-46.051601422921124,-47.714626848292269,-49.377652273661731,-51.040677699029523,-52.703703124395453,-54.366728549759756,-56.029753975122347,-57.692779400483154,-59.35580482584237,-61.01883025119978,-62.6818556765555,-64.34488110190938,0,0.033964060878758986,0.09515881465744791,0.19720527331031942,0.34823888649662776,0.54914743383302633,0.80021691945159767,1.1012752216222272,1.4516557409215456,1.8500163586348874,2.14591595137452,2.8325310422619721
DP 472,196.24878430961792,0.00411434749092581,-57.358896577307128,-56.19511729926063,-55.031338021212427,-53.867558743162476,-52.703779465110806,-51.540000187057423,-50.376220909002328,-49.2124416309455,-48.048662352886971,-46.884883074826725,-45.721103796764751,-44.55732451870103,-43.393545240635625,-42.229765962568472,-41.06598668449962,-39.902207406429078,-38.738428128356773,-37.574648850282742,-36.410869572207048,-35.247090294129592,-34.0921617076731,-33.016890182424582,-31.941618657174281,-30.866347131922275,-29.791075606668521,-28.715804081413022,-27.640532556155787,-26.565261030896824,-25.489989505636132,-24.414717980373695,-23.339446455109506,-22.264174929843623,-21.188903404575981,-20.1136318793066,-19.0383603540355,-17.963088828762643,-16.887817303488063,-15.812545778211744,-14.73727425293368,-13.662002727653912,-12.62289285102894,-11.728431278078313,-10.833969705125909,-9.9395081321717278,-9.0450465592157734,-8.1505849862580444,-7.2561234132985364,-6.3616618403372556,-5.4672002673741993,-4.5727386944093693,-3.6782771214427568,-2.7838155484743665,-1.8893539755042053,-0.99489240253226552,-0.10043082955855154,0.79403074341694,1.6884923163942043,2.5829538893732433,3.4774154623540503,4.371877035336639,5.1878030692473418,5.8204770375324042,6.4531510058192776,7.0858249741079478,7.7184989423984316,8.3511729106907264,8.98384687898481,9.6165208472807233,10.249194815578418,10.881868783877938,11.514542752179244,12.147216720482378,12.779890688787313,13.412564657094045,14.045238625402588,14.677912593712939,15.3105865620251,15.943260530339067,16.575934498654846,17.208608466972418,17.70824614483745,18.008326243290778,18.308406341745993,18.608486440203034,18.90856653866193,19.208646637122666,19.508726735585256,19.80880683404969,20.108886932515961,20.4089670309841,20.709047129454056,21.009127227925891,21.309207326399555,21.60928742487506,21.909367523352444,22.209447621831643,22.509527720312697,22.809607818795591,23.10968791728035,23.409768015766922,23.330740186019597,23.239112293930095,23.147484401842455,23.055856509756737,22.964228617672866,22.872600725590882,22.780972833510809,22.689344941432569,22.597717049356245,22.506089157281789,22.414461265209216,22.32283337313854,22.231205481069736,22.139577589002791,22.04794969693776,21.956321804874584,21.864693912813308,21.773066020753927,21.41832158401273,20.888161972421635,20.358002360832565,19.827842749245431,19.297683137660286,18.767523526077106,18.237363914495909,17.707204302916669,17.177044691339407,16.6468850797641,16.116725468190833,15.58656585661948,15.056406245050097,14.526246633482732,13.996087021917289,13.465927410353855,12.935767798792373,12.405608187232875,11.875448575675357,11.345288964119804,10.483598656209884,9.4798192874507716,8.47603991869358,7.47226054993836,6.4684811811850516,5.464701812433745,4.460922443684356,3.457143074936889,2.4533637061914093,1.4495843374478432,0.44580496870624581,-0.55797440003341525,-1.5617537687711129,-2.565533137506895,-3.5693125062406943,-4.5730918749725724,-5.5768712437024881,-6.5806506124304525,-7.584429981156485,-8.58820934988056,-9.9899166728326065,-11.49111068595081,-12.992304699066914,-14.493498712180921,-15.994692725292836,-17.49588673840265,-18.997080751510403,-20.498274764616003,-21.999468777719532,-23.500662790821,-25.0018568039203,-26.503050817017559,-28.004244830112668,-29.505438843205749,-31.00663285629668,-32.507826869385553,-34.009020882472285,-35.51021489555697,-37.011408908639538,-38.51260292172,-40.474068384362937,-42.486679953143224,-44.499291521921364,-46.511903090697331,-48.52451465947123,-50.537126228242933,-52.549737797012533,-54.562349365779937,-56.574960934545309,-58.5875725033084,-60.60018407206946,-62.612795640828331,-64.625407209585077,-66.6380187783397,-68.650630347092118,-70.663241915842434,-72.675853484590661,-74.688465053336614,-76.70107662208062,-78.713688190822253,0,0.0442522666762223,0.12068483031370346,0.24627035164936456,0.43188054166118744,0.678573967557151,0.986667277092935,1.3559440071388955,1.7856040478623112,2.2740376226170969,2.6367385480305496,3.4791112045648109
DP 473,142.04281460825626,0.0051527378228481665,-58.338862671992281,-57.245099238924375,-56.151335805854941,-55.057572372783945,-53.963808939711384,-52.87004550663729,-51.776282073561632,-50.68251864048446,-49.588755207405733,-48.494991774325449,-47.401228341243623,-46.307464908160256,-45.213701475075304,-44.119938041988824,-43.026174608900853,-41.932411175811296,-40.838647742720177,-39.744884309627572,-38.651120876533362,-37.557357443437617,-36.471622033030364,-35.4581395856749,-34.4446571383179,-33.431174690959331,-32.417692243599141,-31.4042097962374,-30.39072734887408,-29.377244901509176,-28.363762454142744,-27.350280006774678,-26.336797559405063,-25.323315112033843,-24.309832664661084,-23.296350217286729,-22.282867769910798,-21.269385322533303,-20.255902875154227,-19.24242042777357,-18.228937980391319,-17.215455533007511,-16.234981948459836,-15.386545375306193,-14.538108802150894,-13.689672228993905,-12.841235655835295,-11.99279908267501,-11.144362509513083,-10.295925936349484,-9.4474893631842338,-8.5990527900173248,-7.750616216848754,-6.9021796436785277,-6.0537430705066395,-5.2053064973330949,-4.3568699241578885,-3.5084333509810257,-2.6599967778025113,-1.8115602046223394,-0.96312363144051294,-0.11468705825702537,0.66131090896853573,1.2682831799334222,1.8752554509000059,2.4822277218682718,3.0891999928382261,3.696172263809876,4.3031445347832191,4.9101168057582418,5.5170890767349663,6.1240613477133765,6.7310336186934654,7.33800588967526,7.9449781606587342,8.5519504316439061,9.15892270263077,9.76589497361931,10.372867244609564,10.979839515601494,11.586811786595108,12.193784057590413,12.67641435132402,12.972528740884444,13.268643130446618,13.564757520010563,13.860871909576264,14.156986299143723,14.453100688712949,14.749215078283939,15.045329467856678,15.34144385743118,15.637558247007426,15.933672636585456,16.229787026165226,16.525901415746766,16.822015805330071,17.118130194915125,17.414244584501954,17.710358974090529,18.006473363680875,18.302587753272974,18.261808697504883,18.186273494704853,18.110738291906632,18.035203089110222,17.959667886315618,17.884132683522814,17.808597480731834,17.733062277942668,17.657527075155315,17.581991872369738,17.506456669586004,17.430921466804065,17.355386264023942,17.279851061245644,17.20431585846913,17.128780655694431,17.053245452921555,16.977710250150487,16.648688488286794,16.150671693674042,15.652654899063252,15.154638104454367,14.65662130984739,14.158604515242349,13.660587720639258,13.162570926038081,12.664554131438845,12.166537336841527,11.668520542246164,11.1705037476527,10.672486953061174,10.174470158471589,9.676453363883919,9.1784365692981886,8.68041977471437,8.1824029801325011,7.6843861855525581,7.1863693909745443,6.36441517947351,5.40362627226962,4.4428373650676418,3.48204845786758,2.5212595506693956,1.5604706434731614,0.599681736278822,-0.36110717091364447,-1.3218960781041635,-2.2826849852928088,-3.2434738924795234,-4.2042627996643445,-5.165051706847243,-6.1258406140282649,-7.086629521207338,-8.0474184283845389,-9.00820733555981,-9.9689962427331764,-10.929785149904648,-11.890574057074204,-13.244607026835707,-14.696955658513106,-16.149304290188436,-17.601652921861646,-19.054001553532782,-20.506350185201807,-21.958698816868768,-23.411047448533594,-24.863396080196321,-26.315744711857057,-27.7680933435156,-29.22044197517209,-30.67279060682645,-32.1251392384788,-33.577487870128977,-35.0298365017771,-36.482185133423137,-37.9345337650671,-39.386882396708884,-40.839231028348649,-42.749814297564505,-44.711317339083308,-46.672820380600044,-48.63432342211447,-50.595826463626821,-52.557329505137012,-54.5188325466451,-56.480335588150943,-58.441838629654733,-60.403341671156355,-62.364844712655774,-64.3263477541531,-66.287850795648282,-68.2493538371413,-70.210856878632185,-72.1723599201209,-74.133862961607491,-76.095366003091826,-78.0568690445742,-80.018372086054256,0,0.047711586691843909,0.12469021406834646,0.24849163496359747,0.43113299694305413,0.67362779479015833,0.97623898188968772,1.3387467018711232,1.7603931657527243,2.2396527283869472,2.5952956584930056,3.4222086496114654
DP 474,74.797746423214463,0.0035623374377790925,-24.598932012426005,-24.258755270546065,-23.918578528665858,-23.578401786785374,-23.23822504490462,-22.898048303023607,-22.557871561142303,-22.217694819260728,-21.877518077378891,-21.5373413354968,-21.197164593614406,-20.856987851731738,-20.516811109848813,-20.176634367965612,-19.836457626082133,-19.496280884198395,-19.156104142314373,-18.815927400430084,-18.475750658545522,-18.135573916660672,-17.797857293628077,-17.482281972808771,-17.166706651989163,-16.851131331169242,-16.535556010349023,-16.219980689528509,-15.904405368707675,-15.588830047886534,-15.273254727065078,-14.957679406243352,-14.642104085421305,-14.326528764598944,-14.010953443776289,-13.695378122953315,-13.379802802130049,-13.064227481306476,-12.748652160482591,-12.433076839658428,-12.117501518833917,-11.801926198009127,-11.496480790193283,-11.231555513167869,-10.966630236142057,-10.701704959115855,-10.436779682089238,-10.171854405062209,-9.9069291280347969,-9.6420038510069777,-9.3770785739787588,-9.11215329695013,-8.847228019921106,-8.5823027428916774,-8.31737746586185,-8.0524521888316158,-7.7875269118009891,-7.5226016347699485,-7.2576763577385126,-6.9927510807066762,-6.7278258036744418,-6.4629005266418007,-6.2203077076403384,-6.0298246610178934,-5.839341614395031,-5.64885856777176,-5.458375521148068,-5.2678924745239675,-5.0774094278994486,-4.8869263812745158,-4.696443334649163,-4.5059602880234,-4.3154772413972209,-4.1249941947706317,-3.9345111481436206,-3.7440281015161934,-3.5535450548883536,-3.363062008260099,-3.1725789616314297,-2.9820959150023434,-2.7916128683728436,-2.6011298217429304,-2.4491691757240894,-2.3549930409307942,-2.2608169061370109,-2.1666407713427369,-2.0724646365479784,-1.9782885017527283,-1.884112366956993,-1.7899362321607681,-1.6957600973640579,-1.601583962566856,-1.5074078277691694,-1.4132316929709934,-1.3190555581723284,-1.2248794233731781,-1.1307032885735366,-1.0365271537734098,-0.9423510189727935,-0.84817488417168752,-0.75399874937009637,-0.65982261456801594,-0.6669333482051657,-0.68861308763692608,-0.71029282706815711,-0.73197256649885944,-0.75365230592902932,-0.77533204535867017,-0.79701178478777635,-0.81869152421636116,-0.84037126364440951,-0.86205100307192939,-0.8837307424989187,-0.90541048192537532,-0.92709022135130681,-0.948769960776705,-0.97044970020157317,-0.99212943962591271,-1.0138091790497203,-1.0354889184729965,-1.1366528294219649,-1.2908074402253613,-1.4449620510281371,-1.599116661830301,-1.7532712726318438,-1.9074258834327715,-2.0615804942330782,-2.2157351050327656,-2.3698897158318415,-2.5240443266302957,-2.678198937428125,-2.832353548225345,-2.9865081590219456,-3.1406627698179221,-3.2948173806132881,-3.44897199140803,-3.6031266022021637,-3.7572812129956703,-3.9114358237885583,-4.06559043458083,-4.3219005095587351,-4.6219928771760914,-4.92208524479283,-5.2221776124089567,-5.5222699800244737,-5.8223623476393609,-6.122454715253637,-6.4225470828673075,-6.7226394504803562,-7.0227318180928,-7.3228241857046141,-7.6229165533158216,-7.923008920926403,-8.2231012885363857,-8.52319365614574,-8.82328602375449,-9.1233783913626088,-9.423470758970133,-9.7235631265770213,-10.023655494183311,-10.448272608809223,-10.904022381478145,-11.359772154146336,-11.81552192681378,-12.271271699480486,-12.727021472146465,-13.182771244811688,-13.638521017476171,-14.094270790139921,-14.550020562802942,-15.005770335465209,-15.461520108126731,-15.917269880787522,-16.373019653447585,-16.828769426106881,-17.284519198765455,-17.740268971423287,-18.196018744080373,-18.651768516736734,-19.10751828939236,-19.708796465536011,-20.326245992689646,-20.943695519842539,-21.561145046994593,-22.178594574145915,-22.796044101296445,-23.413493628446172,-24.030943155595125,-24.648392682743307,-25.2658422098907,-25.883291737037307,-26.500741264183148,-27.118190791328214,-27.73564031847247,-28.353089845615965,-28.970539372758669,-29.587988899900616,-30.20543842704172,-30.822887954182118,-31.440337481321667,0,0.025268208965911733,0.05460528960926949,0.095934657796960657,0.15579636990613152,0.23471178877272086,0.33276076239037122,0.44989803236930448,0.58596453741040733,0.74058697689904551,0.85430114109829769,1.1198361949829176
DP 475,171.83380734178544,0.0032016070093111868,-41.055249616944849,-40.246546344892856,-39.437843072839684,-38.629139800785339,-37.820436528729786,-37.011733256673075,-36.203029984615164,-35.394326712556072,-34.58562344049578,-33.77692016843433,-32.968216896371665,-32.159513624307813,-31.35081035224281,-30.5421070801766,-29.733403808109212,-28.924700536040646,-28.115997263970872,-27.307293991899897,-26.498590719827774,-25.689887447754419,-24.887220207877505,-24.138877828329562,-23.39053544878038,-22.642193069230032,-21.893850689678455,-21.145508310125681,-20.397165930571703,-19.648823551016548,-18.900481171460164,-18.15213879190259,-17.4037964123438,-16.655454032783833,-15.907111653222646,-15.158769273660278,-14.410426894096695,-13.662084514531912,-12.913742134965917,-12.165399755398745,-11.41705737583035,-10.668714996260777,-9.9451179705019719,-9.3205035294898071,-8.6958890884763971,-8.0712746474617472,-7.4466602064458556,-6.8220457654287259,-6.1974313244103545,-5.5728168833907441,-4.9482024423698929,-4.3235880013478054,-3.6989735603244709,-3.0743591192998938,-2.4497446782740817,-1.8251302372470264,-1.2005157962187305,-0.57590135518919483,0.048713085841580434,0.67332752687359165,1.2979419679068425,1.9225564089413361,2.4931330376694185,2.9376197350865514,3.3821064325049526,3.8265931299246132,4.2710798273455355,4.7155665247677252,5.16005322219117,5.604539919615882,6.0490266170418536,6.4935133144690944,6.9380000118975911,7.3824867093273525,7.8269734067583778,8.2714601041906626,8.71594680162421,9.1604334990590175,9.6049201964951,10.049406893932435,10.493893591371034,10.938380288810896,11.290685844857917,11.504717510516203,11.718749176175791,11.932780841836657,12.146812507498847,12.36084417316232,12.574875838827108,12.788907504493183,13.00293917016055,13.216970835829224,13.431002501499202,13.645034167170484,13.859065832843042,14.073097498516919,14.287129164192084,14.501160829868548,14.71519249554632,14.929224161225388,15.143255826905753,15.357287492587417,15.315396084102453,15.2558326703621,15.196269256623081,15.136705842885398,15.077142429149035,15.01757901541399,14.958015601680289,14.898452187947889,14.838888774216837,14.779325360487114,14.71976194675872,14.660198533031656,14.600635119305903,14.541071705581496,14.481508291858409,14.421944878136644,14.36238146441621,14.302818050697114,14.057967333430883,13.689588828170614,13.321210322911751,12.952831817654289,12.584453312398228,12.216074807143547,11.847696301890283,11.479317796638412,11.110939291387945,10.742560786138879,10.374182280891226,10.00580377564496,9.6374252704000938,9.2690467651566379,8.9006682599145659,8.532289754673906,8.1639112494346353,7.7955327441967777,7.4271542389603233,7.05877573372527,6.4551550919251914,5.7507132150954821,5.04627133826715,4.3418294614402058,3.6373875846146242,2.932945707790457,2.2285038309676635,1.5240619541462288,0.81962007732620346,0.11517820050753874,-0.58926367630972876,-1.2937055531256212,-1.99814742994012,-2.7025893067532585,-3.407031183564988,-4.111473060375352,-4.8159149371843286,-5.5203568139919117,-6.2247986907981305,-6.9292405676029611,-7.917772850314079,-8.9773310910944453,-10.03688933187331,-11.096447572650677,-12.156005813426557,-13.215564054200925,-14.275122294973807,-15.334680535745186,-16.394238776515049,-17.453797017283442,-18.513355258050318,-19.572913498815716,-20.632471739579561,-21.692029980341978,-22.751588221102857,-23.811146461862268,-24.870704702620166,-25.930262943376551,-26.98982118413144,-28.049379424884847,-29.438857497360175,-30.864996793872063,-32.2911360903825,-33.717275386891359,-35.143414683398689,-36.569553979904491,-37.995693276408716,-39.421832572911434,-40.847971869412646,-42.274111165912295,-43.700250462410445,-45.12638975890706,-46.552529055402118,-47.978668351895664,-49.404807648387653,-50.830946944878121,-52.257086241367062,-53.683225537854412,-55.109364834340312,-56.535504130824641,0,0.0324555659332212,0.087254553354007738,0.1766439967786482,0.30867577481759129,0.48409363823434753,0.70311047135970506,0.96557060795524763,1.2709118019496126,1.6180029258821274,1.8756938103275933,2.47442147615797
DP 476,139.32964609697271,0.003848831741606495,-43.009877363793741,-42.208033528645835,-41.4061896934968,-40.604345858346612,-39.802502023195323,-39.000658188042912,-38.198814352889386,-37.396970517734687,-36.595126682578893,-35.79328284742197,-34.991439012263911,-34.189595177104735,-33.38775134194443,-32.585907506782988,-31.784063671620437,-30.982219836456729,-30.180376001291904,-29.378532166125964,-28.576688330958881,-27.774844495790678,-26.978878975213547,-26.235818841608825,-25.492758708002935,-24.749698574395907,-24.006638440787718,-23.263578307178392,-22.520518173567893,-21.777458039956272,-21.034397906343475,-20.291337772729559,-19.548277639114467,-18.805217505498231,-18.062157371880843,-17.3190972382623,-16.576037104642623,-15.832976971021782,-15.0899168373998,-14.346856703776668,-13.603796570152372,-12.860736436526935,-12.14185164142885,-11.519669343003764,-10.897487044577451,-10.275304746149926,-9.653122447721195,-9.0309401492912578,-8.4087578508600949,-7.7865755524277231,-7.1643932539941435,-6.5422109555593524,-5.9200286571233418,-5.29784635868612,-4.6756640602476889,-4.0534817618080394,-3.4312994633671803,-2.8091171649251088,-2.1869348664818267,-1.5647525680373335,-0.94257026959163048,-0.32038797114471218,0.2487218972210547,0.69399442321826843,1.1392669492167229,1.5845394752164106,2.0298120012173322,2.4750845272194928,2.9203570532228911,3.3656295792275261,3.8109021052333949,4.256174631240504,4.7014471572488405,5.1467196832584161,5.5919922092692369,6.0372647352812789,6.48253726129458,6.9278097873090951,7.3730823133248542,7.8183548393418558,8.2636273653600885,8.7088998913795521,9.0630354543935336,9.2804634192744118,9.49789138415658,9.7153193490400511,9.9327473139248,10.150175278810835,10.367603243698179,10.585031208586791,10.802459173476699,11.019887138367897,11.237315103260382,11.454743068154158,11.67217103304923,11.889598997945576,12.107026962843234,12.324454927742162,12.541882892642382,12.7593108575439,12.976738822446691,13.194166787350786,13.165105842460189,13.109995356310582,13.05488487016231,12.999774384015346,12.944663897869727,12.889553411725435,12.834442925582481,12.779332439440816,12.724221953300519,12.669111467161528,12.614000981023866,12.558890494887525,12.503780008752519,12.448669522618836,12.393559036486494,12.338448550355464,12.283338064225768,12.228227578097394,11.98713941275949,11.622063198109986,11.256986983461893,10.891910768815213,10.526834554169957,10.161758339526104,9.79668212488368,9.43160591024267,9.06652969560307,8.7014534809648829,8.3363772663281281,7.9713010516927749,7.6062248370588481,7.2411486224263388,6.876072407795232,6.5109961931655622,6.145919978537286,5.7808437639104353,5.4157675492850057,5.050691334660999,4.4478416444789923,3.7430858255179742,3.0383300065583478,2.3335741876001292,1.6288183686432924,0.92406254968788548,0.21930673073386936,-0.48544908821877031,-1.1902049071699812,-1.8949607261198143,-2.5997165450682327,-3.3044723640152616,-4.0092281829608751,-4.7139840019051116,-5.4187398208479181,-6.1234956397893514,-6.82825145872937,-7.5330072776679842,-8.23776309660521,-8.9425189155410276,-9.93602211272697,-11.001715566091285,-12.067409019454068,-13.133102472815317,-14.198795926175013,-15.264489379533185,-16.330182832889818,-17.3958762862449,-18.461569739598438,-19.527263192950478,-20.592956646300941,-21.658650099649893,-22.724343552997272,-23.790037006343155,-24.85573045968745,-25.921423913030232,-26.987117366371489,-28.052810819711212,-29.11850427304935,-30.184197726386031,-31.58643905125512,-33.02607811863912,-34.465717186021585,-35.90535625340241,-37.344995320781685,-38.784634388159382,-40.224273455535489,-41.663912522909953,-43.103551590282947,-44.543190657654279,-45.982829725024047,-47.422468792392309,-48.862107859758908,-50.301746927123951,-51.741385994487366,-53.181025061849276,-54.620664129209565,-56.060303196568235,-57.499942263925469,-58.939581331280969,0,0.035306058511411963,0.091948437169147,0.18288304760877949,0.31701650912346119,0.49509250147344158,0.71730145384606392,0.98348156151390653,1.2930780129570068,1.6449742964349989,1.9060869995709062,2.5132577718785032
DP 477,190.01193718228419,0.0018308388310463945,-25.013937193876671,-24.50991860839757,-24.005900022917718,-23.501881437437127,-22.997862851955809,-22.493844266473733,-21.989825680990918,-21.485807095507354,-20.98178851002303,-20.477769924537991,-19.973751339052196,-19.469732753565662,-18.965714168078371,-18.461695582590341,-17.957676997101583,-17.453658411612071,-16.94963982612181,-16.44562124063081,-15.941602655139059,-15.437584069646562,-14.937378925453618,-14.471495113425405,-14.00561130139644,-13.539727489366719,-13.073843677336249,-12.607959865305025,-12.142076053273041,-11.676192241240328,-11.210308429206831,-10.744424617172605,-10.278540805137629,-9.8126569931018981,-9.3467731810654069,-8.8808893690281678,-8.4150055569901756,-7.9491217449514284,-7.4832379329119361,-7.0173541208716932,-6.5514703088306936,-6.0855864967889461,-5.6352972075860581,-5.2473867467597035,-4.859476285932578,-4.4715658251046886,-4.08365536427602,-3.6957449034465837,-3.3078344426163779,-2.919923981785399,-2.5320135209536514,-2.1441030601211328,-1.7561925992878411,-1.3682821384537771,-0.98037167761894528,-0.59246121678334129,-0.20455075594696609,0.18335970489017958,0.57127016572809608,0.95918062656678094,1.3470910874062367,1.7350015482464651,2.0889917768328776,2.3638337280855968,2.6386756793391024,2.9135176305933941,3.1883595818484638,3.4632015331043253,3.7380434843609676,4.01288543561839,4.2877273868766022,4.5625693381355941,4.8374112893953765,5.1122532406559369,5.3870951919172825,5.6619371431794168,5.9367790944423309,6.21162104570603,6.4864629969705154,6.76130494823578,7.036146899501837,7.3109888507686689,7.5282600830523281,7.6591738764282136,7.7900876698049055,7.9210014631824022,8.0519152565606955,8.1828290499397962,8.3137428433196927,8.444656636700401,8.5755704300819051,8.70648422346422,8.83739801684733,8.9683118102312456,9.0992256036159613,9.2301393970014818,9.3610531903878051,9.491966983774935,9.6228807771628659,9.7537945705515945,9.8847083639411384,10.015622157331475,9.9836422009441321,9.9446671385495584,9.9056920761558231,9.8667170137628926,9.82774195137078,9.7887668889794917,9.7497918265890231,9.7108167641993663,9.6718417018105409,9.63286663942251,9.5938915770353148,9.5549165146489443,9.5159414522633838,9.4769663898786458,9.43799132749472,9.39901626511161,9.3600412027293256,9.3210661403478632,9.1677136222234914,8.93810766506778,8.70850170791295,8.4788957507589622,8.2492897936058469,8.0196838364535772,7.7900778793021717,7.560471922151641,7.3308659650019532,7.10126000785313,6.8716540507051675,6.6420480935580608,6.4124421364118227,6.1828361792664381,5.953230222121908,5.7236242649782421,5.4940183078354368,5.26441235069349,5.0348063935524028,4.8052004364121759,4.4311696440107893,3.9952405434550791,3.559311442900214,3.1233823423462019,2.6874532417930239,2.2515241412407128,1.8155950406892456,1.3796659401386104,0.94373683958884214,0.50780773903990839,0.071878638491832153,-0.36405046205540026,-0.79997956260177727,-1.2359086631473215,-1.6718377636919981,-2.1077668642358409,-2.5436959647788271,-2.9796250653209637,-3.4155541658622575,-3.8514832664027,-4.4610609502499514,-5.1140528316213585,-5.7670447129918552,-6.420036594361429,-7.0730284757300925,-7.7260203570978474,-8.3790122384646875,-9.0320041198306011,-9.6849960011956018,-10.337987882559707,-10.990979763922867,-11.643971645285141,-12.296963526646465,-12.949955408006918,-13.602947289366423,-14.25593917072503,-14.908931052082723,-15.561922933439503,-16.214914814795353,-16.867906696150293,-17.721981124456729,-18.598400169833191,-19.474819215208747,-20.35123826058334,-21.227657305957,-22.104076351329738,-22.980495396701549,-23.856914442072373,-24.733333487442337,-25.609752532811335,-26.486171578179373,-27.362590623546545,-28.239009668912708,-29.115428714278003,-29.99184775964228,-30.868266805005675,-31.74468585036815,-32.621104895729651,-33.497523941090279,-34.373942986449919,0,0.019418332782619285,0.052791711443426037,0.10753917287328878,0.18844233076257377,0.29596122221861937,0.4302322052196238,0.59116067511280923,0.77839881432074842,0.99124683041656758,1.1492968558935859,1.5164014557095793
DP 478,290.24260758132675,0.0035737549819806992,-63.967566033430479,-62.566778788732329,-61.165991544032245,-59.765204299330279,-58.36441705462633,-56.96362980992042,-55.562842565212669,-54.162055320502944,-52.761268075791293,-51.360480831077695,-49.959693586362171,-48.558906341644757,-47.158119096925347,-45.757331852204047,-44.356544607480856,-42.955757362755669,-41.554970118028571,-40.154182873299547,-38.753395628568576,-37.352608383835694,-35.963585857546256,-34.680446909315258,-33.397307961082284,-32.114169012847412,-30.831030064610609,-29.547891116371854,-28.264752168131139,-26.981613219888494,-25.698474271643924,-24.415335323397429,-23.132196375148947,-21.849057426898561,-20.565918478646246,-19.282779530391991,-17.999640582135772,-16.716501633877641,-15.433362685617571,-14.150223737355539,-12.867084789091596,-11.583945840825704,-10.348025679794047,-9.30098289933075,-8.2539401188654988,-7.2068973383982975,-6.1598545579291546,-5.1128117774580568,-4.0657689969850095,-3.0187262165100091,-1.9716834360330644,-0.92464065555416775,0.12240212492668215,1.1694449054094902,2.2164876858942408,3.2635304663809444,4.3105732468695965,5.3576160273602014,6.404658807852754,7.4517015883472526,8.4987443688436972,9.5457871493420932,10.493204250414802,11.208158293872629,11.923112337332432,12.638066380794214,13.353020424257982,14.067974467723731,14.782928511191454,15.497882554661167,16.212836598132846,16.92779064160651,17.64274468508216,18.357698728559786,19.072652772039394,19.787606815520981,20.502560859004557,21.217514902490098,21.932468945977618,22.647422989467149,23.362377032958612,24.077331076452083,24.629825781553592,24.938627640048875,25.247429498546161,25.556231357045458,25.865033215546728,26.173835074049997,26.482636932555291,26.791438791062603,27.100240649571862,27.409042508083179,27.717844366596438,28.026646225111762,28.335448083629057,28.644249942148338,28.953051800669641,29.261853659192933,29.57065551771824,29.87945737624554,30.188259234774844,30.49706109330614,30.279914312343,30.131294363531108,29.982674414721256,29.834054465913436,29.685434517107627,29.536814568303853,29.388194619502123,29.23957467070241,29.090954721904723,28.942334773109078,28.79371482431543,28.645094875523817,28.496474926734223,28.347854977946668,28.199235029161137,28.050615080377636,27.901995131596145,27.753375182816704,27.311776572218136,26.674854238238915,26.037931904261832,25.401009570286817,24.76408723631392,24.127164902343115,23.490242568374388,22.8533202344078,22.216397900443319,21.5794755664809,20.94255323252062,20.305630898562434,19.668708564606355,19.031786230652379,18.394863896700485,17.757941562750709,17.121019228803011,16.484096894857458,15.847174560914002,15.210252226972635,14.220704149188936,13.080025991069475,11.939347832952073,10.798669674836759,9.6579915167234915,8.5173133586123413,7.37663520050324,6.2359570423961781,5.0952788842912327,3.9546007261883243,2.8139225680875093,1.6732444099887536,0.53256625189208928,-0.60811190620254019,-1.7487900642950547,-2.8894682223855281,-4.030146380473913,-5.17082453856022,-6.3115026966444772,-7.4521808547266488,-9.0001330542597877,-10.649908576190924,-12.299684098119876,-13.949459620046611,-15.599235141971155,-17.249010663893504,-18.898786185813638,-20.548561707731558,-22.198337229647297,-23.84811275156089,-25.497888273472167,-27.147663795381337,-28.797439317288219,-30.447214839193009,-32.096990361095507,-33.74676588299581,-35.396541404893938,-37.046316926789849,-38.696092448683586,-40.345867970575114,-42.454724086342047,-44.614593978440823,-46.774463870537417,-48.934333762631667,-51.094203654723792,-53.254073546813586,-55.413943438901157,-57.573813330986482,-59.733683223069654,-61.893553115150517,-64.053423007229171,-66.213292899305557,-68.3731627913797,-70.5330326834517,-72.692902575521344,-74.852772467588778,-77.012642359654038,-79.172512251716924,-81.332382143777792,-83.49225203583616,0,0.044312999726485322,0.12398185593144616,0.25672431219783964,0.45317206114233677,0.71447781043933212,1.0410114107190274,1.4325490800152667,1.8882245521849494,2.4062946352356178,2.7911094913129797,3.6840934817505073
DP 479,186.25662200825451,0.0016971405115511092,-22.899058960190615,-22.43966033435747,-21.980261708523596,-21.520863082689072,-21.061464456853894,-20.60206583101801,-20.142667205181453,-19.683268579344219,-19.223869953506302,-18.764471327667707,-18.30507270182844,-17.845674075988498,-17.386275450147874,-16.926876824306579,-16.467478198464605,-16.008079572621938,-15.548680946778623,-15.089282320934602,-14.629883695089921,-14.170485069244551,-13.714551821386713,-13.289807302984492,-12.865062784581585,-12.440318266177993,-12.015573747773718,-11.590829229368758,-11.166084710963109,-10.741340192556779,-10.31659567414976,-9.8918511557420654,-9.4671066373336785,-9.0423621189245988,-8.61761760051484,-8.1928730821044,-7.7681285636932769,-7.3433840452814581,-6.9186395268689642,-6.4938950084557785,-6.0691504900419089,-5.644405971627358,-5.2338406917616265,-4.8799930362237838,-4.526145380685243,-4.1722977251459969,-3.8184500696060479,-3.4646024140653946,-3.1107547585240374,-2.7569071029819763,-2.4030594474392144,-2.0492117918957495,-1.69536413635158,-1.3415164808067033,-0.98766882526112654,-0.63382116971484581,-0.27997351416786109,0.073874141379826272,0.42772179692821727,0.78156945247731013,1.135417108027104,1.4892647635776033,1.8122438014876012,2.0631950923103526,2.3141463831338211,2.565097673958006,2.8160489647829028,3.0670002556085167,3.3179515464348475,3.5689028372618945,3.8198541280896556,4.0708054189181331,4.3217567097473264,4.5727080005772329,4.8236592914078553,5.0746105822391954,5.32556187307125,5.5765131639040186,5.8274644547375045,6.0784157455717089,6.3293670364066337,6.5803183272422592,6.7788193096846125,6.898643590102628,7.0184678705213646,7.1382921509408428,7.2581164313610529,7.3779407117819975,7.4977649922036731,7.6175892726260823,7.7374135530492243,7.8572378334731043,7.9770621138977136,8.0968863943230538,8.2167106747491356,8.3365349551759458,8.45635923560349,8.576183516031767,8.6960077964607745,8.815832076890521,8.9356563573209957,9.0554806377522059,9.0275136517106986,8.99236170823746,8.9572097647649667,8.9220578212932224,8.88690587782222,8.85175393435198,8.8166019908824733,8.78145004741371,8.7462981039457119,8.7111461604784584,8.6759942170119473,8.6408422735461947,8.6056903300811776,8.57053838661691,8.5353864431533886,8.5002344996906221,8.4650825562286034,8.429930612767329,8.2903038338999639,8.081025518895494,7.8717472038918066,7.6624688888889017,7.4531905738867907,7.2439122588854525,7.0346339438849279,6.825355628885168,6.616077313886195,6.4067989988880063,6.1975206838906169,5.9882423688940021,5.7789640538981875,5.56968573890315,5.3604074239088932,5.1511291089154359,4.94185079392275,4.7325724789308543,4.5232941639397515,4.3140158489494329,3.9726560033934204,3.5746880040827835,3.1767200047729194,2.7787520054638368,2.380784006155519,1.9828160068479928,1.5848480075412406,1.186880008235248,0.788912008930048,0.39094400962561043,-0.0070239896780430622,-0.40499198898092392,-0.80295998828302262,-1.2009279875843586,-1.5988959868849042,-1.9968639861846809,-2.3948319854836808,-2.7927999847819009,-3.1907679840793506,-3.5887359833760226,-4.145668391858611,-4.742343780838274,-5.3390191698171074,-5.9356945587951,-6.5323699477722608,-7.1290453367485789,-7.7257207257240648,-8.3223961146987016,-8.91907150367251,-9.51574689264549,-10.11242228161761,-10.709097670588919,-11.305773059559362,-11.902448448528997,-12.499123837497775,-13.095799226465713,-13.692474615432827,-14.289150004399104,-14.885825393364524,-15.482500782329124,-16.263374125059386,-17.064715841621112,-17.866057558181982,-18.667399274741957,-19.468740991301114,-20.270082707859387,-21.071424424416836,-21.872766140973386,-22.674107857529112,-23.475449574083964,-24.276791290637988,-25.078133007191152,-25.879474723743442,-26.680816440294908,-27.48215815684545,-28.2834998733952,-29.0848415899441,-29.886183306492086,-30.687525023039282,-31.488866739585557,0,0.017842903891743936,0.048409608497682076,0.09850074800911425,0.17251638378265252,0.2708766081756494,0.3937051621390068,0.54091532432768541,0.71218952747474507,0.90688865680359632,1.0514582136484447,1.387271123690125
DP 480,93.917498204199575,0.0017861699289677508,-14.900804661934041,-14.662972300269013,-14.425139938603717,-14.187307576938164,-13.949475215272328,-13.711642853606241,-13.473810491939895,-13.235978130273256,-12.998145768606364,-12.760313406939204,-12.522481045271769,-12.284648683604079,-12.046816321936111,-11.808983960267883,-11.571151598599396,-11.333319236930624,-11.095486875261596,-10.857654513592294,-10.619822151922733,-10.3819897902529,-10.14588033833016,-9.925277236990306,-9.70467413565017,-9.4840710343097534,-9.2634679329690517,-9.0428648316280764,-8.8222617302868116,-8.6016586289452661,-8.3810555276034382,-8.1604524262613314,-7.9398493249189492,-7.7192462235762749,-7.4986431222333172,-7.2780400208900913,-7.0574369195465714,-6.836833818202777,-6.6162307168587,-6.3956276155143348,-6.17502451416969,-5.9544214128247734,-5.7409152160533932,-5.5557969729866219,-5.3706787299195273,-5.1855604868521095,-5.0004422437843692,-4.8153240007162967,-4.6302057576479108,-4.445087514579197,-4.2599692715101627,-4.0748510284408015,-3.8897327853711179,-3.7046145423011092,-3.5194962992307786,-3.3343780561601242,-3.1492598130891478,-2.9641415700178442,-2.7790233269462203,-2.5939050838742732,-2.4087868408020023,-2.2236685977294082,-2.0541861793379361,-1.9211878445146746,-1.7881895096910776,-1.6551911748671508,-1.5221928400428937,-1.3891945052183023,-1.2561961703933806,-1.1231978355681256,-0.99019950074254026,-0.857201165916622,-0.72420283109037287,-0.59120449626379312,-0.45820616143687892,-0.32520782660963432,-0.19220949178205735,-0.059211156954148518,0.073787177874092627,0.20678551270266585,0.33978384753156959,0.47278218236080483,0.57881729738355947,0.6444069455384519,0.70999659369370793,0.77558624184932967,0.84117589000531556,0.90676553816166583,0.9723551863183798,1.0379448344754587,1.103534482632901,1.1691241307907079,1.2347137789488822,1.3003034271074161,1.3658930752663179,1.4314827234255807,1.4970723715852119,1.5626620197452041,1.6282516679055632,1.693841316066284,1.7594309642273738,1.8250206123888231,1.8192110519810609,1.8037691450018576,1.7883272380230404,1.772885331044604,1.7574434240665555,1.7420015170888894,1.7265596101116105,1.7111177031347109,1.6956757961582007,1.6802338891820712,1.6647919822063262,1.6493500752309673,1.6339081682559915,1.6184662612814016,1.6030243543071956,1.5875824473333737,1.572140540359936,1.5566986333868835,1.4856938837299563,1.3776463636294911,1.2695988435294581,1.1615513234298469,1.0535038033306656,0.945456283231909,0.8374087631335847,0.729361243035685,0.62131372293821152,0.51326620284116831,0.40521868274455497,0.29717116264836568,0.18912364255260358,0.081076122457272873,-0.026971397637634877,-0.13501891773211144,-0.24306643782616422,-0.35111395791978683,-0.45916147801298013,-0.56720899810574632,-0.74661706399742978,-0.95660918453549237,-1.1666013050731319,-1.3765934256103434,-1.5865855461471388,-1.7965776666834994,-2.0065697872194388,-2.2165619077549605,-2.4265540282900511,-2.636546148824725,-2.846538269358966,-3.05653038989279,-3.2665225104261837,-3.47651463095916,-3.6865067514917049,-3.8964988720238285,-4.1064909925555275,-4.316483113086802,-4.5264752336176528,-4.7364673541480817,-5.0334175125303391,-5.3521082078044975,-5.6707989030781727,-5.989489598351355,-6.3081802936240532,-6.6268709888962674,-6.9455616841679957,-7.2642523794392266,-7.5829430747099842,-7.9016337699802444,-8.2203244652500178,-8.5390151605193054,-8.8577058557881045,-9.1763965510564187,-9.4950872463242373,-9.8137779415915887,-10.132468636858436,-10.451159332124805,-10.769850027390678,-11.088540722656077,-11.508821423164612,-11.940390968974302,-12.371960514783488,-12.803530060592145,-13.235099606400311,-13.66666915220797,-14.098238698015114,-14.529808243821746,-14.961377789627889,-15.392947335433504,-15.82451688123863,-16.256086427043229,-16.687655972847349,-17.119225518650946,-17.550795064453997,-17.982364610256578,-18.413934156058652,-18.845503701860213,-19.277073247661267,-19.708642793461795,0,0.013676936103242511,0.032153123769964577,0.060091802106854081,0.10104386172932404,0.15526346728248525,0.22279196340811638,0.30358115590762891,0.39748414484845623,0.50419748093834826,0.58312983995042589,0.76710530328053583
DP 481,189.63667402277389,0.0035067253815795323,-47.851598507001178,-46.887824876917414,-45.924051246832207,-44.9602776167456,-43.996503986657565,-43.032730356568116,-42.068956726477218,-41.1051830963849,-40.141409466291137,-39.177635836196025,-38.213862206099463,-37.250088576001431,-36.286314945902042,-35.322541315801189,-34.358767685698922,-33.394994055595241,-32.4312204254901,-31.467446795383633,-30.503673165275615,-29.53989953516626,-28.58341568552131,-27.692540549128925,-26.801665412735137,-25.910790276339913,-25.019915139943205,-24.129040003545114,-23.23816486714556,-22.347289730744588,-21.456414594342146,-20.565539457938304,-19.674664321533012,-18.78378918512626,-17.892914048718087,-17.002038912308464,-16.111163775897424,-15.220288639484938,-14.329413503071006,-13.438538366655642,-12.547663230238848,-11.656788093820609,-10.795725432653665,-10.053914081475298,-9.3121027302954484,-8.5702913791141331,-7.82848002793135,-7.0866686767470757,-6.3448573255613425,-5.6030459743741323,-4.861234623185446,-4.1194232719952844,-3.3776119208036466,-2.63580056961053,-1.8939892184159473,-1.1521778672198857,-0.4103665160223503,0.33144483517665951,1.0732561863771417,1.8150675375790952,2.5568788887825202,3.2986902399874225,3.9756511680099589,4.50129239866608,5.0269336293237092,5.5525748599828306,6.0782160906434539,6.6038573213055791,7.1294985519692,7.65513978263433,8.1807810133009458,8.7064222439690813,9.23206347463869,9.7577047053098145,10.283345935982435,10.80898716665655,11.334628397332175,11.860269628009293,12.385910858687922,12.911552089368033,13.437193320049658,13.962834550732783,14.378394946849216,14.628831489834901,14.879268032822131,15.129704575810891,15.380141118801189,15.630577661793026,15.881014204786398,16.1314507477813,16.381887290777744,16.632323833775715,16.882760376775209,17.133196919776278,17.383633462778857,17.634070005782981,17.884506548788625,18.134943091795812,18.385379634804547,18.635816177814817,18.886252720826604,19.136689263839934,19.075787627863409,19.001339050700292,18.92689047353872,18.852441896378739,18.777993319220315,18.703544742063432,18.629096164908162,18.55464758775442,18.480199010602259,18.405750433451669,18.331301856302648,18.25685327915518,18.182404702009261,18.107956124864948,18.033507547722174,17.959058970580969,17.884610393441339,17.810161816303253,17.51695631698994,17.077909423326478,16.638862529664646,16.199815636004459,15.760768742345915,15.321721848689007,14.882674955033755,14.443628061380153,14.00458116772818,13.565534274077857,13.126487380429207,12.687440486782153,12.248393593136768,11.809346699493039,11.370299805850932,10.931252912210484,10.49220601857167,10.053159124934506,9.6141122312989964,9.1750653376651314,8.45975851117673,7.6260508402380074,6.7923431693009011,5.9586354983654237,5.124927827431546,4.2912201564993273,3.4575124855687203,2.6238048146397079,1.7900971437123518,0.95638947278659048,0.12268180186247019,-0.71102586906003518,-1.5447335399809046,-2.37844121090018,-3.2121488818177997,-4.0458565527338193,-4.8795642236482033,-5.7132718945609593,-6.5469795654721077,-7.3806872363816218,-8.5465887894057762,-9.7955427379047411,-11.04449668640197,-12.293450634897441,-13.542404583391182,-14.791358531883159,-16.0403124803734,-17.289266428861868,-18.538220377348594,-19.78717432583359,-21.036128274316788,-22.28508222279828,-23.534036171277982,-24.782990119755976,-26.0319440682322,-27.280898016706697,-28.529851965179439,-29.778805913650409,-31.027759862119627,-32.276713810587118,-33.910367452958944,-35.586769546042049,-37.263171639123421,-38.939573732202959,-40.615975825280735,-42.2923779183567,-43.968780011430852,-45.645182104503213,-47.321584197573848,-48.997986290642693,-50.674388383709719,-52.350790476774989,-54.027192569838448,-55.703594662900088,-57.379996755959972,-59.056398849018144,-60.732800942074434,-62.409203035128904,-64.085605128181768,-65.7620072212326,0,0.037161039052937113,0.10100789745351527,0.20573505896724648,0.3604944455231347,0.56616588667969781,0.8230100647930394,1.1308459326401796,1.4890082384485472,1.8961586605884586,2.1984869794942843,2.900712227930657
DP 482,151.54760585188743,0.0036466388868850673,-43.111174736473451,-42.288250416111325,-41.465326095748082,-40.642401775383604,-39.819477455017996,-38.99655313465118,-38.1736288142832,-37.350704493913994,-36.52778017354364,-35.704855853172084,-34.881931532799335,-34.059007212425449,-33.236082892050355,-32.413158571674089,-31.590234251296625,-30.767309930917975,-29.944385610538195,-29.121461290157157,-28.298536969774982,-27.475612649391611,-26.658756208072102,-25.896511251898634,-25.13426629572399,-24.372021339548123,-23.609776383371056,-22.847531427192791,-22.085286471013315,-21.323041514832639,-20.560796558650797,-19.798551602467711,-19.036306646283435,-18.274061690097966,-17.511816733911264,-16.749571777723382,-15.987326821534317,-15.22508186534402,-14.462836909152545,-13.700591952959854,-12.93834699676596,-12.176102040570861,-11.43878643872716,-10.801189432488625,-10.163592426248831,-9.525995420007785,-8.8883984137654934,-8.2508014075219371,-7.6132044012771258,-6.9756073950310622,-6.3380103887837391,-5.70041338253516,-5.0628163762853271,-4.4252193700342328,-3.7876223637818898,-3.1500253575282868,-2.512428351273432,-1.8748313450173182,-1.2372343387599511,-0.59963733250133222,0.037959673758539168,0.67555668001967,1.2585182083827722,1.71399523355688,2.169472258732275,2.6249492839089426,3.080426309086886,3.5359033342661146,3.9913803594466226,4.4468573846284034,4.9023344098114672,5.3578114349958117,5.813288460181429,6.2687654853683332,6.7242425105565129,7.1797195357459707,7.6351965609367083,8.0906735861287249,8.5461506113220231,9.0016276365166039,9.4571046617124619,9.9125816869095864,10.274437206770109,10.495858256289484,10.717279305810196,10.938700355332234,11.160121404855591,11.381542454380279,11.602963503906286,11.824384553433616,12.04580560296229,12.26722665249228,12.488647702023588,12.710068751556246,12.931489801090205,13.152910850625496,13.374331900162112,13.595752949700046,13.817173999239325,14.038595048779914,14.260016098321856,14.481437147865092,14.447453216304865,14.389574905778613,14.331696595253716,14.273818284730179,14.215939974208005,14.158061663687194,14.100183353167735,14.042305042649637,13.984426732132913,13.926548421617541,13.868670111103535,13.810791800590886,13.752913490079582,13.695035179569667,13.637156869061094,13.579278558553881,13.521400248048034,13.463521937543558,13.215513747691245,12.84074930968924,12.465984871688693,12.091220433689589,11.71645599569192,11.341691557695686,10.966927119700919,10.592162681707586,10.217398243715685,9.8426338057252387,9.46786936773625,9.0931049297486961,8.71834049176258,8.343576053777916,7.9688116157946896,7.5940471778129135,7.21928273983257,6.8445183018536815,6.469753863876238,6.0949894259002431,5.4776780385263715,4.7564146834139063,4.0351513283028648,3.3138879731932542,2.5926246180850514,1.8713612629783074,1.1500979078729809,0.42883455276905663,-0.29242880233341156,-1.0136921574344773,-1.7349555125340996,-2.4562188676323031,-3.1774822227290693,-3.89874557782443,-4.6200089329183314,-5.341272288010833,-6.0625356431019011,-6.7837989981915285,-7.505062353279742,-8.2263257083665273,-9.2416156984978546,-10.330415821381791,-11.419215944264172,-12.508016067144997,-13.596816190024253,-14.685616312901955,-15.774416435778125,-16.863216558652695,-17.952016681525716,-19.04081680439722,-20.129616927267115,-21.218417050135471,-22.307217173002257,-23.396017295867498,-24.484817418731193,-25.573617541593322,-26.662417664453855,-27.7512177873129,-28.840017910170328,-29.928818033026221,-31.359926407111676,-32.8290726263985,-34.298218845683763,-35.767365064967372,-37.236511284249417,-38.705657503529864,-40.1748037228087,-41.643949942085918,-43.11309616136159,-44.582242380635577,-46.051388599908037,-47.520534819178891,-48.989681038448133,-50.458827257715818,-51.927973476981812,-53.397119696246314,-54.866265915509196,-56.335412134770358,-57.804558354030107,-59.27370457328815,0,0.03483929837870723,0.092039810598644148,0.1845349258799803,0.321053608506387,0.50235658155837115,0.72864912210242694,0.99976812691173067,1.315141236246115,1.6736170286582079,1.9396835593534305,2.5581540740841162
DP 483,259.86127553737282,0.0022979612030102478,-38.242282066695886,-37.421973778432061,-36.601665490167079,-35.781357201900931,-34.9610489136336,-34.140740625365119,-33.320432337095433,-32.5001240488246,-31.6798157605526,-30.859507472279439,-30.039199184005081,-29.21889089572959,-28.39858260745288,-27.578274319175041,-26.757966030896011,-25.937657742615837,-25.117349454334473,-24.297041166051955,-23.476732877768256,-22.656424589483382,-21.842769024553863,-21.088988598675758,-20.335208172796484,-19.581427746916013,-18.827647321034391,-18.073866895151589,-17.320086469267608,-16.56630604338244,-15.812525617496105,-15.058745191608612,-14.304964765719918,-13.551184339830073,-12.797403913939032,-12.043623488046823,-11.289843062153439,-10.536062636258881,-9.78228221036315,-9.0285017844662416,-8.274721358568156,-7.5209409326688972,-6.7940292290504916,-6.1745936844122529,-5.5551581397728187,-4.9357225951322032,-4.316287050490403,-3.6968515058474134,-3.0774159612032381,-2.4579804165578745,-1.8385448719113258,-1.21910932726359,-0.59967378261466531,0.0197617620354507,0.63919730668674957,1.2586328513392369,1.87806839599291,2.4975039406477717,3.1169394853038197,3.7363750299610481,4.3558105746194657,4.9752461192790758,5.5374116344527629,5.9659452763911025,6.3944789183306492,6.8230125602714038,7.2515462022133592,7.6800798441565217,8.1086134861008947,8.5371471280464686,8.9656807699932539,9.394214411941249,9.822748053890427,10.251281695840831,10.679815337792437,11.108348979745241,11.536882621699256,11.965416263654488,12.393949905610917,12.822483547568545,13.251017189527381,13.679550831487433,14.013417429237448,14.205281223629486,14.397145018022767,14.589008812417253,14.780872606812965,14.972736401209904,15.164600195608067,15.356463990007427,15.548327784408032,15.740191578809863,15.932055373212902,16.123919167617164,16.315782962022656,16.507646756429363,16.699510550837296,16.891374345246444,17.083238139656824,17.275101934068402,17.466965728481238,17.658829522895267,17.557162402915491,17.478122283918054,17.399082164921861,17.320042045926886,17.241001926933176,17.161961807940706,17.082921688949472,17.003881569959468,16.924841450970685,16.845801331983175,16.766761212996887,16.687721094011838,16.608680975028033,16.529640856045464,16.450600737064136,16.371560618084033,16.29252049910518,16.213480380127571,15.957845244888075,15.584477316780463,15.211109388674133,14.837741460569077,14.464373532465336,14.091005604362868,13.71763767626169,13.344269748161803,12.970901820063201,12.597533891965877,12.224165963869861,11.850798035775119,11.477430107681686,11.10406217958953,10.730694251498646,10.357326323409072,9.9839583953207676,9.61059046723376,9.2372225391480445,8.8638546110636174,8.2742325616416235,7.5919272543991267,6.9096219471578726,6.2273166399179107,5.5450113326792048,4.8627060254417884,4.1804007182056369,3.4980954109707318,2.8157901037371245,2.1334847965047641,1.4511794892736891,0.76887418204387459,0.086568874815343227,-0.5957364324119413,-1.2780417396379293,-1.9603470468626665,-2.6426523540861235,-3.3249576613083063,-4.0072629685292336,-4.6895682757488819,-5.6253652773590543,-6.6245381976287936,-7.6237111178971828,-8.6228840381642158,-9.6220569584299,-10.621229878694226,-11.620402798957214,-12.619575719218822,-13.618748639479088,-14.617921559738022,-15.617094479995568,-16.616267400251786,-17.615440320506625,-18.614613240760139,-19.613786161012275,-20.61295908126306,-21.6121320015125,-22.6113049217606,-23.61047784200732,-24.609650762252706,-25.897451311088577,-27.217324627722846,-28.537197944355782,-29.857071260987247,-31.176944577617391,-32.496817894246178,-33.816691210873543,-35.1365645274995,-36.456437844124139,-37.7763111607474,-39.096184477369292,-40.416057793989822,-41.735931110608895,-43.055804427226668,-44.375677743843021,-45.695551060457994,-47.015424377071604,-48.335297693683806,-49.65517101029473,-50.975044326904147,0,0.027525144349694532,0.076600246936578534,0.15811356272308413,0.27870797659685242,0.43908639244122721,0.6394713690847007,0.87972467670762966,1.1593173276916924,1.47718440122241,1.7132806310991464,2.2612606103009112
DP 484,52.60887702443911,0.0025387735443924918,-12.98496945493237,-12.859241012614575,-12.733512570296821,-12.607784127979091,-12.482055685661377,-12.35632724334371,-12.230598801026078,-12.104870358708455,-11.979141916390866,-11.853413474073307,-11.727685031755778,-11.601956589438272,-11.476228147120803,-11.350499704803363,-11.224771262485939,-11.099042820168558,-10.973314377851203,-10.847585935533873,-10.721857493216573,-10.596129050899304,-10.471309096878676,-10.354665623401782,-10.238022149924904,-10.121378676448037,-10.004735202971156,-9.8880917294942829,-9.7714482560174183,-9.65480478254055,-9.5381613090636836,-9.4215178355868243,-9.304874362109965,-9.18823088863311,-9.0715874151562534,-8.9549439416794048,-8.8383004682025579,-8.72165699472571,-8.6050135212488676,-8.4883700477720172,-8.371726574295181,-8.25508310081835,-8.1421730645841848,-8.04419695376812,-7.9462208429519787,-7.848244732135754,-7.7502686213194574,-7.6522925105030755,-7.5543163996866252,-7.456340288870086,-7.3583641780534794,-7.2603880672367929,-7.1624119564200281,-7.0644358456031755,-6.9664597347862616,-6.86848362396926,-6.770507513152185,-6.6725314023350348,-6.5745552915178056,-6.4765791807004947,-6.3786030698831082,-6.2806269590656525,-6.1908851157845559,-6.1203568228626635,-6.04982852994068,-5.9793002370186121,-5.908771944096471,-5.8382436511742357,-5.7677153582519161,-5.6971870653295174,-5.6266587724070316,-5.5561304794844641,-5.4856021865618105,-5.4150738936390752,-5.3445456007162555,-5.274017307793355,-5.2034890148703665,-5.1329607219472955,-5.0624324290241418,-4.9919041361009047,-4.9213758431775787,-4.8508475502541781,-4.7945172823851712,-4.7594843876060917,-4.7244514928268755,-4.6894185980475163,-4.6543857032680132,-4.6193528084883706,-4.5843199137085877,-4.5492870189286636,-4.5142541241485938,-4.4792212293683829,-4.4441883345880333,-4.40915543980754,-4.3741225450269043,-4.3390896502461276,-4.3040567554652061,-4.269023860684146,-4.2339909659029455,-4.1989580711216012,-4.1639251763401166,-4.12889228155849,-4.1305783448354587,-4.13825942985005,-4.14594051486446,-4.1536215998787034,-4.1613026848927648,-4.1689837699066574,-4.176664854920368,-4.184345939933916,-4.1920270249472811,-4.1997081099604729,-4.207389194973489,-4.2150702799863309,-4.2227513649990023,-4.2304324500114951,-4.2381135350238113,-4.2457946200359595,-4.2534757050479275,-4.2611567900597214,-4.29814054333622,-4.3546598704149231,-4.4111791974933876,-4.4676985245716194,-4.52421785164961,-4.5807371787273672,-4.6372565058048814,-4.6937758328821566,-4.7502951599592009,-4.8068144870360019,-4.8633338141125675,-4.9198531411888951,-4.9763724682649837,-5.0328917953408352,-5.0894111224164478,-5.1459304494918268,-5.2024497765669615,-5.2589691036418627,-5.315488430716524,-5.37200775779095,-5.4662067921080117,-5.5765547811796417,-5.6869027702510433,-5.7972507593221918,-5.9075987483931156,-6.0179467374637916,-6.1282947265342287,-6.2386427156044348,-6.348990704674395,-6.4593386937441286,-6.5696866828136136,-6.6800346718828623,-6.7903826609518676,-6.9007306500206358,-7.0110786390891695,-7.1214266281574687,-7.2317746172255237,-7.3421226062933354,-7.4524705953609205,-7.5628185844282632,-7.7190875116738056,-7.8868372160301519,-8.0545869203861624,-8.22233662474185,-8.3900863290972119,-8.5578360334522472,-8.7255857378069575,-8.8933354421613462,-9.0610851465154063,-9.2288348508691413,-9.39658455522254,-9.5643342595756131,-9.7320839639283676,-9.8998336682808059,-10.067583372632916,-10.235333076984675,-10.403082781336131,-10.570832485687253,-10.738582190038052,-10.906331894388522,-11.12776047559294,-11.355153940205758,-11.582547404818234,-11.809940869430337,-12.037334334042091,-12.264727798653491,-12.492121263264526,-12.719514727875207,-12.946908192485544,-13.174301657095512,-13.401695121705133,-13.62908858631439,-13.856482050923292,-14.083875515531838,-14.311268980140042,-14.538662444747871,-14.766055909355357,-14.993449373962465,-15.220842838569242,-15.448236303175634,0,0.017018634961459795,0.032300356547770553,0.050122990194116916,0.074373153213266208,0.10550077624048042,0.14366082923780532,0.18894136039618847,0.24141206460851869,0.30104457388098221,0.343501468830125,0.44259401617084548
DP 485,299.27179065943835,0.0016076100326383438,-29.37618939299681,-28.729242529969568,-28.082295666941448,-27.435348803912476,-26.788401940882594,-26.141455077851855,-25.494508214820215,-24.847561351787679,-24.20061448875429,-23.553667625719992,-22.906720762684827,-22.259773899648792,-21.612827036611861,-20.96588017357405,-20.318933310535371,-19.671986447495772,-19.025039584455335,-18.378092721413996,-17.731145858371779,-17.084198995328681,-16.442743330666239,-15.850708970488549,-15.258674610309971,-14.666640250130513,-14.074605889950174,-13.482571529768936,-12.890537169586819,-12.298502809403825,-11.706468449219928,-11.114434089035161,-10.5223997288495,-9.9303653686629652,-9.338331008475544,-8.7462966482872275,-8.154262288098046,-7.5622279279079585,-6.9701935677170015,-6.3781592075251519,-5.7861248473324185,-5.1940904871388041,-4.6240540355892028,-4.1420102582701075,-3.6599664809501178,-3.1779227036292435,-2.6958789263074805,-2.2138351489848249,-1.7317913716612809,-1.2497475943368466,-0.76770381701152657,-0.28566003968531584,0.19638373764178615,0.67842751496978093,1.1604712922986609,1.6425150696284334,2.1245588469590957,2.606602624290645,3.088646401623083,3.5706901789564087,4.0527339562906235,4.5347777336257318,4.9705506336994585,5.2983566956175352,5.6261627575365187,5.9539688194564047,6.281774881377193,6.6095809432988855,6.9373870052214768,7.26519306714497,7.5929991290693728,7.9208051909946784,8.2486112529208757,8.5764173148479887,8.9042233767759988,9.2320294387049131,9.5598355006347422,9.8876415625654612,10.215447624497081,10.543253686429612,10.871059748363034,11.198865810297365,11.451531628906764,11.591485306916688,11.731438984927514,11.871392662939263,12.011346340951917,12.15130001896549,12.291253696979966,12.431207374995354,12.571161053011663,12.711114731028884,12.851068409047002,12.991022087066048,13.130975765086001,13.270929443106864,13.410883121128638,13.550836799151313,13.690790477174925,13.830744155199437,13.970697833224856,14.110651511251202,14.004237038253022,13.933680115494555,13.863123192737005,13.792566269980385,13.722009347224684,13.651452424469911,13.580895501716061,13.510338578963131,13.439781656211114,13.369224733460035,13.298667810709885,13.228110887960648,13.157553965212328,13.086997042464946,13.016440119718469,12.945883196972913,12.875326274228307,12.804769351484598,12.600121095372527,12.306076504578723,12.01203191378589,11.717987322994006,11.423942732203075,11.129898141413086,10.83585355062408,10.541808959836034,10.247764369048928,9.9537197782627818,9.6596751874776,9.36563059669337,9.0715860059101043,8.7775414151277875,8.4834968243464282,8.1894522335660351,7.8954076427865907,7.6013630520081037,7.3073184612305839,7.0132738704540163,6.5587221515045959,6.0353794959919309,5.5120368404802038,4.9886941849694262,4.4653515294595785,3.9420088739506962,3.4186662184427465,2.8953235629357263,2.3719809074296672,1.8486382519245377,1.3252955964203608,0.80195294091712166,0.27861028541483451,-0.24473237008652668,-0.76807502558692453,-1.2914176810863935,-1.814760336584911,-2.3381029920824843,-2.8614456475791217,-3.3847883030748123,-4.0926302828802417,-4.8465992736645065,-5.60056826444778,-6.3545372552300368,-7.1085062460112978,-7.8624752367915622,-8.6164442275708257,-9.370413218349082,-10.124382209126338,-10.878351199902612,-11.632320190677845,-12.386289181452106,-13.140258172225337,-13.894227162997611,-14.648196153768838,-15.402165144539088,-16.156134135308335,-16.910103126076585,-17.664072116843816,-18.418041107610069,-19.379296648551591,-20.363586205411718,-21.347875762270824,-22.332165319128904,-23.316454875985972,-24.30074443284202,-25.285033989697034,-26.269323546551039,-27.253613103404064,-28.237902660256022,-29.222192217106983,-30.206481773956959,-31.190771330805863,-32.175060887653778,-33.159350444500646,-34.143640001346562,-35.127929558191411,-36.112219115035209,-37.096508671878091,-38.080798228719843,0,0.020108576258574443,0.056333880726952765,0.11673860017381904,0.2061399153648921,0.325063238841996,0.47367784999628559,0.65188184736063248,0.85928065101997875,1.095079932244122,1.2702299047498635,1.6766551432939178
DP 486,112.87995607198643,0.0031964772089960588,-30.747270519636775,-30.21374392126776,-29.680217322898017,-29.146690724527613,-28.613164126156509,-28.079637527784755,-27.546110929412304,-27.012584331039143,-26.479057732665293,-25.945531134290803,-25.412004535915582,-24.878477937539689,-24.344951339163114,-23.811424740785831,-23.27789814240791,-22.744371544029253,-22.210844945649924,-21.677318347269932,-21.143791748889232,-20.610265150507832,-20.080616281267037,-19.585867340836529,-19.091118400405325,-18.596369459973417,-18.101620519540795,-17.606871579107466,-17.112122638673416,-16.617373698238666,-16.122624757803209,-15.627875817367039,-15.133126876930154,-14.638377936492564,-14.143628996054254,-13.648880055615242,-13.154131115175538,-12.659382174735098,-12.164633234293962,-11.669884293852116,-11.175135353409553,-10.680386412966293,-10.201607116990385,-9.78670715363364,-9.3718071902761348,-8.95690722691785,-8.54200726355879,-8.1271073001989578,-7.7122073368383521,-7.2973073734769685,-6.8824074101148156,-6.4675074467518865,-6.052607483388182,-5.6377075200236995,-5.2228075566584522,-4.8079075932924269,-4.3930076299256235,-3.9781076665580515,-3.5632077031897054,-3.1483077398205825,-2.7334077764506914,-2.3185078130800245,-1.9387548273031041,-1.6410125633046992,-1.3432702993054977,-1.0455280353055094,-0.74778577130473034,-0.4500435073031569,-0.15230124330079522,0.14544102070236073,0.44318328470630619,0.74092554871104266,1.0386678127165692,1.3364100767228866,1.6341523407299972,1.9318946047378982,2.22963686874659,2.5273791327560748,2.8251213967663484,3.1228636607774183,3.4206059247892746,3.7183481888019183,3.9555470412696909,4.1019293457405457,4.2483116502122442,4.39469395468478,4.5410762591581628,4.6874585636323935,4.8338408681074592,4.980223172583373,5.1266054770601288,5.2729877815377248,5.41937008601617,5.5657523904954456,5.7121346949755782,5.8585169994565467,6.0048993039383571,6.1512816084210167,6.2976639129045138,6.444046217388852,6.5904285218740393,6.7368108263600659,6.72172245621318,6.6864103037781053,6.6510981513439065,6.6157859989105763,6.58047384647813,6.5451616940465662,6.5098495416158695,6.4745373891860476,6.4392252367571094,6.4039130843290435,6.3686009319018622,6.3332887794755521,6.2979766270501178,6.262664474625562,6.2273523222018827,6.1920401697790792,6.1567280173571541,6.1214158649361075,5.9616784230073963,5.7189888279135364,5.47629923282064,5.23360963772869,4.9909200426376978,4.7482304475476473,4.5055408524585641,4.262851257370424,4.0201616622832352,3.7774720671970021,3.5347824721117305,3.2920928770273967,3.049403281944024,2.8067136868616074,2.5640240917801362,2.321334496699623,2.0786449016200574,1.8359553065414473,1.5932657114637931,1.3505761163870913,0.94828956428520206,0.47760216125920441,0.00691475823414736,-0.4637726447899595,-0.93446004781313574,-1.4051474508353503,-1.8758348538566263,-2.3465222568769764,-2.8172096598963621,-3.2878970629148205,-3.7585844659323251,-4.2292718689488948,-4.699959271964512,-5.1706466749791966,-5.641334077992922,-6.1120214810057218,-6.582708884017566,-7.053396287028467,-7.5240836900384283,-7.9947710930474463,-8.6597624270384,-9.37333203951989,-10.086901652000314,-10.80047126447969,-11.514040876958006,-12.227610489435261,-12.941180101911476,-13.654749714386604,-14.368319326860702,-15.081888939333743,-15.795458551805689,-16.509028164276629,-17.222597776746476,-17.936167389215317,-18.649737001683025,-19.363306614149725,-20.076876226615362,-20.79044583907995,-21.504015451543474,-22.21758506400592,-23.158003352418831,-24.123629431730564,-25.089255511041213,-26.054881590350746,-27.020507669659178,-27.98613374896653,-28.9517598282728,-29.917385907577938,-30.883011986882035,-31.848638066184982,-32.814264145486888,-33.779890224787714,-34.745516304087388,-35.711142383386019,-36.676768462683505,-37.642394541979932,-38.608020621275273,-39.5736467005695,-40.539272779862678,-41.504898859154672,0,0.026509511249301003,0.0658745372504728,0.12750584781516422,0.21820558073760613,0.33848431857653832,0.48844886095702406,0.66798824291685588,0.8767464904519493,1.1140030038039888,1.2898510591174475,1.6992042282005875
DP 487,64.827214622560149,0.0040419527295210344,-24.684250162526354,-24.381868042207405,-24.079485921888338,-23.777103801569098,-23.474721681249736,-23.172339560930205,-22.86995744061052,-22.567575320290722,-22.265193199970756,-21.962811079650631,-21.660428959330375,-21.358046839009969,-21.055664718689414,-20.753282598368713,-20.45090047804786,-20.148518357726854,-19.846136237405695,-19.543754117084415,-19.241371996762958,-18.938989876441372,-18.638793493960893,-18.358268958657124,-18.077744423353145,-17.797219888048975,-17.51669535274463,-17.236170817440094,-16.955646282135376,-16.675121746830452,-16.394597211525344,-16.114072676220065,-15.833548140914591,-15.553023605608939,-15.272499070303081,-14.991974534997052,-14.711449999690824,-14.430925464384417,-14.150400929077817,-13.869876393771039,-13.589351858464072,-13.308827323156907,-13.037298082373233,-12.801750444814088,-12.566202807254632,-12.330655169694863,-12.095107532134804,-11.859559894574431,-11.624012257013762,-11.388464619452785,-11.152916981891499,-10.917369344329915,-10.681821706768018,-10.446274069205822,-10.210726431643312,-9.9751787940805077,-9.7396311565173956,-9.5040835189539656,-9.26853588139025,-9.0329882438262228,-8.79744060626189,-8.5618929686972454,-8.3461804045448531,-8.17675030330757,-8.0073202020699732,-7.8378901008320563,-7.6684599995938241,-7.499029898355273,-7.3295997971164013,-7.1601696958772134,-6.9907395946377058,-6.8213094933978811,-6.6518793921577437,-6.48244929091729,-6.3130191896765027,-6.1435890884354123,-5.9741589871939995,-5.8047288859522688,-5.6352987847102174,-5.4658686834678463,-5.2964385822251607,-5.127008480982159,-4.9917901102699975,-4.9078901437990945,-4.8239901773277856,-4.7400902108560734,-4.6561902443839518,-4.5722902779114252,-4.488390311438498,-4.4044903449651587,-4.3205903784914188,-4.2366904120172713,-4.1527904455427169,-4.0688904790677594,-3.9849905125923932,-3.9010905461166256,-3.8171905796404459,-3.7332906131638679,-3.6493906466868791,-3.5654906802094848,-3.4815907137316859,-3.3976907472534803,-3.4032745671719682,-3.4222882829853116,-3.4413019987982,-3.4603157146106311,-3.4793294304226068,-3.4983431462341317,-3.5173568620451956,-3.5363705778558141,-3.5553842936659708,-3.5743980094756753,-3.5934117252849234,-3.6124254410937167,-3.6314391569020574,-3.6504528727099412,-3.6694665885173707,-3.6884803043243473,-3.7074940201308668,-3.726507735936929,-3.8161296914532516,-3.9528249191181688,-4.0895201467825277,-4.2262153744463387,-4.3629106021095927,-4.4996058297722881,-4.6363010574344292,-4.772996285096017,-4.9096915127570524,-5.0463867404175282,-5.1830819680774445,-5.31977719573681,-5.4564724233956232,-5.59316765105387,-5.7298628787115717,-5.8665581063687187,-6.0032533340253114,-6.139948561681341,-6.2766437893368208,-6.4133390169917428,-6.6408019687533768,-6.90716659935067,-7.1735312299474181,-7.4398958605436016,-7.7062604911392372,-7.972625121734314,-8.2389897523288287,-8.5053543829228051,-8.77171901351622,-9.0380836441090864,-9.3044482747013966,-9.570812905293149,-9.8371775358843454,-10.103542166474993,-10.36990679706507,-10.636271427654616,-10.902636058243591,-11.169000688832018,-11.435365319419894,-11.701729950007209,-12.07873893177246,-12.483410308620215,-12.888081685467279,-13.292753062313665,-13.697424439159352,-14.102095816004326,-14.506767192848622,-14.911438569692212,-15.316109946535118,-15.720781323377334,-16.12545270021883,-16.530124077059646,-16.934795453899778,-17.339466830739191,-17.744138207577937,-18.148809584415975,-18.553480961253321,-18.958152338089967,-19.362823714925931,-19.7674950917612,-20.301488760625645,-20.849852931245717,-21.398217101865058,-21.946581272483627,-22.494945443101461,-23.043309613718542,-23.591673784334908,-24.140037954950493,-24.688402125565371,-25.236766296179496,-25.785130466792904,-26.333494637405519,-26.881858808017427,-27.430222978628564,-27.97858714923899,-28.526951319848664,-29.0753154904576,-29.623679661065751,-30.172043831673218,-30.720408002279886,0,0.02777025439990051,0.056747139227581976,0.094970581222720465,0.14943898216155371,0.22080866401101085,0.30921301052762795,0.41465972421855407,0.53707390716857184,0.67618812745182277,0.77771422503648657,1.0150155863386603
DP 488,194.49237130216943,0.0043065527476718,-59.702294823031245,-58.493281029092024,-57.284267235150942,-56.075253441208055,-54.866239647263505,-53.657225853317115,-52.448212059368871,-51.239198265418892,-50.0301844714671,-48.821170677513571,-47.612156883558249,-46.403143089601095,-45.194129295642192,-43.985115501681527,-42.776101707719036,-41.567087913754776,-40.358074119788718,-39.149060325820862,-37.940046531851266,-36.73103273787985,-35.531200343672872,-34.414001415225378,-33.296802486776052,-32.179603558324921,-31.06240462987202,-29.945205701417294,-28.828006772960784,-27.710807844502447,-26.593608916042328,-25.476409987580407,-24.359211059116667,-23.242012130651108,-22.124813202183784,-21.007614273714637,-19.8904153452437,-18.773216416770946,-17.656017488296389,-16.538818559820037,-15.421619631341869,-14.3044207028619,-13.224742579846266,-12.295149451978784,-11.365556324109463,-10.4359631962383,-9.5063700683652836,-8.5767769404904239,-7.6471838126137159,-6.7175906847351685,-5.7879975568547728,-4.858404428972527,-3.928811301088436,-2.9992181732024932,-2.0696250453147118,-1.1400319174250817,-0.21043878953360437,0.71915433835971831,1.6487474662548862,2.5783405941518969,3.5079337220507485,4.4375268499514524,5.2855950399959113,5.9434358063960859,6.6012765727981639,7.2591173392021071,7.9169581056079243,8.5747988720156219,9.2326396384252,9.8904804048366532,10.548321171249983,11.206161937665188,11.864002704082278,12.521843470501244,13.179684236922087,13.837525003344808,14.495365769769405,15.153206536195881,15.811047302624237,16.468888069054469,17.126728835486592,17.784569601920566,18.304234774072764,18.616633289624353,18.929031805177875,19.241430320733294,19.55382883629068,19.866227351849957,20.17862586741116,20.491024382974292,20.803422898539328,21.115821414106289,21.428219929675183,21.740618445245989,22.053016960818709,22.36541547639337,22.677813991969931,22.990212507548414,23.302611023128822,23.615009538711156,23.927408054295412,24.239806569881569,24.159256293146711,24.064555709746603,23.969855126348442,23.87515454295222,23.780453959558006,23.68575337616571,23.591052792775418,23.496352209387009,23.401651626000614,23.306951042616166,23.21225045923368,23.117549875853143,23.022849292474547,22.928148709097918,22.83344812572324,22.738747542350524,22.644046958979789,22.549346375610988,22.181008253141233,21.630240793797434,21.079473334455706,20.528705875116,19.977938415778357,19.427170956442783,18.876403497109255,18.325636037777773,17.774868578448348,17.224101119120967,16.673333659795667,16.122566200472406,15.571798741151202,15.021031281832055,14.470263822514942,13.9194963631999,13.368728903886907,12.817961444575946,12.26719398526707,11.716426525960259,10.820662611951661,9.7770384159724433,8.7334142199952325,7.6897900240200663,6.646165828046886,5.6025416320757966,4.5589174361067,3.5152932401396031,2.4716690441745768,1.4280448482115395,0.38442065225055133,-0.65920354370842082,-1.7028277396653506,-2.7464519356202879,-3.7900761315731604,-4.8337003275240304,-5.8773245234728613,-6.9209487194196635,-7.9645729153644478,-9.00819711130721,-10.466116942540475,-12.0276155775934,-13.589114212644162,-15.150612847692722,-16.712111482739093,-18.273610117783303,-19.835108752825342,-21.39660738786516,-22.958106022902804,-24.519604657938316,-26.081103292971559,-27.642601928002694,-29.20410056303157,-30.765599198058361,-32.327097833082874,-33.888596468105291,-35.45009510312547,-37.0115937381435,-38.573092373159284,-40.134591008172968,-42.175452763830229,-44.269582122920433,-46.363711482008412,-48.457840841094075,-50.551970200177578,-52.646099559258808,-54.740228918337863,-56.834358277414594,-58.928487636489194,-61.022616995561542,-63.1167463546317,-65.210875713699636,-67.305005072765269,-69.3991344318287,-71.493263790889884,-73.58739314994888,-75.681522509005646,-77.775651868060123,-79.8697812271125,-81.963910586162413,0,0.046140936709678712,0.12572825132408347,0.25644005469066,0.44961929308016746,0.70636674732454729,1.0270109292549847,1.4113265172465006,1.858481164255477,2.3668006320397796,2.7442643628445471,3.6209454187548165
DP 489,309.82286510557469,0.0048745217838292712,-91.206665126779669,-89.185172124999312,-87.163679123216056,-85.142186121430214,-83.1206931196416,-81.099200117850231,-79.077707116056246,-77.056214114259419,-75.034721112459934,-73.013228110657764,-70.991735108852851,-68.970242107045223,-66.948749105234882,-64.927256103421868,-62.905763101606041,-60.88427009978755,-58.862777097966379,-56.841284096142438,-54.8197910943158,-52.798298092486455,-50.794177103309281,-48.946405870101323,-47.098634636890615,-45.250863403677165,-43.403092170461015,-41.555320937242143,-39.707549704020515,-37.859778470796215,-36.012007237569122,-34.164236004339358,-32.316464771106844,-30.468693537871616,-28.620922304633641,-26.773151071393,-24.925379838149588,-23.077608604903457,-21.229837371654597,-19.382066138403005,-17.534294905148709,-15.686523671891669,-13.908192632702596,-12.40762565163376,-10.90705867056217,-9.4064916894878561,-7.9059247084108071,-6.4053577273310154,-4.9047907462484863,-3.4042237651632221,-1.9036567840752239,-0.40308980298448804,1.09747717810899,2.5980441592052173,4.0986111403041727,5.5991781214058607,7.0997451025102976,8.6003120836174567,10.100879064727366,11.60144604584,13.102013026955381,14.602580008073467,15.957614391367896,16.9730681277072,17.988521864049314,19.003975600394188,20.01942933674184,21.034883073092296,22.050336809445504,23.065790545801498,24.081244282160277,25.096698018521817,26.112151754886135,27.127605491253245,28.143059227623116,29.158512963995779,30.173966700371217,31.189420436749447,32.204874173130456,33.220327909514218,34.235781645900808,35.251235382290119,36.031505292279185,36.458993905123322,36.886482517970236,37.313971130820015,37.741459743672564,38.168948356527885,38.596436969386055,39.023925582247024,39.451414195110793,39.878902807977347,40.306391420846744,40.733880033718947,41.161368646593935,41.588857259471709,42.016345872352311,42.443834485235719,42.871323098121906,43.298811711010913,43.726300323902706,44.153788936797369,43.798782754849185,43.571281321283209,43.343779887720032,43.116278454159655,42.8887770206022,42.661275587047555,42.433774153495712,42.20627271994676,41.978771286400566,41.75126985285727,41.523768419316823,41.29626698577917,41.068765552244358,40.841264118712395,40.613762685183254,40.386261251656983,40.158759818133532,39.9312583846129,39.289269829620508,38.370949997269832,37.452630164922112,36.53431033257727,35.615990500235434,34.697670667896482,33.779350835560493,32.861031003227467,31.942711170897343,31.024391338570155,30.106071506245968,29.18775167392468,28.269431841606334,27.351112009290929,26.432792176978463,25.514472344668938,24.596152512362323,23.677832680058703,22.759512847757996,21.841193015460256,20.429991350482759,18.807547958916388,17.185104567352955,15.562661175792394,13.940217784234711,12.317774392679979,10.695331001128135,9.0728876095791264,7.4504442180330894,5.8280008264898866,4.2055574349496263,2.5831140434122362,0.96067065187777267,-0.66177273965384686,-2.2842161311825051,-3.9066595227083143,-5.5291029142311983,-7.1515463057511779,-8.77398969726829,-10.396433088782491,-12.582173378325752,-14.90874454785699,-17.235315717385202,-19.561886886910283,-21.888458056432334,-24.215029225951298,-26.541600395467192,-28.868171564979974,-31.194742734489715,-33.521313903996436,-35.847885073499967,-38.174456243000535,-40.501027412497891,-42.827598581992348,-45.154169751483607,-47.48074092097184,-49.807312090456968,-52.133883259939083,-54.460454429418036,-56.787025598893976,-59.743939562743464,-62.770898234980933,-65.797856907215348,-68.824815579446451,-71.851774251674556,-74.878732923899491,-77.90569159612123,-80.932650268339955,-83.959608940555583,-86.986567612768013,-90.0135262849774,-93.040484957183651,-96.067443629386673,-99.0944023015867,-102.12136097378351,-105.14831964597718,-108.17527831816781,-111.20223699035523,-114.22919566253978,-117.2561543347208,0,0.06155004397270767,0.17266851337988912,0.35811097411678527,0.63259780063493842,0.99774516613188491,1.454075252353934,2.0012757312569946,2.6381335540705297,3.3622070883347552,3.9000482691630269,5.1480119792412893
DP 490,110.23459188980196,0.0028291459131328197,-26.734797470214691,-26.275285588038106,-25.815773705860938,-25.356261823683173,-24.896749941504833,-24.437238059325939,-23.977726177146412,-23.518214294966327,-23.05870241278566,-22.599190530604417,-22.139678648422578,-21.680166766240148,-21.220654884057165,-20.76114300187356,-20.301631119689389,-19.842119237504647,-19.382607355319319,-18.9230954731334,-18.463583590946879,-18.004071708759785,-17.547897746186607,-17.121765375657819,-16.695633005128428,-16.269500634598423,-15.843368264067824,-15.417235893536612,-14.991103523004796,-14.564971152472381,-14.138838781939356,-13.71270641140574,-13.286574040871509,-12.860441670336682,-12.434309299801237,-12.008176929265199,-11.58204455872856,-11.15591218819131,-10.72977981765346,-10.30364744711501,-9.87751507657595,-9.4513827060362789,-9.0389970762913947,-8.6815990594174615,-8.3242010425428727,-7.9668030256676268,-7.6094050087917173,-7.2520069919151418,-6.89460897503791,-6.53721095816001,-6.1798129412814546,-5.8224149244022287,-5.4650169075223429,-5.1076188906417972,-4.75022087376059,-4.3928228568787144,-4.0354248399961818,-3.6780268231129862,-3.3206288062291258,-2.9632307893446068,-2.6058327724594275,-2.2484347555735833,-1.9212983317819434,-1.6647732453436586,-1.4082481589046911,-1.1517230724650507,-0.89519798602473366,-0.63867289958373841,-0.38214781314206631,-0.12562272669971605,0.13090235974331019,0.38742744618701497,0.643952532631395,0.9004776190764513,1.1570027055221874,1.4135277919685998,1.6700528784156894,1.9265779648634569,2.1831030513119027,2.4396281377610229,2.6961532242108226,2.9526783106612959,3.1570673838114391,3.2832512050036904,3.4094350261966651,3.5356188473903623,3.66180266858479,3.787986489779938,3.9141703109758037,4.0403541321724008,4.1665379533697173,4.2927217745677613,4.4189055957665264,4.5450894169660154,4.67127323816623,4.7974570593671624,4.9236408805688239,5.0498247017712092,5.1760085229743167,5.3021923441781471,5.4283761653827076,5.554559986587984,5.5418426819990954,5.5115187000567589,5.48119471811517,5.45087073617434,5.4205467542342634,5.39022277229494,5.3598987903563744,5.3295748084185561,5.2992508264814981,5.2689268445451818,5.23860286260963,5.2082788806748379,5.1779548987407864,5.1476309168075,5.11730693487496,5.086982952943174,5.05665897101215,5.0263349890818692,4.8888107469513455,4.6798179758854195,4.4708252048203185,4.26183243375603,4.0528396626925645,3.8438468916299189,3.6348541205681011,3.4258613495071026,3.2168685784469186,3.0078758073875589,2.7988830363290287,2.5898902652713112,2.3808974942144183,2.17190472315835,1.9629119521030955,1.7539191810486705,1.5449264099950588,1.3359336389422722,1.1269408678903114,0.91794809683916923,0.57141980761642708,0.16594586773356404,-0.23952807214848817,-0.645002012029722,-1.0504759519101534,-1.4559498917897546,-1.861423831668547,-2.26689777154654,-2.672371711423704,-3.0778456513000663,-3.4833195911756074,-3.88879353105034,-4.2942674709242548,-4.6997414107973654,-5.1052153506696438,-5.5106892905411291,-5.916163230411791,-6.3216371702816359,-6.7271111101506724,-7.1325850500188919,-7.705530828961626,-8.3203465463907786,-8.9351622638190218,-9.549977981246343,-10.164793698672757,-10.779609416098248,-11.394425133522848,-12.0092408509465,-12.624056568369262,-13.238872285791114,-13.853688003212021,-14.468503720632047,-15.083319438051127,-15.698135155469345,-16.312950872886603,-16.927766590302973,-17.542582307718405,-18.157398025132942,-18.772213742546562,-19.387029459959273,-20.197390416390764,-21.029480675300182,-21.861570934208679,-22.693661193116188,-23.525751452022785,-24.357841710928422,-25.189931969833079,-26.022022228736837,-26.85411248763964,-27.68620274654149,-28.518293005442388,-29.350383264342369,-30.182473523241359,-31.014563782139433,-31.846654041036551,-32.67874429993271,-33.510834558827945,-34.3429248177222,-35.175015076615594,-36.007105335507916,0,0.023208370234817532,0.057304500088422958,0.1104913062243698,0.18873455877731574,0.29247756090454619,0.42181024108566284,0.57663706065767684,0.7566534114237,0.96124202968632355,1.1128487443896271,1.4658222139250003
DP 491,73.783858281367259,0.0038825499862360077,-26.499564766907323,-26.136892819793246,-25.774220872678931,-25.411548925564311,-25.048876978449414,-24.686205031334261,-24.3235330842188,-23.960861137103077,-23.598189189987046,-23.235517242870753,-22.872845295754178,-22.510173348637331,-22.147501401520184,-21.784829454402754,-21.42215750728505,-21.059485560167069,-20.696813613048814,-20.334141665930261,-19.971469718811431,-19.608797771692331,-19.248748292846965,-18.91230127635459,-18.57585425986187,-18.239407243368852,-17.902960226875503,-17.566513210381846,-17.230066193887854,-16.893619177393582,-16.557172160898975,-16.22072514440406,-15.884278127908797,-15.547831111413242,-15.211384094917351,-14.874937078421166,-14.538490061924653,-14.202043045427832,-13.865596028930682,-13.529149012433221,-13.192701995935446,-12.856254979437345,-12.530607345943,-12.248157754858417,-11.965708163773412,-11.683258572687976,-11.400808981602122,-11.118359390515849,-10.835909799429141,-10.553460208342019,-10.271010617254477,-9.9885610261664972,-9.7061114350781068,-9.4236618439892936,-9.1412122529000541,-8.8587626618103865,-8.5763130707203032,-8.29386347962979,-8.0114138885388542,-7.7289642974475035,-7.4465147063557273,-7.1640651152635284,-6.9054215209089254,-6.7023260023425113,-6.4992304837756558,-6.2961349652083545,-6.093039446640625,-5.8899439280724568,-5.686848409503849,-5.4837528909348014,-5.2806573723653223,-5.0775618537954,-4.8744663352250459,-4.6713708166542505,-4.4682752980830163,-4.2651797795113486,-4.0620842609392422,-3.8589887423666966,-3.6558932237937145,-3.4527977052202896,-3.2497021866464331,-3.0466066680721391,-2.8845795327744876,-2.7841559428639249,-2.6837323529528438,-2.5833087630412477,-2.4828851731291297,-2.3824615832164948,-2.282037993303347,-2.1816144033896778,-2.0811908134754931,-1.9807672235607894,-1.8803436336455688,-1.77992004372983,-1.6794964538135748,-1.5790728638968017,-1.47864927397951,-1.3782256840617035,-1.277802094143377,-1.1773785042245319,-1.0769549143051709,-0.976531324385293,-0.984034746296223,-1.0071210665304142,-1.0302073867640433,-1.0532937069971107,-1.0763800272296116,-1.09946634746155,-1.1225526676929205,-1.145638987923735,-1.168725308153981,-1.1918116283836662,-1.2148979486127851,-1.2379842688413403,-1.2610705890693348,-1.284156909296764,-1.3072432295236278,-1.3303295497499303,-1.3534158699756689,-1.3765021902008412,-1.4843262270343072,-1.6486434098734302,-1.8129605927118915,-1.9772777755496984,-2.1415949583868437,-2.3059121412233323,-2.4702293240591562,-2.6345465068943232,-2.7988636897288348,-2.9631808725626811,-3.1274980553958662,-3.2918152382283945,-3.4561324210602686,-3.6204496038914744,-3.7847667867220265,-3.949083969551916,-4.1134011523811473,-4.277718335209717,-4.4420355180376268,-4.606352700864881,-4.8795790530277285,-5.1994822340903646,-5.5193854151523443,-5.8392885962136631,-6.1591917772743257,-6.4790949583343291,-6.7989981393936771,-7.1189013204523821,-7.4388045015104174,-7.7587076825678025,-8.0786108636245277,-8.3985140446805975,-8.7184172257360082,-9.03832040679077,-9.3582235878448632,-9.6781267688983075,-9.9980299499510856,-10.317933131003221,-10.637836312054693,-10.957739493105507,-11.410401003113442,-11.896253663930397,-12.382106324746555,-12.867958985561911,-13.353811646376489,-13.839664307190258,-14.325516968003255,-14.811369628815449,-15.297222289626847,-15.783074950437468,-16.268927611247285,-16.754780272056312,-17.240632932864525,-17.726485593671985,-18.212338254478645,-18.698190915284503,-19.18404357608955,-19.669896236893837,-20.155748897697322,-20.6416015585,-21.282607799514132,-21.940854956706271,-22.599102113897573,-23.257349271087993,-23.915596428277631,-24.573843585466385,-25.232090742654325,-25.890337899841409,-26.548585057027672,-27.206832214213094,-27.865079371397677,-28.523326528581443,-29.181573685764342,-29.839820842946438,-30.498068000127645,-31.156315157308061,-31.814562314487603,-32.472809471666324,-33.131056628844235,-33.789303786021222,0,0.02744047255762741,0.058983065414583348,0.10317507450610537,0.16710855626399371,0.25135643095791149,0.35600804553854426,0.481018561678372,0.62622379473037382,0.79123152083816539,0.91251699999577318,1.1957628372980422
DP 492,127.58904138400214,0.0017519583745973729,-18.41856361380891,-18.08450296571705,-17.750442317624735,-17.416381669531972,-17.082321021438752,-16.748260373345065,-16.414199725250917,-16.080139077156325,-15.746078429061292,-15.412017780965787,-15.07795713286982,-14.743896484773396,-14.409835836676535,-14.075775188579216,-13.741714540481441,-13.407653892383195,-13.073593244284487,-12.739532596185347,-12.405471948085742,-12.071411299985693,-11.739788784666482,-11.430109694841393,-11.120430605015827,-10.810751515189811,-10.501072425363311,-10.191393335536366,-9.8817142457089417,-9.5720351558810464,-9.2623560660526945,-8.9526769762238736,-8.642997886394582,-8.3333187965648179,-8.0236397067345866,-7.7139606169039006,-7.4042815270727491,-7.0946024372411172,-6.7849233474090269,-6.4752442575764624,-6.165565167743436,-5.8558860779099424,-5.5562415169626549,-5.2967355458073513,-5.0372295746515583,-4.7777236034952608,-4.5182176323384668,-4.2587116611811737,-3.999205690023385,-3.7396997188650936,-3.4801937477063078,-3.2206877765470234,-2.961181805387239,-2.7016758342269558,-2.4421698630661752,-2.1826638919048982,-1.9231579207431211,-1.6636519495808468,-1.4041459784180739,-1.1446400072548031,-0.88513403609103536,-0.62562806492676981,-0.38818008154511607,-0.20220143131477339,-0.016222781083918846,0.16975586914744198,0.35573451937931094,0.5417131696116898,0.72769181984457543,0.91367047007797153,1.0996491203118759,1.2856277705462871,1.4716064207812063,1.6575850710166349,1.843563721252572,2.0295423714890171,2.2155210217259698,2.4014996719634318,2.5874783222014046,2.7734569724398836,2.9594356226788721,3.1454142729183707,3.2934538148970849,3.3845837979591864,3.4757137810218208,3.566843764084997,3.6579737471486977,3.7491037302129371,3.8402337132777129,3.9313636963430221,4.0224936794088633,4.11362366247524,4.2047536455421524,4.2958836286095972,4.3870136116775775,4.4781435947460935,4.5692735778151405,4.6604035608847241,4.7515335439548441,4.8426635270254916,4.9337935100966783,5.0249234931684024,5.0141512819819747,4.9916161860181507,4.9690810900548774,4.9465459940921539,4.9240108981299882,4.9014758021683713,4.87894070620731,4.8564056102467923,4.8338705142868372,4.81133541832743,4.7888003223685773,4.7662652264102725,4.7437301304525183,4.7211950344953193,4.6986599385386745,4.6761248425825785,4.6535897466270324,4.6310546506720458,4.5308137720749624,4.378767814228727,4.22672185638308,4.0746758985380218,3.9226299406935619,3.7705839828496903,3.6185380250064183,3.4664920671637365,3.3144461093216444,3.162400151480147,3.0103541936392544,2.8583082357989422,2.7062622779592274,2.5542163201201076,2.4021703622815758,2.250124404443643,2.0980784466062969,1.9460324887695497,1.7939865309333958,1.6419405730978349,1.3903781495792973,1.0961644684142806,0.80195078724984892,0.50773710608600742,0.21352342492274554,-0.080690256239917629,-0.3749039374019979,-0.66911761856350171,-0.96333129972440557,-1.2575449808847343,-1.5517586620444679,-1.84597234320362,-2.1401860243621784,-2.4343997055201605,-2.7286133866775439,-3.022827067834351,-3.3170407489905629,-3.6112544301461926,-3.9054681113012362,-4.1996817924556922,-4.6149058752131822,-5.0603839881368033,-5.505862101059777,-5.9513402139820979,-6.3968183269037722,-6.8422964398247981,-7.2877745527451827,-7.7332526656648977,-8.1787307785839758,-8.6242088915024144,-9.0696870044201816,-9.5151651173373182,-9.9606432302537975,-10.406121343169627,-10.851599456084797,-11.297077568999336,-11.74255568191321,-12.188033794826454,-12.63351190773904,-13.078990020650965,-13.665633984187508,-14.267964524820849,-14.870295065453522,-15.472625606085488,-16.074956146716836,-16.67728668734749,-17.279617227977472,-17.881947768606771,-18.484278309235442,-19.086608849863421,-19.688939390490738,-20.291269931117384,-20.893600471743341,-21.495931012368665,-22.098261552993282,-22.700592093617274,-23.302922634240556,-23.905253174863194,-24.507583715485154,-25.109914256106435,0,0.015399390681108849,0.039406636804985122,0.077600217062121266,0.133893064332265,0.20859716296327147,0.30178690651275547,0.41339382252482837,0.543189237172307,0.69071221553281081,0.80013545319578316,1.0546865286529115
DP 493,60.573307784981608,0.00287546103188216,-16.565710074346281,-16.376135216288482,-16.186560358230619,-15.996985500172714,-15.807410642114755,-15.617835784056719,-15.428260925998643,-15.2386860679405,-15.049111209882296,-14.859536351824051,-14.669961493765744,-14.480386635707378,-14.290811777648949,-14.101236919590463,-13.911662061531942,-13.722087203473347,-13.532512345414695,-13.342937487355991,-13.153362629297224,-12.963787771238406,-12.775583028702419,-12.599709455381516,-12.42383588206053,-12.247962308739465,-12.072088735418314,-11.896215162097075,-11.72034158877576,-11.544468015454342,-11.368594442132849,-11.192720868811273,-11.016847295489612,-10.840973722167865,-10.665100148846028,-10.489226575524105,-10.313353002202104,-10.137479428880011,-9.9616058555578419,-9.7857322822355854,-9.6098587089132419,-9.43398513559081,-9.2637483085940726,-9.1160587333007452,-8.96836915800725,-8.820679582713586,-8.6729900074197381,-8.5253004321257322,-8.3776108568315557,-8.2299212815372,-8.0822317062426823,-7.9345421309479853,-7.7868525556531143,-7.6391629803580807,-7.49147340506287,-7.3437838297674976,-7.1960942544719453,-7.0484046791762252,-6.9007151038803256,-6.7530255285842626,-6.6053359532880283,-6.457646377991618,-6.3223866100227841,-6.2161301174502137,-6.1098736248774532,-6.0036171323045142,-5.8973606397313993,-5.7911041471581006,-5.6848476545846287,-5.57859116201097,-5.4723346694371378,-5.36607817686312,-5.2598216842889265,-5.1535651917145548,-5.047308699139994,-4.9410522065652618,-4.834795713990351,-4.7285392214152537,-4.6222827288399833,-4.5160262362645218,-4.4097697436888934,-4.3035132511130776,-4.2186937677835248,-4.16603030489354,-4.1133668420033107,-4.0607033791128373,-4.0080399162221205,-3.9553764533311613,-3.9027129904399551,-3.8500495275485078,-3.7973860646568189,-3.74472260176488,-3.6920591388727027,-3.6393956759802815,-3.5867322130876134,-3.5340687501947077,-3.4814052873015511,-3.428741824408156,-3.3760783615145158,-3.3234148986206313,-3.270751435726504,-3.2180879728321345,-3.2213247915898813,-3.2331523335870918,-3.2449798755840233,-3.2568074175806743,-3.2686349595770441,-3.2804625015731408,-3.2922900435689484,-3.3041175855644895,-3.3159451275597438,-3.3277726695547214,-3.339600211549421,-3.35142775354384,-3.3632552955379835,-3.3750828375318425,-3.3869103795254261,-3.3987379215187317,-3.4105654635117566,-3.4223930055045004,-3.4784669892361513,-3.5640392978393547,-3.6496116064422095,-3.7351839150447157,-3.82075622364687,-3.9063285322486774,-3.9919008408501284,-4.0774731494512295,-4.1630454580519807,-4.2486177666523828,-4.3341900752524305,-4.4197623838521318,-4.5053346924514832,-4.5909070010504758,-4.6764793096491264,-4.7620516182474208,-4.8476239268453654,-4.933196235442959,-5.0187685440402046,-5.1043408526370984,-5.246795309518105,-5.4136285980356726,-5.5804618865528868,-5.747295175069759,-5.9141284635862732,-6.0809617521024313,-6.247795040618243,-6.4146283291337127,-6.5814616176488192,-6.74829490616359,-6.9151281946779974,-7.0819614831920585,-7.2487947717057644,-7.4156280602191282,-7.5824613487321422,-7.7492946372448026,-7.9161279257571087,-8.08296121426906,-8.2497945027806718,-8.4166277912919281,-8.6527988870651438,-8.9063052538957219,-9.15981162072584,-9.413317987555514,-9.666824354384735,-9.92033072121351,-10.173837088041839,-10.42734345486971,-10.680849821697128,-10.934356188524104,-11.187862555350623,-11.441368922176705,-11.69487528900232,-11.948381655827497,-12.201888022652222,-12.455394389476487,-12.708900756300315,-12.962407123123683,-13.215913489946598,-13.469419856769079,-13.803970228269678,-14.147526340336968,-14.4910824524038,-14.834638564470117,-15.17819467653597,-15.521750788601329,-15.865306900666207,-16.2088630127306,-16.552419124794493,-16.895975236857918,-17.239531348920863,-17.583087460983318,-17.926643573045283,-18.270199685106778,-18.613755797167773,-18.957311909228288,-19.30086802128832,-19.644424133347854,-19.987980245406941,-20.331536357465495,0,0.019546034079549524,0.038933171921241773,0.063574724886749451,0.09828242387016381,0.14354624802351754,0.19948461306227741,0.26612931149935476,0.34346655427385236,0.43135752669087746,0.49513642985778561,0.64423016744503148
DP 494,159.78037073641644,0.0019669740109827818,-24.0724331824323,-23.606575625348526,-23.140718068264079,-22.674860511178942,-22.209002954093137,-21.743145397006685,-21.277287839919527,-20.81143028283169,-20.345572725743192,-19.879715168654005,-19.413857611564158,-18.948000054473638,-18.482142497382416,-18.016284940290529,-17.550427383197963,-17.084569826104733,-16.618712269010828,-16.152854711916241,-15.686997154820972,-15.221139597725028,-14.758732761699003,-14.327382741484609,-13.896032721269526,-13.464682701053743,-13.033332680837292,-12.601982660620147,-12.170632640402301,-11.739282620183795,-11.307932599964598,-10.876582579744703,-10.445232559524131,-10.013882539302855,-9.582532519080921,-9.15118249885828,-8.7198324786349559,-8.2884824584109484,-7.8571324381862553,-7.4257824179608747,-6.994432397734804,-6.5630823775080538,-6.1458978911992324,-5.785376210047029,-5.4248545288941123,-5.06433284774048,-4.70381116658614,-4.3432894854310806,-3.9827678042753178,-3.6222461231188361,-3.2617244419616434,-2.9012027608037347,-2.5406810796451147,-2.1801593984857797,-1.8196377173257323,-1.4591160361649715,-1.0985943550034971,-0.73807267384130981,-0.37755099267840975,-0.017029311514798865,0.34349236964952473,0.70401405081456236,1.0335321543072156,1.2907075997192992,1.5478830451321126,1.8050584905456504,2.0622339359599136,2.3194093813749062,2.5765848267906226,2.8337602722070656,3.0909357176242369,3.3481111630421303,3.605286608460748,3.8624620538801007,4.1196374993001745,4.3768129447209736,4.6339883901425063,4.8911638355647558,5.1483392809877371,5.4055147264114414,5.6626901718358766,5.91986561726104,6.1240027549804923,6.2485811778121745,6.3731596006446072,6.4977380234777877,6.62231644631172,6.7468948691464092,6.8714732919818386,6.996051714818023,7.12063013765495,7.2452085604926451,7.3697869833310756,7.4943654061702594,7.6189438290101927,7.7435222518508784,7.8681006746923181,7.99267909753451,8.1172575203774411,8.24183594322112,8.3664143660655679,8.4909927889107486,8.4699199589440486,8.43657484384628,8.4032297287492685,8.369884613653042,8.336539498557574,8.3031943834628752,8.2698492683689455,8.2365041532757921,8.2031590381833919,8.1698139230917679,8.1364688080009255,8.1031236929108363,8.069778577821511,8.0364334627329672,8.003088347645182,7.9697432325581756,7.9363981174719251,7.9030530023864562,7.762407620889614,7.5502270380744845,7.3380464552601667,7.1258658724466644,6.9136852896339729,6.7015047068220941,6.489324124011028,6.2771435412007781,6.0649629583913418,5.8527823755827182,5.6406017927749126,5.4284212099679143,5.21624062716173,5.0040600443563648,4.79187946155181,4.5796988787480677,4.3675182959451346,4.15533771314302,3.9431571303417217,3.7309765475412364,3.3821579876218126,2.9747784496130123,2.5673989116050113,2.1600193735978177,1.7526398355914163,1.3452602975858368,0.93788075958105377,0.53050122157706048,0.1231216835738882,-0.28425785442849461,-0.69163739243006472,-1.0990169304308357,-1.5063964684307976,-1.913776006429968,-2.3211555444283207,-2.72853508242588,-3.1359146204226303,-3.5432941584185764,-3.950673696413721,-4.3580532344080636,-4.9308405244071576,-5.5449817067375928,-6.1591228890671612,-6.7732640713958441,-7.3874052537236672,-8.00154643605061,-8.6156876183766755,-9.2298288007018634,-9.8439699830261862,-10.458111165349637,-11.0722523476722,-11.686393529993905,-12.300534712314715,-12.914675894634668,-13.528817076953739,-14.142958259271923,-14.757099441589268,-15.37124062390571,-15.985381806221284,-16.599522988535984,-17.406056014297846,-18.233967932133652,-19.06187984996857,-19.889791767802571,-20.717703685635694,-21.545615603467905,-22.37352752129922,-23.201439439129629,-24.029351356959168,-24.857263274787783,-25.685175192615528,-26.513087110442378,-27.340999028268339,-28.168910946093394,-28.996822863917515,-29.824734781740805,-30.652646699563185,-31.480558617384578,-32.308470535205231,-33.136382453024844,0,0.019272746220249472,0.051318722193702621,0.10334282635132065,0.18015352918141705,0.28218065795683661,0.40954344478374438,0.56215061592249,0.7396778438586602,0.94147270770187907,1.0912684258270051,1.4393974738118902
DP 495,169.45152512309761,0.0031800204089072344,-40.417280910109156,-39.623767993807739,-38.830255077505107,-38.036742161201417,-37.243229244896526,-36.449716328590441,-35.656203412283212,-34.8626904959748,-34.069177579665237,-33.275664663354554,-32.482151747042657,-31.688638830729641,-30.895125914415427,-30.101612998100073,-29.308100081783536,-28.514587165465848,-27.721074249147005,-26.927561332826997,-26.134048416505831,-25.34053550018351,-24.55293612653232,-23.818559195904466,-23.084182265275455,-22.349805334645254,-21.615428404013883,-20.881051473381312,-20.14667454274759,-19.412297612112681,-18.677920681476579,-17.943543750839325,-17.209166820200881,-16.474789889561261,-15.740412958920476,-15.006036028278482,-14.271659097635345,-13.537282166991016,-12.802905236345502,-12.06852830569883,-11.334151375050961,-10.599774444401925,-9.8896457261066448,-9.27651100323417,-8.663376280360465,-8.050241557485549,-7.4371068346094233,-6.8239721117320746,-6.210837388853518,-5.59770266597373,-4.9845679430927365,-4.3714332202105206,-3.7582984973270892,-3.145163774442437,-2.5320290515565715,-1.9188943286694875,-1.3057596057811851,-0.69262488289166735,-0.079490160000933452,0.53364456289101458,1.1467792857841794,1.7599140086785612,2.3200706315243793,2.7566100183831059,3.1931494052430782,3.6296887921042864,4.0662281789667274,4.5027675658304149,4.9393069526953362,5.3758463395615008,5.8123857264289018,6.2489251132975419,6.6854645001674138,7.1220038870385345,7.55854327391089,7.9950826607844867,8.4316220476593244,8.8681614345353914,9.3047008214127036,9.74124020829126,10.177779595171051,10.614318982052072,10.960430884251172,11.17089942256794,11.381367960885974,11.591836499205291,11.802305037525874,12.012773575847744,12.22324211417088,12.433710652495295,12.644179190820983,12.854647729147949,13.065116267476196,13.275584805805694,13.486053344136488,13.696521882468554,13.906990420801913,14.117458959136528,14.327927497472427,14.538396035809594,14.748864574148035,14.959333112487757,14.919317491206275,14.86121702731711,14.803116563429265,14.745016099542708,14.686915635657453,14.628815171773514,14.570714707890874,14.512614244009537,14.454513780129513,14.396413316250781,14.338312852373369,14.28021238849724,14.222111924622435,14.164011460748927,14.105910996876718,14.047810533005816,13.989710069136219,13.931609605267925,13.691500419761407,13.330049219183296,12.968598018606556,12.607146818031186,12.245695617457187,11.884244416884574,11.522793216313321,11.161342015743459,10.799890815174974,10.438439614607855,10.07698841404213,9.7155372134777682,9.3540860129147827,8.9926348123531881,8.6311836117929452,8.2697324112341,7.90828121067662,7.546830010120515,7.1853788095658047,6.8239276090124621,6.2312504677589011,5.5394733725060492,4.8476962772545535,4.1559191820044257,3.4641420867556354,2.7723649915082347,2.0805878962621862,1.3888108010174722,0.69703370577414481,0.005256610532153573,-0.68652048470846327,-1.3782975799477288,-2.0700746751856229,-2.7618517704221821,-3.4536288656573566,-4.1454059608911855,-4.8371830561236484,-5.5289601513547506,-6.2207372465845019,-6.9125143418128978,-7.8836721046982285,-8.9246783354438435,-9.9656845661879867,-11.006690796930652,-12.047697027671843,-13.088703258411584,-14.129709489149846,-15.170715719886593,-16.211721950621897,-17.252728181355749,-18.293734412088078,-19.334740642818964,-20.375746873548334,-21.416753104276307,-22.457759335002738,-23.498765565727744,-24.539771796451237,-25.580778027173302,-26.621784257893843,-27.66279048861292,-29.028355663991398,-30.429986352986106,-31.831617041979396,-33.233247730971065,-34.6348784199613,-36.036509108950021,-37.43813979793719,-38.839770486922859,-40.241401175907029,-41.643031864889736,-43.044662553870872,-44.446293242850551,-45.8479239318287,-47.249554620805348,-48.651185309780452,-50.05281599875407,-51.454446687726183,-52.856077376696774,-54.257708065665895,-55.659338754633438,0,0.032029273174238426,0.0859590993943165,0.17385428958331417,0.30366947608966222,0.47613494384055832,0.69145861951121479,0.94948715801493988,1.2496686273487274,1.5908927905702752,1.8442209497135209,2.4328400082508232
DP 496,55.9115659268799,0.0046536281221851421,-25.044331564867282,-24.782500363125049,-24.520669161382834,-24.258837959640616,-23.997006757898372,-23.735175556156168,-23.473344354413932,-23.211513152671667,-22.949681950929435,-22.687850749187152,-22.426019547444888,-22.164188345702627,-21.902357143960366,-21.640525942218051,-21.378694740475755,-21.116863538733469,-20.855032336991158,-20.593201135248837,-20.331369933506515,-20.069538731764204,-19.809599462188118,-19.566687760941825,-19.323776059695479,-19.080864358449094,-18.837952657202628,-18.595040955956119,-18.352129254709563,-18.10921755346294,-17.866305852216289,-17.62339415096957,-17.380482449722816,-17.137570748475969,-16.894659047229087,-16.651747345982155,-16.408835644735166,-16.165923943488131,-15.923012242241045,-15.680100540993884,-15.43718883974668,-15.194277138499437,-14.959144950121845,-14.755131180893642,-14.551117411665254,-14.347103642436641,-14.143089873207863,-13.939076103978865,-13.735062334749671,-13.531048565520296,-13.327034796290709,-13.123021027060929,-12.91900725783095,-12.714993488600777,-12.510979719370402,-12.306965950139837,-12.102952180909069,-11.898938411678092,-11.694924642446933,-11.49091087321557,-11.286897103984018,-11.082883334752266,-10.896027311229743,-10.749206568292717,-10.602385825355483,-10.455565082418033,-10.308744339480379,-10.161923596542518,-10.01510285360445,-9.8682821106661631,-9.7214613677276738,-9.57464062478897,-9.4278198818500574,-9.28099913891094,-9.1341783959716061,-8.9873576530320669,-8.8405369100923163,-8.6937161671523544,-8.5468954242121882,-8.4000746812718035,-8.2532539383312127,-8.1064331953904141,-7.9891990237085455,-7.91634540806455,-7.8434917924202479,-7.7706381767756243,-7.6977845611306837,-7.6249309454854286,-7.5520773298398636,-7.4792237141939717,-7.4063700985477769,-7.3335164829012589,-7.2606628672544264,-7.1878092516072822,-7.1149556359598165,-7.04210202031204,-6.9692484046639471,-6.8963947890155373,-6.8235411733668077,-6.7506875577177672,-6.6778339420684123,-6.604980326418735,-6.6089471111506635,-6.6251047164421868,-6.6412623217333326,-6.6574199270241117,-6.673577532314507,-6.6897351376045382,-6.7058927428941875,-6.7220503481834726,-6.7382079534723829,-6.7543655587609166,-6.7705231640490791,-6.7866807693368667,-6.8028383746242849,-6.8189959799113247,-6.8351535851979994,-6.8513111904842914,-6.8674687957702165,-6.8836264010557651,-6.9608502432101913,-7.078785871963678,-7.1967215007166629,-7.3146571294691647,-7.4325927582211841,-7.5505283869727062,-7.6684640157237336,-7.7863996444742751,-7.9043352732243291,-8.0222709019739,-8.1402065307229616,-8.2581421594715554,-8.37607778821965,-8.49401341696725,-8.6119490457143684,-8.7298846744609886,-8.847820303207131,-8.9657559319527724,-9.0836915606979236,-9.2016271894425952,-9.39807786112683,-9.6281788971257072,-9.8582799331240878,-10.088380969121973,-10.318482005119384,-10.548583041116293,-10.778684077112713,-11.008785113108656,-11.238886149104085,-11.468987185099047,-11.699088221093513,-11.929189257087481,-12.159290293080955,-12.389391329073961,-12.619492365066458,-12.849593401058462,-13.079694437049971,-13.309795473041001,-13.539896509031545,-13.769997545021591,-14.095796551228089,-14.445521180681844,-14.79524581013492,-15.144970439587361,-15.494695069039144,-15.844419698490276,-16.194144327940762,-16.543868957390593,-16.893593586839771,-17.2433182162883,-17.593042845736182,-17.942767475183413,-18.292492104629972,-18.642216734075912,-18.991941363521185,-19.341665992965815,-19.691390622409774,-20.041115251853121,-20.390839881295761,-20.740564510737794,-21.202152743742953,-21.676171440871205,-22.150190137998759,-22.624208835125572,-23.098227532251723,-23.57224622937715,-24.046264926501863,-24.520283623625861,-24.994302320749181,-25.468321017871791,-25.942339714993654,-26.416358412114853,-26.89037710923531,-27.364395806355112,-27.838414503474162,-28.312433200592533,-28.786451897710187,-29.260470594827122,-29.734489291943355,-30.208507989058891,0,0.031343826748862186,0.060685014089820584,0.096238644615378149,0.14543147239985527,0.20908593533360342,0.28744602617968973,0.38062260009511922,0.48867555449487854,0.61147808584648466,0.69976252763970259,0.90604852048678552
DP 497,95.3847525518937,0.0016649166628522312,-14.062640867285054,-13.836385447195733,-13.610130027106146,-13.383874607016297,-13.157619186926205,-12.931363766835849,-12.705108346745234,-12.478852926654357,-12.252597506563232,-12.026342086471837,-11.800086666380178,-11.573831246288282,-11.34757582619612,-11.1213204061037,-10.895064986011027,-10.668809565918091,-10.442554145824889,-10.216298725731439,-9.9900433056377231,-9.7637878855437581,-9.5391716323177445,-9.3293080358464664,-9.1194444393749166,-8.9095808429031038,-8.6997172464310122,-8.4898536499586523,-8.2799900534860189,-8.0701264570131137,-7.8602628605399358,-7.6503992640664942,-7.4405356675927745,-7.2306720711187884,-7.0208084746445278,-6.8109448781699946,-6.6010812816951887,-6.391217685220119,-6.1813540887447775,-5.9714904922691572,-5.7616268957932695,-5.5517632993171118,-5.3486526774036411,-5.172554272896682,-4.99645586838942,-4.8203574638818445,-4.6442590593739546,-4.46816065486576,-4.2920622503572581,-4.1159638458484435,-3.9398654413393182,-3.7637670368298863,-3.5876686323201397,-3.4115702278100835,-3.2354718232997195,-3.0593734187890482,-2.8832750142780612,-2.7071766097667678,-2.531078205255163,-2.354979800743251,-2.1788813962310294,-2.0027829917184974,-1.8415613751989093,-1.7150527327264347,-1.5885440902536432,-1.462035447780534,-1.3355268053071079,-1.2090181628333641,-1.0825095203593023,-0.95600087788492116,-0.8294922354102241,-0.70298359293520907,-0.57647495045987718,-0.44996630798422721,-0.32345766550825844,-0.19694902303197273,-0.070440380555369386,0.056068261921552634,0.18257690439879137,0.30908554687634893,0.43559418935422334,0.56210283183241538,0.66295910449719619,0.72533621625994193,0.78771332802303584,0.85009043978647958,0.91246755155026926,0.97484466331440778,1.0372217750788932,1.0995988868437265,1.1619759986089067,1.2243531103744349,1.286730222140313,1.3491073339065351,1.4114844456731093,1.4738615574400271,1.5362386692072965,1.5986157809749122,1.6609928927428748,1.7233700045111864,1.7857471162798439,1.8481242280488512,1.8425366873962661,1.8278261030531779,1.8131155187104577,1.798404934368103,1.7836943500261155,1.7689837656844931,1.7542731813432411,1.7395625970023496,1.7248520126618294,1.7101414283216714,1.6954308439818824,1.68072025964246,1.6660096753034004,1.6512990909647116,1.6365885066263854,1.621877922288429,1.6071673379508364,1.5924567536136112,1.5248920086692794,1.4220903240043845,1.3192886393398973,1.2164869546758141,1.1136852700121378,1.0108835853488658,0.90808190068600425,0.80528021602354782,0.70247853136149585,0.59967684669985133,0.49687516203861731,0.39407347737778559,0.2912717927173607,0.18847010805734568,0.085668423397733368,-0.017133261261469527,-0.11993494592026999,-0.22273663057866086,-0.32553831523664389,-0.42833999989422133,-0.59901857765037692,-0.79878816899831584,-0.99855776034585275,-1.1983273516929849,-1.3980969430397172,-1.597866534386039,-1.7976361257319597,-1.9974057170774839,-2.1971753084225973,-2.3969448997673157,-2.5967144911116224,-2.7964840824555308,-2.9962536737990337,-3.1960232651421383,-3.3957928564848321,-3.5955624478271258,-3.7953320391690148,-3.9951016305105003,-4.1948712218515869,-4.3946408131922681,-4.6771198177125131,-4.98027715275813,-5.2834344878032846,-5.5865918228479767,-5.8897491578922105,-6.1929064929359807,-6.49606382797929,-6.7992211630221311,-7.1023784980645184,-7.4055358331064474,-7.7086931681479012,-8.0118505031889011,-8.3150078382294268,-8.6181651732695119,-8.921322508309121,-9.2244798433482718,-9.5276371783869553,-9.8307945134251877,-10.133951848462953,-10.437109183500256,-10.836887961806775,-11.247403470790974,-11.657918979774703,-12.068434488757944,-12.478949997740694,-12.889465506722971,-13.299981015704764,-13.710496524686061,-14.121012033666904,-14.531527542647254,-14.942043051627135,-15.352558560606512,-15.763074069585421,-16.173589578563856,-16.584105087541793,-16.994620596519255,-17.40513610549624,-17.815651614472738,-18.226167123448771,-18.6366826324243,0,0.012828021069905254,0.030314187919838823,0.056850274920207153,0.095764368606394826,0.14729480841182083,0.21148114316520983,0.28827722746057977,0.37754206823031117,0.47898507483869951,0.554036574892777,0.72894607639884035
DP 498,61.39095539635192,0.00385852086614936,-22.4861246115127,-22.225159651290255,-21.964194691067725,-21.703229730845102,-21.442264770622383,-21.1812998103996,-20.920334850176708,-20.659369889953734,-20.39840492973067,-20.137439969507511,-19.87647500928427,-19.615510049060923,-19.354545088837515,-19.093580128614008,-18.832615168390387,-18.571650208166709,-18.310685247942921,-18.049720287719069,-17.788755327495114,-17.527790367271066,-17.268711385683662,-17.026606390097481,-16.784501394511164,-16.54239639892473,-16.300291403338157,-16.058186407751467,-15.81608141216466,-15.573976416577702,-15.331871420990645,-15.089766425403438,-14.847661429816116,-14.60555643422868,-14.363451438641087,-14.121346443053394,-13.879241447465562,-13.637136451877614,-13.395031456289521,-13.152926460701316,-12.910821465112985,-12.668716469524524,-12.434371660297856,-12.231067963275951,-12.027764266253804,-11.824460569231395,-11.621156872208774,-11.417853175185904,-11.21454947816278,-11.01124578113942,-10.807942084115821,-10.60463838709197,-10.401334690067889,-10.19803099304357,-9.9947272960189988,-9.7914235989941911,-9.5881199019691383,-9.3848162049438333,-9.1815125079183115,-8.9782088108925322,-8.7749051138665113,-8.57160141684026,-8.38541031318793,-8.2391491332494944,-8.0928879533108038,-7.9466267733718476,-7.8003655934326552,-7.65410441349321,-7.5078432335534977,-7.3615820536135388,-7.2153208736733347,-7.0690596937328651,-6.9227985137921486,-6.7765373338511816,-6.6302761539099579,-6.4840149739684714,-6.33775379402675,-6.1914926140847619,-6.0452314341425275,-5.8989702542000355,-5.7527090742572895,-5.6064478943142939,-5.4897003330564971,-5.4172238972521063,-5.3447474614473789,-5.2722710256423095,-5.1997945898369027,-5.1273181540311539,-5.0548417182250738,-4.9823652824186491,-4.9098888466118913,-4.8374124108047916,-4.7649359749973534,-4.6924595391895734,-4.6199831033814593,-4.5475066675730078,-4.4750302317642126,-4.4025537959550851,-4.3300773601456148,-4.2576009243358026,-4.1851244885256618,-4.1126480527151754,-4.1171792561429923,-4.1334871925161742,-4.1497951288889645,-4.1661030652613729,-4.1824110016333949,-4.1987189380050332,-4.2150268743762815,-4.23133481074715,-4.2476427471176255,-4.263950683487721,-4.2802586198574266,-4.2965665562267459,-4.3128744925956868,-4.3291824289642369,-4.3454903653324015,-4.361798301700178,-4.3781062380675726,-4.3944141744345773,-4.4716369820678095,-4.5894706635137563,-4.7073043449592173,-4.8251380264042059,-4.9429717078487041,-5.0608053892927289,-5.17863907073626,-5.2964727521793193,-5.4143064336218956,-5.5321401150639886,-5.6499737965055914,-5.7678074779467261,-5.8856411593873723,-6.0034748408275362,-6.1213085222672179,-6.2391422037064164,-6.3569758851451388,-6.4748095665833691,-6.5926432480211217,-6.7104769294583964,-6.9066225134901291,-7.136331398945571,-7.3660402844005324,-7.5957491698550088,-7.8254580553090136,-8.055166940762529,-8.2848758262155577,-8.5145847116681228,-8.7442935971201869,-8.9740024825717875,-9.20371136802289,-9.4334202534735176,-9.6631291389236686,-9.8928380243733365,-10.122546909822514,-10.352255795271216,-10.581964680719439,-10.811673566167169,-11.041382451614432,-11.271091337061211,-11.596256927114631,-11.945287821162269,-12.294318715209299,-12.643349609255695,-12.992380503301487,-13.341411397346663,-13.690442291391236,-14.039473185435169,-14.388504079478496,-14.737534973521223,-15.086565867563303,-15.435596761604806,-15.784627655645659,-16.133658549685926,-16.482689443725558,-16.831720337764583,-17.180751231802986,-17.529782125840772,-17.878813019877956,-18.227843913914523,-18.688449143471949,-19.161452693220884,-19.6344562429692,-20.107459792716824,-20.580463342463787,-21.053466892210125,-21.526470441955745,-21.999473991700736,-22.472477541445063,-22.945481091188729,-23.418484640931737,-23.891488190674064,-24.364491740415737,-24.837495290156781,-25.310498839897139,-25.783502389636823,-26.256505939375867,-26.729509489114232,-27.202513038851954,-27.675516588588984,0,0.026278081290734966,0.05260273840648011,0.0863175725102878,0.1339256845716221,0.19607889833058753,0.27292936215008523,0.36451230690162306,0.4707984276710474,0.59158786652751938,0.6793506930760741,0.88451100872892718
DP 499,110.47964974350249,0.0019911875888187296,-18.847751055722217,-18.523506007644258,-18.199260959565891,-17.875015911487075,-17.550770863407887,-17.226525815328269,-16.902280767248239,-16.57803571916779,-16.253790671086968,-15.9295456230057,-15.60530057492401,-15.281055526841923,-14.956810478759433,-14.632565430676514,-14.3083203825932,-13.984075334509456,-13.659830286425318,-13.335585238340753,-13.011340190255774,-12.687095142170394,-12.365205689278831,-12.064516815795995,-11.763827942312727,-11.463139068829038,-11.162450195344919,-10.861761321860378,-10.5610724483754,-10.260383574889998,-9.9596947014041728,-9.6590058279179161,-9.3583169544312437,-9.0576280809441272,-8.756939207456595,-8.4562503339686454,-8.1555614604802624,-7.8548725869914389,-7.5541837135022005,-7.2534948400125367,-6.9528059665224422,-6.6521170930319187,-6.36112878153884,-6.1089431764988165,-5.85675757145833,-5.6045719664173754,-5.3523863613759541,-5.1002007563340621,-4.8480151512917038,-4.5958295462488774,-4.3436439412055829,-4.0914583361618249,-3.8392727311175934,-3.5870871260728991,-3.3349015210277355,-3.0827159159821065,-2.8305303109360054,-2.5783447058894375,-2.3261591008424038,-2.0739734957949048,-1.8217878907469371,-1.5696022856985015,-1.338770165633683,-1.157763516658717,-0.9767568676832693,-0.795750218707347,-0.61474356973094657,-0.43373692075406672,-0.25273027177670876,-0.0717236227988725,0.10928302617944131,0.29028967515823328,0.47129632413750222,0.65230297311724994,0.83330962209747639,1.0143162710781808,1.1953229200593627,1.3763295690410229,1.5573362180231645,1.738342867005783,1.919349515988876,2.1003561649724487,2.2445729757249473,2.3336041597633987,2.4226353438023556,2.5116665278418258,2.600697711881808,2.6897288959222991,2.7787600799633037,2.867791264004818,2.956822448046839,3.0458536320893783,3.1348848161324212,3.2239160001759788,3.3129471842200489,3.4019783682646265,3.4910095523097149,3.5800407363553175,3.6690719204014268,3.7581031044480464,3.8471342884951834,3.9361654725428274,3.9271731250499484,3.9057697404753764,3.8843663559013404,3.8629629713278288,3.841559586754856,3.820156202182416,3.7987528176105059,3.7773494330391291,3.7559460484682843,3.7345426638979649,3.7131392793281863,3.6917358947589358,3.6703325101902138,3.6489291256220291,3.6275257410543791,3.6061223564872544,3.5847189719206667,3.5633155873546105,3.4662713886745795,3.3187987889617214,3.1713261892494455,3.0238535895377434,2.8763809898266213,2.7289083901160773,2.5814357904061183,2.4339631906967361,2.286490590987929,2.1390179912797058,1.9915453915720647,1.8440727918649975,1.6966001921585099,1.5491275924526078,1.4016549927472781,1.2541823930425338,1.1067097933383605,0.95923719363477311,0.81176459393176614,0.66429199422933727,0.41977561428940413,0.1336677324257235,-0.15244014943738465,-0.43854803129991526,-0.72465591316187916,-1.0107637950232573,-1.2968716768840649,-1.5829795587443092,-1.8690874406039668,-2.1551953224630602,-2.441303204321573,-2.7274110861795142,-3.0135189680368795,-3.2996268498936776,-3.5857347317498904,-3.8718426136055375,-4.1579504954606055,-4.4440583773151,-4.7301662591690254,-5.0162741410223717,-5.4205478320894462,-5.8543643716158122,-6.288180911141529,-6.721997450666608,-7.155813990191044,-7.5896305297148254,-8.02344706923798,-8.4572636087604653,-8.8910801482823238,-9.32489668780355,-9.758713227324094,-10.19252976684403,-10.626346306363297,-11.060162845881933,-11.493979385399923,-11.927795924917268,-12.361612464433962,-12.79542900395003,-13.229245543465431,-13.663062082980199,-14.234849377805357,-14.821968205580589,-15.409087033355155,-15.996205861129019,-16.583324688902245,-17.1704435166748,-17.75756234444669,-18.344681172217886,-18.931799999988456,-19.518918827758341,-20.106037655527565,-20.693156483296104,-21.280275311064,-21.867394138831227,-22.454512966597751,-23.041631794363628,-23.628750622128855,-24.215869449893383,-24.802988277657278,-25.390107105420469,0,0.016350939166524702,0.04039713502013885,0.077920188893501552,0.13312244175458307,0.20631645873843363,0.297565851703187,0.40680312007789177,0.53381329171479119,0.67816053133268883,0.78512840656632665,1.034169595605547
DP 500,212.00451433659347,0.0011158130276269823,-16.32366942941869,-15.987131206167277,-15.650592982915384,-15.314054759662984,-14.977516536410093,-14.640978313156721,-14.304440089902833,-13.967901866648452,-13.631363643393589,-13.294825420138208,-12.958287196882345,-12.621748973625996,-12.285210750369142,-11.948672527111789,-11.612134303853946,-11.275596080595607,-10.939057857336769,-10.602519634077444,-10.265981410817622,-9.9294431875573,-9.59550086951493,-9.2849219438142327,-8.97434301811303,-8.66376409241133,-8.353185166709137,-8.0426062410064336,-7.7320273153032373,-7.421448389599532,-7.1108694638953374,-6.8002905381906347,-6.4897116124854364,-6.179132686779746,-5.8685537610735468,-5.5579748353668457,-5.2473959096596516,-4.9368169839519549,-4.6262380582437608,-4.3156591325350657,-4.0050802068258653,-3.6945012811161737,-3.3945016342299454,-3.1368196026305344,-2.8791375710306153,-2.6214555394301877,-2.3637735078292508,-2.1060914762278062,-1.8484094446258503,-1.5907274130233848,-1.3330453814204128,-1.0753633498169306,-0.81768131821293855,-0.55999928660843612,-0.30231725500342588,-0.044635223397905939,0.21304680820812341,0.47072883981466163,0.72841087142170791,0.986092903029263,1.2437749346373252,1.5014569662458983,1.7362580879665923,1.9176696990288111,2.099081310091552,2.2804929211548073,2.4619045322185809,2.643316143282874,2.8247277543476832,3.0061393654130097,3.187550976478855,3.3689625875452189,3.5503741986120945,3.7317858096794967,3.9131974207474065,4.09460903181584,4.276020642884788,4.4574322539542592,4.6388438650242456,4.820255476094748,5.0016670871657682,5.1830786982373054,5.3259373409447939,5.4109656200748342,5.4959938992054083,5.5810221783365144,5.6660504574681392,5.7510787366002951,5.8361070157329777,5.92113529486619,6.0061635739999248,6.0911918531341911,6.1762201322689894,6.261248411404309,6.346276690540158,6.4313049696765336,6.5163332488134449,6.6013615279508731,6.6863898070888261,6.7714180862273157,6.856446365366331,6.9414746445058757,6.9145092370469916,6.88671720495757,6.8589251728686769,6.8311331407803237,6.803341108692508,6.7755490766052269,6.7477570445184911,6.7199650124322892,6.6921729803466175,6.6643809482614857,6.6365889161768887,6.6087968840928326,6.5810048520093094,6.5532128199263244,6.5254207878438777,6.4976287557619683,6.4698367236805892,6.442044691599758,6.338949080255853,6.185649896425736,6.0323507125961831,5.87905152876719,5.7257523449387593,5.5724531611108814,5.4191539772835764,5.2658547934568292,5.1125556096306433,4.959256425805016,4.8059572419799581,4.6526580581554544,4.4993588743315165,4.346059690508139,4.1927605066853229,4.0394613228630689,3.886162139041371,3.7328629552202388,3.5795637713996715,3.4262645875796633,3.1786436936853426,2.8905979361222127,2.6025521785596317,2.3145064209976112,2.0264606634361342,1.738414905875225,1.4503691483148649,1.1623233907550494,0.87427763319579943,0.58623187563709522,0.29818611807894863,0.010140360521353855,-0.27790539703568218,-0.56595115459217415,-0.85399691214810036,-1.1420426697034822,-1.4300884272583052,-1.718134184812572,-2.0061799423662912,-2.2942256999194521,-2.6949346385486317,-3.1238107035878855,-3.5526867686265491,-3.9815628336646181,-4.4104388987020915,-4.8393149637389721,-5.26819102877526,-5.6970670938109471,-6.1259431588460416,-6.5548192238805543,-6.98369528891445,-7.4125713539477687,-7.8414474189804837,-8.2703234840126214,-8.6991995490441436,-9.12807561407508,-9.5569516791054259,-9.9858277441351611,-10.414703809164319,-10.84357987419288,-11.402355580098737,-11.975565943695905,-12.548776307292462,-13.121986670888397,-13.695197034483749,-14.268407398078484,-14.841617761672614,-15.41482812526613,-15.988038488859061,-16.561248852451371,-17.134459216043062,-17.707669579634182,-18.280879943224662,-18.854090306814559,-19.427300670403845,-20.000511033992517,-20.5737213975806,-21.14693176116803,-21.720142124754922,-22.293352488341142,0,0.012394098535127634,0.034029523478659333,0.069702895927489822,0.12244305281159065,0.192552787958814,0.28012449060685407,0.3850970006043164,0.50724167558119782,0.6460983358487058,0.74921927836127256,0.98866907762348333
DP 501,180.73401307069517,0.0034126758926633538,-45.1832630698196,-44.2828493955622,-43.382435721303509,-42.482022047043422,-41.581608372782043,-40.681194698519349,-39.7807810242553,-38.880367349989967,-37.979953675723273,-37.079540001455243,-36.179126327185919,-35.27871265291526,-34.378298978643265,-33.477885304369977,-32.577471630095339,-31.677057955819347,-30.776644281542058,-29.876230607263413,-28.97581693298347,-28.075403258702192,-27.181753211551943,-26.348976447918655,-25.516199684284022,-24.683422920648059,-23.850646157010736,-23.0178693933721,-22.185092629732111,-21.352315866090773,-20.519539102448068,-19.686762338804055,-18.8539855751587,-18.021208811511983,-17.188432047863941,-16.35565528421456,-15.522878520563832,-14.69010175691176,-13.857324993258336,-13.024548229603583,-12.191771465947488,-11.358994702290056,-10.553912685539443,-9.859610965312438,-9.1653092450840532,-8.4710075248542847,-7.7767058046231536,-7.0824040843906237,-6.3881023641567234,-5.6938006439214375,-4.9994989236847784,-4.3051972034467374,-3.610895483207309,-2.9165937629665022,-2.222292042724316,-1.5279903224807505,-0.83368860223580321,-0.13938688198947621,0.5549148382582294,1.2492165585073129,1.9435182787577734,2.6378199990096163,3.2717546298041627,3.7648308165160493,4.2579070032293451,4.7509831899440433,5.2440593766601475,5.7371355633776515,6.2302117500965633,6.7232879368168783,7.2163641235386029,7.70944031026173,8.2025164969862487,8.695592683712194,9.1886688704395176,9.6817450571682659,10.174821243898416,10.66789743062996,11.160973617362922,11.654049804097287,12.147125990833036,12.640202177570217,13.030542399074564,13.266776245012949,13.503010090952783,13.739243936894047,13.975477782836764,14.211711628780913,14.447945474726504,14.684179320673543,14.920413166622012,15.156647012571929,15.392880858523291,15.629114704476077,15.865348550430328,16.101582396385989,16.337816242343123,16.574050088301671,16.8102839342617,17.046517780223144,17.28275162618602,17.518985472150362,17.467439671872267,17.3995740076919,17.331708343513,17.263842679335571,17.195977015159613,17.128111350985133,17.06024568681212,16.992380022640567,16.924514358470493,16.856648694301903,16.788783030134773,16.720917365969107,16.653051701804916,16.5851860376422,16.517320373480967,16.449454709321191,16.38158904516288,16.313723381006049,16.040473996013393,15.630298894907723,15.2201237938036,14.809948692701019,14.399773591600011,13.989598490500514,13.57942338940261,13.169248288306211,12.759073187211371,12.348898086118083,11.938722985026358,11.528547883936165,11.118372782847517,10.708197681760442,10.298022580674884,9.88784747959089,9.4776723785084318,9.0674972774275329,8.6573221763481847,8.247147075270389,7.5768750566602474,6.795129418417492,6.01338378017625,5.231638141936549,4.4498925036983543,3.6681468654617184,2.8864012272266057,2.1046555889929932,1.3229099507609403,0.54116431253038821,-0.24058132569861826,-1.0223269639261037,-1.8040726021520503,-2.5858182403764922,-3.3675638785993764,-4.1493095168207565,-4.9310551550405961,-5.7128007932589027,-6.4945464314756922,-7.276292069690947,-8.371504875587,-9.5450881770890437,-10.718671478589437,-11.892254780088184,-13.065838081585268,-14.239421383080712,-15.41300468457451,-16.586587986066622,-17.760171287557117,-18.933754589045968,-20.107337890533135,-21.28092119201867,-22.454504493502515,-23.628087794984765,-24.801671096465334,-25.975254397944251,-27.148837699421545,-28.322421000897162,-29.496004302371119,-30.669587603843425,-32.206722530117624,-33.7842558995414,-35.361789268963506,-36.939322638383885,-38.516856007802609,-40.094389377219649,-41.671922746634955,-43.24945611604857,-44.826989485460558,-46.4045228548708,-47.9820562242794,-49.559589593686304,-51.137122963091521,-52.714656332495082,-54.292189701896845,-55.869723071297,-57.447256440695469,-59.024789810092216,-60.602323179487328,-62.179856548880714,0,0.035400470036205223,0.095734302369430549,0.19444432189784822,0.34027964712056141,0.53406560486501653,0.776043048445333,1.0660406814971157,1.4034343219686551,1.7869683187821233,2.0717401702834271,2.733281563214438
DP 502,286.02679496585108,0.0055670223679825416,-98.674297248874964,-96.51934651682474,-94.364395784771517,-92.209445052715452,-90.054494320656332,-87.899543588594142,-85.7445928565291,-83.589642124460937,-81.434691392389851,-79.279740660315738,-77.12478992823867,-74.969839196158645,-72.8148884640756,-70.659937731989643,-68.504986999900538,-66.350036267808633,-64.1950855357136,-62.040134803615679,-59.885184071514715,-57.730233339410788,-55.593292325435534,-53.618440476998309,-51.643588628558057,-49.668736780114877,-47.693884931668634,-45.719033083219408,-43.744181234767204,-41.769329386312009,-39.79447753785378,-37.819625689392552,-35.844773840928369,-33.869921992461173,-31.895070143990978,-29.920218295517749,-27.945366447041604,-25.970514598562417,-23.995662750080189,-22.020810901595034,-20.045959053106834,-18.071107204615675,-16.168603660100626,-14.555496750780629,-12.942389841457617,-11.329282932131584,-9.7161760228025535,-8.1030691134704931,-6.4899622041354208,-4.876855294797326,-3.2637483854562226,-1.6506414761120953,-0.037534566764947326,1.5755723425852277,3.1886792519384128,4.8017861612946175,6.4148930706538447,8.027999980016066,9.6411068893813248,11.254213798749596,12.867320708120866,14.480427617495161,15.940672298031686,17.044233628308447,18.147794958588307,19.251356288871197,20.354917619157156,21.458478949446185,22.562040279738287,23.665601610033455,24.769162940331658,25.872724270632968,26.976285600937278,28.07984693124471,29.183408261555176,30.286969591868697,31.390530922185317,32.494092252504984,33.597653582827753,34.7012149131535,35.804776243482372,36.908337573814293,37.76214405187,38.241312349644204,38.7204806474215,39.1996489452019,39.678817242985367,40.157985540771975,40.637153838561616,41.116322136354427,41.5954904341503,42.074658731949263,42.553827029751332,43.032995327556513,43.512163625364771,43.991331923176134,44.4705002209906,44.949668518808153,45.4288368166288,45.908005114452578,46.387173412279459,46.866341710109417,46.54176044300506,46.3160929441601,46.090425445318267,45.864757946479621,45.639090447644094,45.413422948811679,45.187755449982426,44.9620879511563,44.7364204523333,44.510752953513439,44.285085454696755,44.059417955883163,43.833750457072718,43.608082958265385,43.382415459461221,43.156747960660219,42.931080461862308,42.705412963067573,42.027151488348082,41.047153566310719,40.067155644276575,39.087157722245692,38.107159800218092,37.127161878193746,36.147163956172619,35.167166034154796,34.187168112140185,33.207170190128814,32.2271722681208,31.247174346115941,30.26717642411435,29.287178502116031,28.307180580120956,27.327182658129157,26.3471847361406,25.367186814155293,24.38718889217326,23.407190970194492,21.881086298480309,20.120928502736913,18.360770706996732,16.600612911259763,14.840455115525955,13.080297319795447,11.3201395240681,9.55998172834391,7.7998239326230054,6.0396661369052493,4.2795083411907395,2.5193505454794178,0.75919274977133344,-1.0009650459336015,-2.7611228416352587,-4.5212806373337582,-6.2814384330290229,-8.0415962287210689,-9.8017540244099344,-11.561911820095581,-13.954179312412135,-16.504481697405993,-19.054784082396448,-21.605086467383465,-24.155388852367121,-26.705691237347335,-29.2559936223242,-31.806296007297547,-34.35659839226755,-36.906900777234185,-39.4572031621973,-42.007505547157088,-44.557807932113384,-47.108110317066341,-49.658412702015866,-52.208715086961995,-54.759017471904677,-57.30931985684402,-59.8596222417799,-62.409924626712353,-65.673805527719423,-69.016980424813113,-72.360155321903392,-75.703330218990132,-79.046505116073448,-82.38968001315331,-85.732854910229634,-89.076029807302518,-92.419204704371992,-95.762379601438013,-99.1055544985005,-102.44872939555954,-105.79190429261519,-109.13507918966724,-112.47825408671584,-115.821428983761,-119.16460388080272,-122.50777877784088,-125.85095367487583,-129.19412857190704,0,0.068732214304686942,0.19217961639234721,0.39778600041794904,0.70205398343349412,1.10676744347502,1.6124980961220805,2.2188986732475176,2.9246287871673129,3.7269896182611921,4.3229686959519613,5.7060035645639315
DP 503,161.45058307522467,0.0015303026673215263,-18.854848173917027,-18.48900925555678,-18.123170337196,-17.757331418834671,-17.391492500472822,-17.025653582110444,-16.659814663747543,-16.293975745384092,-15.928136827020102,-15.562297908655596,-15.196458990290564,-14.830620071924981,-14.464781153558883,-14.098942235192245,-13.733103316825066,-13.367264398457369,-13.001425480089127,-12.635586561720361,-12.269747643351064,-11.903908724981239,-11.540782456402621,-11.202070292360604,-10.863358128318048,-10.524645964274956,-10.185933800231323,-9.847221636187145,-9.50850947214243,-9.16979730809717,-8.8310851440513787,-8.4923729800050456,-8.1536608159581689,-7.8149486519107523,-7.4762364878627992,-7.1375243238143,-6.7988121597652738,-6.4600999957156962,-6.1213878316655874,-5.7826756676149325,-5.44396350356374,-5.1052513395120105,-4.7776721734968088,-4.4946255257903314,-4.2115788780832943,-3.928532230375696,-3.6454855826675425,-3.3624389349588286,-3.07939228724955,-2.7963456395397124,-2.5132989918293163,-2.2302523441183579,-1.9472056964068403,-1.6641590486947588,-1.3811124009821214,-1.098065753268922,-0.81501910555516222,-0.53197245784084146,-0.24892581012596121,0.03412083758947819,0.31716748530547656,0.60021413302203686,0.85890067660851788,1.0607462096990057,1.2625917427900655,1.4644372758816946,1.666282808973895,1.8681283420666652,2.0699738751600081,2.2718194082539194,2.4736649413484013,2.6755104744434539,2.8773560075390763,3.0792015406352675,3.2810470737320325,3.48289260682937,3.6847381399272745,3.8865836730257537,4.0884292061248,4.2902747392244143,4.4921202723246054,4.6939658054253615,4.8541540006503778,4.95185520467217,5.0495564086945617,5.14725761271753,5.2449588167410921,5.3426600207652468,5.440361224789986,5.53806242881532,5.6357636328412335,5.7334648368677472,5.8311660408948391,5.9288672449225306,6.0265684489507985,6.1242696529796579,6.221970857009115,6.3196720610391557,6.4173732650697923,6.5150744691010134,6.612775673132818,6.7104768771652159,6.6936154767368325,6.6673304413727523,6.64104540600926,6.6147603706463824,6.5884753352841017,6.5621902999224284,6.5359052645613565,6.5096202292008885,6.483335193841028,6.4570501584817706,6.4307651231231073,6.4044800877650552,6.3781950524076034,6.3519100170507468,6.3256249816945029,6.299339946338864,6.2730549109838227,6.2467698756293908,6.1362792326035152,5.9696501912458722,5.80302114988888,5.6363921085325162,5.469763067176789,5.3031340258216986,5.1365049844672557,4.9698759431134434,4.8032469017602715,4.6366178604077382,4.469988819055847,4.3033597777045873,4.1367307363539672,3.9701016950039887,3.8034726536546435,3.6368436123059396,3.4702145709578702,3.3035855296104422,3.1369564882636558,2.9703274469175049,2.6965103655544409,2.3767541053830561,2.0569978452122983,1.7372415850421732,1.4174853248726715,1.0977290647038125,0.777972804535581,0.45821654436796666,0.13846028420099768,-0.18129597596535285,-0.50105223613106575,-0.82080849629615193,-1.140564756460603,-1.4603210166244327,-1.7800772767876232,-2.0998335369501895,-2.4195897971121227,-2.7393460572734227,-3.0591023174340948,-3.3788585775941398,-3.8283309970343096,-4.3102339889203964,-4.7921369808058,-5.27403997269052,-5.75594296457455,-6.237845956457897,-6.7197489483405635,-7.2016519402225372,-7.6835549321038235,-8.1654579239844427,-8.6473609158643541,-9.1292639077435922,-9.61116689962214,-10.093069891500013,-10.574972883377187,-11.056875875253677,-11.538778867129484,-12.020681859004611,-12.50258485087905,-12.984487842752799,-13.617239347396328,-14.266753382177512,-14.916267416957997,-15.565781451737751,-16.215295486516819,-16.864809521295182,-17.514323556072849,-18.163837590849802,-18.813351625626066,-19.462865660401597,-20.112379695176468,-20.761893729950632,-21.411407764724082,-22.060921799496832,-22.710435834268868,-23.359949869040214,-24.009463903810889,-24.658977938580779,-25.308491973350051,-25.958006008118563,0,0.015068117435815237,0.040181315353757345,0.080980282369652726,0.14122135800840122,0.22124195966789925,0.32113616738363404,0.440832424995228,0.5800761080528084,0.73835482271834108,0.85585060628968546,1.1289032927724243
DP 504,281.07150664440172,0.0010812318793747228,-18.942941312449086,-18.530588325022734,-18.11823533759582,-17.7058823501683,-17.293529362740223,-16.88117637531159,-16.468823387882342,-16.056470400452536,-15.644117413022173,-15.23176442559121,-14.819411438159685,-14.407058450727602,-13.99470546329491,-13.582352475861658,-13.169999488427825,-12.757646500993435,-12.345293513558449,-11.932940526122906,-11.520587538686787,-11.108234551250082,-10.699307973807937,-10.321219410200319,-9.9431308465921173,-9.5650422829833541,-9.1869537193740047,-8.8088651557640816,-8.43077659215358,-8.052688028542498,-7.6745994649308482,-7.2965109013186087,-6.9184223377058016,-6.5403337740924155,-6.162245210478452,-5.78415664686391,-5.4060680832487922,-5.0279795196330959,-4.6498909560168293,-4.2718023923999766,-3.8937138287825519,-3.5156252651645503,-3.1513150768666174,-2.8421190410358923,-2.5329230052045877,-2.2237269693727,-1.914530933540233,-1.605334897707186,-1.2961388618735561,-0.98694282603934447,-0.67774679020455331,-0.36855075436918078,-0.059354718533225638,0.24984131730331266,0.55903735314042979,0.86823338897812918,1.17742942481641,1.4866254606552711,1.7958214964947135,2.1050175323347333,2.4142135681753363,2.7234096040165219,3.0034442307827449,3.2154346509046188,3.4274250710270859,3.6394154911501451,3.8514059112737868,4.0633963313980237,4.275386751522853,4.4873771716482649,4.6993675917742745,4.9113580119008722,5.1233484320280578,5.3353388521558323,5.5473292722841991,5.75931969241316,5.9713101125427075,6.1833005326728427,6.3952909528035766,6.6072813729348931,6.8192717930668065,7.0312622131993034,7.1955003283511045,7.2881088576142758,7.3807173868780565,7.4733259161424295,7.5659344454073958,7.658542974672967,7.75115150393913,7.8437600332058945,7.9363685624732563,8.02897709174121,8.12158562100976,8.2141941502789173,8.3068026795486567,8.3994112088189983,8.4920197380899367,8.5846282673614773,8.6772367966336112,8.769845325906342,8.86245385517967,8.9550623844535888,8.89507237805564,8.85255441419557,8.8100364503361,8.767518486477222,8.72500052261896,8.6824825587612988,8.6399645949042476,8.5974466310477968,8.5549286671919518,8.5124107033367071,8.4698927394820736,8.4273747756280351,8.3848568117746076,8.34233884792179,8.2998208840695682,8.2573029202179473,8.21478495636695,8.172266992516537,8.0427251709728615,7.8551660733516169,7.6676069757310081,7.480047878111014,7.2924887804916532,7.104929682872922,6.9173705852548144,6.7298114876373427,6.5422523900204856,6.3546932924042645,6.1671341947886695,5.9795750971737025,5.79201599955936,5.60445690194566,5.4168978043325664,5.2293387067201129,5.0417796091082829,4.8542205114970782,4.6666614138865059,4.4791023162765624,4.1862327459104609,3.8482286937722283,3.5102246416346126,3.17222058949762,2.8342165373612374,2.4962124852254819,2.158208433090345,1.8202043809558135,1.4822003288219154,1.1441962766886262,0.806192224555961,0.46818817242391092,0.13018412029248555,-0.20781993183833292,-0.54582398396851983,-0.88382803609809624,-1.2218320882270504,-1.5598361403553831,-1.8978401924831036,-2.2358442446102029,-2.6960493285737717,-3.1868061143293955,-3.677562900084359,-4.1683196858386662,-4.6590764715923179,-5.1498332573453078,-5.6405900430976459,-6.1313468288493169,-6.6221036146003325,-7.1128604003507041,-7.6036171861004069,-8.0943739718494552,-8.5851307575978257,-9.07588754334557,-9.5666443290926324,-10.057401114839051,-10.548157900584801,-11.038914686329898,-11.529671472074341,-12.020428257818134,-12.649371974956427,-13.293671246880098,-13.937970518803114,-14.582269790725435,-15.226569062647096,-15.870868334568089,-16.515167606488415,-17.159466878408058,-17.803766150327057,-18.44806542224536,-19.092364694163013,-19.736663966079995,-20.3809632379963,-21.025262509911947,-21.669561781826907,-22.313861053741221,-22.958160325654841,-23.602459597567819,-24.246758869480129,-24.891058141391724,0,0.013279322899137821,0.037100343197786476,0.076756556707963622,0.13543920349428809,0.21349199328903276,0.3110248520375305,0.42797072686969428,0.5640713389902865,0.718806581884434,0.83374028009911239,1.1004644938766988
DP 505,215.22207349972055,0.0013410220497693307,-19.803795370457937,-19.394264216332509,-18.984733062206473,-18.575201908079833,-18.165670753952586,-17.756139599824767,-17.346608445696312,-16.937077291567267,-16.527546137437614,-16.118014983307376,-15.708483829176505,-15.298952675045058,-14.889421520913,-14.479890366780353,-14.070359212647093,-13.660828058513241,-13.251296904378766,-12.841765750243704,-12.432234596108032,-12.022703441971768,-11.616341071375389,-11.238498052169916,-10.86065503296385,-10.482812013757165,-10.104968994549877,-9.7271259753419912,-9.3492829561334769,-8.9714399369243623,-8.593596917714649,-8.2157538985043281,-7.8379108792933829,-7.4600678600818586,-7.082224840869709,-6.7043818216569528,-6.3265388024435936,-5.948695783229625,-5.5708527640150507,-5.1930097447998662,-4.815166725584076,-4.43732370636768,-4.0723866613625272,-3.7590741231584666,-3.4457615849537926,-3.1324490467484964,-2.8191365085425839,-2.5058239703360536,-2.1925114321289043,-1.8791988939211366,-1.5658863557127527,-1.2525738175037502,-0.93926127929412806,-0.62594874108388576,-0.31263620287302735,0.00067633533844984565,0.31398887355054533,0.62730141176325949,0.94061394997659031,1.2539264881905399,1.5672390264051048,1.8805515646202897,2.1659752943518038,2.3863242589150149,2.6066732234788543,2.8270221880433213,3.0473711526084162,3.2677201171741435,3.4880690817404938,3.7084180463074792,3.9287670108750854,4.149115975443328,4.36946494001219,4.5898139045816846,4.81016286915181,5.0305118337225636,5.250860798293945,5.4712097628659535,5.6915587274385873,5.9119076920118587,6.1322566565857519,6.3526056211602731,6.5260184082686488,6.62902582004583,6.7320332318236522,6.8350406436021158,6.9380480553812154,7.0410554671609535,7.1440628789413383,7.2470702907223643,7.35007770250403,7.4530851142863295,7.5560925260692757,7.65909993785286,7.7621073496370894,7.8651147614219488,7.9681221732074556,8.0711295849936011,8.1741369967803834,8.2771444085678176,8.380151820355886,8.48315923214459,8.4492585526457358,8.4150965391803929,8.3809345257157073,8.3467725122516558,8.3126104987882687,8.2784484853255318,8.2442864718634485,8.21012445840201,8.1759624449412289,8.141800431481105,8.1076384180216223,8.07347640456279,8.03931439110461,8.0051523776470823,7.9709903641902038,7.9368283507339834,7.9026663372784052,7.86850432382349,7.7429141156146821,7.5563703372365874,7.3698265588591809,7.1832827804824522,6.9967390021063967,6.8101952237310268,6.6236514453563471,6.4371076669823326,6.2505638886090065,6.064020110236358,5.8774763318644,5.6909325534931163,5.504388775122508,5.3178449967525889,5.1313012183833475,4.9447574400147891,4.7582136616469022,4.5716698832797062,4.3851261049131889,4.1985823265473554,3.897670155115732,3.547741413754848,3.1978126723946327,2.8478839310350943,2.4979551896762158,2.1480264483180251,1.7980977069605006,1.4481689656036345,1.0982402242474563,0.74831148289193838,0.39838274153709874,0.04845400018292647,-0.30147474117056805,-0.65140348252340219,-1.0013322238755518,-1.3512609652270391,-1.7011897065778505,-2.0511184479279874,-2.4010471892774592,-2.7509759306262551,-3.2373664138249119,-3.75787394481251,-4.2783814757993843,-4.7988890067855392,-5.3193965377709791,-5.839904068755696,-6.3604115997396926,-6.88091913072296,-7.4014266617055124,-7.921934192687365,-8.4424417236684679,-8.9629492546488656,-9.4834567856285261,-10.003964316607494,-10.524471847585721,-11.044979378563228,-11.565486909540027,-12.085994440516101,-12.606501971491454,-13.127009502466093,-13.804744348634479,-14.499950547758271,-15.195156746881308,-15.890362946003606,-16.585569145125191,-17.280775344246024,-17.975981543366125,-18.6711877424855,-19.36639394160412,-20.061600140722021,-20.756806339839208,-21.452012538955628,-22.147218738071324,-22.842424937186294,-23.537631136300529,-24.232837335414022,-24.928043534526807,-25.623249733638811,-26.318455932750133,-27.013662131860666,0,0.014986318195591534,0.041196028077787029,0.084438910849910093,0.14837360271599934,0.23336765565059936,0.33953357545465668,0.46679729649055646,0.61488130761095716,0.78322730932962037,0.90825000081829943,1.198545670966741
DP 506,177.15962253738221,0.00464217595659589,-60.691641073263092,-59.487648930062583,-58.283656786860305,-57.079664643656258,-55.875672500450477,-54.671680357242892,-53.467688214033636,-52.263696070822476,-51.059703927609604,-49.855711784394906,-48.651719641178524,-47.447727497960308,-46.243735354740345,-45.039743211518605,-43.835751068295131,-42.631758925069853,-41.427766781842806,-40.223774638613975,-39.019782495383417,-37.815790352151069,-36.620818166000632,-35.507026446206851,-34.393234726411272,-33.279443006613945,-32.1656512868148,-31.051859567013842,-29.938067847211112,-28.8242761274066,-27.710484407600262,-26.596692687792174,-25.482900967982253,-24.369109248170592,-23.255317528357089,-22.141525808541797,-21.027734088724742,-19.913942368905872,-18.800150649085229,-17.686358929262781,-16.572567209438535,-15.458775489612501,-14.381937071366462,-13.452913605910178,-12.523890140452034,-11.594866674992055,-10.665843209530227,-9.7368197440665565,-8.8077962786010353,-7.8787728131336738,-6.9497493476644649,-6.02072588219341,-5.0917024167205085,-4.1626789512457512,-3.2336554857691548,-2.3046320202907102,-1.3756085548104195,-0.44658508932828095,0.48243837615570012,1.4114618416415261,2.3404853071291929,3.2695087726187126,4.1179230503198552,4.7782466833880477,5.4385703164581329,6.0988939495300833,6.7592175826039176,7.4195412156796374,8.0798648487572287,8.7401884818367073,9.4005121149180582,10.060835748001283,10.721159381086393,11.381483014173385,12.04180664726224,12.702130280352989,13.362453913445639,14.022777546540127,14.683101179636521,15.343424812734789,16.003748445834926,16.664072078936933,17.187078034391185,17.504104228468975,17.821130422548713,18.138156616630358,18.455182810713957,18.772209004799482,19.089235198886907,19.406261392976294,19.723287587067631,20.040313781160837,20.357339975256021,20.674366169353117,20.991392363452142,21.308418557553107,21.62544475165598,21.942470945760814,22.259497139867587,22.576523333976247,22.893549528086861,23.21057572219939,23.144354841824967,23.054460481601293,22.964566121379619,22.874671761159881,22.784777400942136,22.694883040726364,22.604988680512566,22.515094320300737,22.42519996009085,22.335305599882957,22.245411239677054,22.1555168794731,22.0656225192711,21.975728159071107,21.885833798873048,21.795939438676996,21.706045078482916,21.616150718290783,21.251120991972236,20.702663353833028,20.1542057156959,19.605748077560847,19.057290439427863,18.508832801296958,17.960375163168141,17.411917525041389,16.863459886916704,16.3150022487941,15.766544610673604,15.218086972555145,14.669629334438786,14.121171696324504,13.572714058212268,13.024256420102139,12.475798781994071,11.927341143888091,11.378883505784174,10.830425867682349,9.9331680702126448,8.886419780267806,7.839671490325018,6.7929232003842914,5.7461749104455855,4.6994266205089659,3.6526783305743886,2.605930040641824,1.5591817507113537,0.51243346078289331,-0.53431482914349238,-1.5810631190678395,-2.6278114089901221,-3.6745596989103859,-4.7213079888285616,-5.7680562787447229,-6.8148045686588068,-7.8615528585708461,-8.9083011484808452,-9.9550494383887926,-11.422520420395625,-12.995177046361334,-14.567833672324836,-16.140490298286121,-17.713146924245194,-19.285803550202044,-20.858460176156704,-22.431116802109095,-24.003773428059294,-25.576430054007314,-27.149086679953058,-28.721743305896617,-30.294399931837908,-31.867056557777065,-33.439713183713934,-35.0123698096486,-36.585026435581085,-38.157683061511342,-39.730339687439347,-41.302996313365149,-43.363868987092026,-45.478993015801983,-47.594117044509673,-49.709241073215068,-51.8243651019182,-53.939489130619116,-56.05461315931769,-58.169737188014004,-60.284861216708016,-62.399985245399861,-64.515109274089454,-66.63023330277673,-68.745357331461719,-70.860481360144476,-72.975605388824874,-75.090729417503127,-77.205853446179063,-79.320977474852654,-81.436101503524128,-83.551225532193087,0,0.047721289763887252,0.12876234759209781,0.26119980355373329,0.45684541554561309,0.71680446203896986,1.0413969986685898,1.43039288884318,1.8829564005134896,2.3974064060390372,2.7793700923470133,3.6667495333087641
DP 507,87.771174323704955,0.00173051927900313,-13.664623104755536,-13.454508653605453,-13.244394202455148,-13.034279751304618,-12.824165300153872,-12.61405084900292,-12.403936397851727,-12.193821946700327,-11.983707495548696,-11.773593044396867,-11.563478593244803,-11.35336414209252,-11.143249690940019,-10.933135239787305,-10.723020788634363,-10.512906337481205,-10.302791886327826,-10.092677435174224,-9.8825629840204137,-9.67244853286638,-9.4638549628460833,-9.2689494667914509,-9.0740439707365947,-8.879138474681497,-8.68423297862617,-8.4893274825706015,-8.2944219865147986,-8.09951649045877,-7.904610994402498,-7.7097054983459987,-7.5148000022892658,-7.3198945062323,-7.1249890101750966,-6.9300835141176611,-6.7351780180599894,-6.5402725220020832,-6.3453670259439416,-6.1504615298855718,-5.9555560338269684,-5.7606505377681243,-5.5720106526640114,-5.4084335075009928,-5.2448563623376945,-5.0812792171741146,-4.9177020720102647,-4.7541249268461305,-4.5905477816817255,-4.4269706365170443,-4.263393491352085,-4.0998163461868522,-3.9362392010213378,-3.7726620558555495,-3.6090849106894844,-3.4455077655231445,-3.2819306203565244,-3.11835347518963,-2.9547763300224568,-2.7911991848550093,-2.6276220396872869,-2.4640448945192874,-2.3142743136453543,-2.1967194844677476,-2.0791646552898571,-1.9616098261116832,-1.8440549969332272,-1.7265001677544847,-1.6089453385754582,-1.4913905093961473,-1.3738356802165514,-1.2562808510366736,-1.1387260218565107,-1.0211711926760645,-0.9036163634953327,-0.78606153431431758,-0.66850670513301824,-0.55095187595143391,-0.43339704676956609,-0.31584221758741343,-0.19828738840497792,-0.080732559222258068,0.013009126208533915,0.071030533291615308,0.12905194037501189,0.18707334745872678,0.24509475454275834,0.30311616162710725,0.36113756871177283,0.41915897579675476,0.47718038288205222,0.53520178996766921,0.59322319705360194,0.6512446041398513,0.70926601122641775,0.76728741831330094,0.82530882540050154,0.8833302324880189,0.94135163957585211,0.99937304666400473,1.0573944537524709,1.115415860841255,1.1105137615716161,1.0969485051170167,1.0833832486627542,1.0698179922088278,1.0562527357552411,1.0426874793019871,1.0291222228490737,1.0155569663964923,1.0019917099442526,0.9884264534923457,0.97486119704077756,0.961295940589546,0.94773068413864914,0.9341654276880903,0.920600171237869,0.90703491478798226,0.893469658338433,0.87990440188922214,0.81724055833498854,0.72184354989246935,0.626446541450331,0.53104953300856772,0.43565252456718367,0.34025551612617755,0.24485850768555281,0.14946149924530636,0.054064490805436058,-0.041332517634054051,-0.13672952607316177,-0.23212653451189491,-0.32752354295024905,-0.42292055138822127,-0.518317559825819,-0.613714568263035,-0.709111576699875,-0.8045085851363345,-0.899905593572413,-0.99530260200811427,-1.1537751963382452,-1.3392810363400587,-1.5247868763414978,-1.7102927163425585,-1.8957985563432473,-2.0813043963435547,-2.2668102363434839,-2.452316076343048,-2.6378219163422267,-2.8233277563410359,-3.0088335963394628,-3.1943394363375175,-3.3798452763351934,-3.5653511163325,-3.7508569563294207,-3.9363627963259744,-4.1218686363221453,-4.3073744763179409,-4.4928803163133626,-4.6783861563084077,-4.9407665716175728,-5.2223665390458134,-5.5039665064736205,-5.7855664739009862,-6.0671664413279158,-6.3487664087544058,-6.6303663761804641,-6.9119663436060819,-7.1935663110312573,-7.4751662784560171,-7.756766245880315,-8.0383662133041938,-8.3199661807276151,-8.6015661481506225,-8.8831661155731751,-9.1647660829953,-9.44636605041699,-9.7279660178382414,-10.009565985259048,-10.291165952679433,-10.662588579160875,-11.043992444448744,-11.425396309736163,-11.806800175023099,-12.188204040309602,-12.569607905595637,-12.95101177088122,-13.332415636166333,-13.713819501451,-14.095223366735219,-14.476627232018968,-14.858031097302259,-15.23943496258509,-15.620838827867482,-16.002242693149398,-16.383646558430872,-16.765050423711884,-17.14645428899242,-17.527858154272518,-17.909262019552148,0,0.012913552242964248,0.029649877306856479,0.054524876571182865,0.090898522325260356,0.13901344423220274,0.19890618067981627,0.27053605528625441,0.35377967523371323,0.4483773132066155,0.51826454369055042,0.68124366603333164
DP 508,156.79594196012516,0.0012506895913068448,-15.119770806365146,-14.828570522748858,-14.537370239132166,-14.246169955515045,-13.954969671897489,-13.66376938827953,-13.372569104661135,-13.08136882104232,-12.790168537423101,-12.49896825380344,-12.207767970183374,-11.91656768656288,-11.625367402941963,-11.334167119320629,-11.042966835698866,-10.751766552076694,-10.460566268454089,-10.169365984831071,-9.87816570120763,-9.5869654175837624,-9.297918441254561,-9.0282514341204951,-8.7585844269860118,-8.4889174198510968,-8.2192504127157662,-7.9495834055799941,-7.6799163984437948,-7.4102493913071719,-7.1405823841701181,-6.8709153770326425,-6.6012483698947308,-6.3315813627563973,-6.061914355617632,-5.79224734847844,-5.52258034133882,-5.2529133341987748,-4.9832463270583007,-4.7135793199173959,-4.443912312776062,-4.1742453056343036,-3.91342040980874,-3.6879643771397026,-3.462508344470216,-3.2370523118002876,-3.0115962791299138,-2.786140246459095,-2.5606842137878307,-2.3352281811161197,-2.1097721484439651,-1.8843161157713655,-1.6588600830983187,-1.4334040504248269,-1.2079480177508914,-0.98249198507650892,-0.75703595240168176,-0.5315799197264085,-0.30612388705069044,-0.080667854374528447,0.14478817830207791,0.37024421097913129,0.57633782710529713,0.73725186121819186,0.89816589533154234,1.0590799294453452,1.2199939635596009,1.380907997674311,1.541822031789474,1.7027360659050934,1.8636501000211618,2.0245641341376883,2.1854781682546651,2.3463922023720953,2.507306236489983,2.66822027060832,2.8291343047271127,2.990048338846361,3.1509623729660574,3.311876407086213,3.47279044120682,3.6337044753278795,3.7614743191291002,3.8395270942320954,3.9175798693355559,3.9956326444394858,4.073685419543887,4.1517381946487566,4.2297909697540934,4.3078437448598992,4.3858965199661757,4.46394929507292,4.5420020701801382,4.6200548452878216,4.6981076203959722,4.7761603955045979,4.8542131706136846,4.9322659457232447,5.0103187208332747,5.0883714959437745,5.1664242710547432,5.2444770461661792,5.2317346225353614,5.2110269113618051,5.1903192001887231,5.169611489016126,5.1489037778440094,5.1281960666723689,5.107488355501216,5.0867806443305357,5.0660729331603438,5.0453652219906289,5.024657510821398,5.003949799652645,4.983242088484376,4.9625343773165813,4.9418266661492751,4.9211189549824459,4.9004112438160945,4.87970353265023,4.7918458954351051,4.6592205829932851,4.5265952705519705,4.3939699581111729,4.2613446456708743,4.1287193332310927,3.9960940207918161,3.863468708353051,3.7308433959147926,3.5982180834770472,3.4655927710398124,3.3329674586030857,3.200342146166868,3.0677168337311618,2.935091521295961,2.8024662088612717,2.6698408964270883,2.5372155839934205,2.40459027156026,2.2719649591276112,2.0537721062009808,1.7989062947771055,1.544040483353732,1.2891746719308645,1.0343088605084938,0.77944304908663586,0.52457723766527864,0.26971142624441646,0.014845614824067394,-0.24002019659578663,-0.49488600801513227,-0.74975181943397728,-1.0046176308523147,-1.2594834422701573,-1.514349253687487,-1.7692150651043204,-2.0240808765206464,-2.2789466879364686,-2.5338124993517916,-2.7886783107666093,-3.1471833785717216,-3.5315994849957604,-3.9160155914192551,-4.3004316978421979,-4.6848478042645905,-5.0692639106864394,-5.4536800171077475,-5.8380961235284907,-6.222512229948693,-6.6069283363683571,-6.9913444427874527,-7.37576054920601,-7.7601766556240248,-8.1445927620414853,-8.5290088684584013,-8.9134249748747632,-9.2978410812905761,-9.6822571877058472,-10.066673294120566,-10.451089400534739,-10.956093548959689,-11.474497635185354,-11.992901721410462,-12.511305807634981,-13.029709893858962,-13.548113980082382,-14.066518066305237,-14.584922152527499,-15.10332623874924,-15.621730324970397,-16.140134411191,-16.658538497411048,-17.176942583630513,-17.695346669849428,-18.213750756067782,-18.732154842285574,-19.2505589285028,-19.768963014719457,-20.287367100935583,-20.805771187151105,0,0.012145150438117158,0.032251820713687727,0.064849120612823358,0.11297172917255305,0.17688851802680655,0.25667338502480835,0.35226904509771156,0.46347277448042962,0.58987679621965627,0.6837043579613068,0.901777295361065
DP 509,153.34723858082162,0.0011194605234599022,-13.337716319152472,-13.082320990427425,-12.826925661702006,-12.571530332976218,-12.316135004250073,-12.060739675523546,-11.805344346796666,-11.549949018069402,-11.294553689341775,-11.039158360613776,-10.783763031885428,-10.528367703156698,-10.272972374427598,-10.017577045698133,-9.7621817169683034,-9.506786388238103,-9.2513910595075366,-8.995995730776599,-8.7406004020453025,-8.4852050733136259,-8.2316947944676748,-7.9951501427791349,-7.7586054910902149,-7.5220608394009263,-7.2855161877112575,-7.0489715360212246,-6.8124268843308124,-6.5758822326400255,-6.3393375809488663,-6.1027929292573369,-5.8662482775654272,-5.6297036258731454,-5.3931589741804915,-5.1566143224874645,-4.9200696707940565,-4.6835250191002809,-4.4469803674061321,-4.2104357157116086,-3.9738910640167067,-3.7373464123214379,-3.5085445528768613,-3.310714228371316,-3.1128839038653822,-2.9150535793590611,-2.7172232548523474,-2.5193929303452447,-2.3215626058377516,-2.1237322813298696,-1.9259019568215965,-1.7280716323129357,-1.5302413078038819,-1.3324109832944384,-1.1345806587846055,-0.93675033427438259,-0.738920009763769,-0.541089685252766,-0.34325936074137364,-0.14542903622959208,0.052401288282579388,0.25023161279514117,0.4310973077003093,0.57237833234194457,0.71365935698397887,0.85494038162640962,0.99622140626923783,1.1375024309124626,1.2787834555560855,1.4200644802001057,1.5613455048445228,1.702626529489339,1.8439075541345487,1.985188578780158,2.1264696034261639,2.2677506280725668,2.4090316527193685,2.5503126773665672,2.691593702014162,2.8328747266621548,2.9741557513105477,3.1154367759593327,3.227657559415853,3.2962872943718389,3.3649170293282347,3.4335467642850408,3.5021764992422617,3.5708062341998952,3.6394359691579328,3.7080657041163883,3.7766954390752581,3.8453251740345316,3.9139549089942207,3.9825846439543238,4.0512143789148354,4.1198441138757573,4.1884738488370923,4.2571035837988376,4.3257333187609941,4.3943630537235663,4.4629927886865453,4.5316225236499346,4.5208654987356622,4.5028365779558914,4.4848076571765434,4.4667787363976119,4.4487498156191059,4.43072089484102,4.4126919740633577,4.3946630532861146,4.3766341325092988,4.3586052117329013,4.3405762909569274,4.3225473701813781,4.3045184494062427,4.2864895286315372,4.26846060785725,4.2504316870833847,4.2324027663099422,4.2143738455369215,4.1373758600227,4.0210642356994128,3.9047526113765687,3.7884409870541691,3.6721293627322233,3.5558177384107172,3.439506114089669,3.3231944897690657,3.2068828654489079,3.0905712411291968,2.9742596168099391,2.8579479924911233,2.7416363681727556,2.6253247438548417,2.5090131195373706,2.3927014952203463,2.2763898709037709,2.1600782465876458,2.0437666222719688,1.9274549979567395,1.7359448897808334,1.5122058445365287,1.2884667992926673,1.0647277540492488,0.8409887088062673,0.61724966356373689,0.39351061832164635,0.16977157307999002,-0.053967472161214308,-0.277706517401984,-0.50144556264230633,-0.72518460788218853,-0.94892365312162519,-1.1726626983606263,-1.3964017435991771,-1.6201407888372916,-1.8438798340749589,-2.0676188793121844,-2.29135792454897,-2.5150969697853132,-2.8299683815778693,-3.1676239617590864,-3.5052795419398195,-3.8429351221200716,-4.1805907022998428,-4.51824628247913,-4.85590186265794,-5.1935574428362576,-5.53121302301409,-5.8688686031914585,-6.2065241833683249,-6.54417976354472,-6.8818353437206223,-7.2194909238960605,-7.5571465040709978,-7.8948020842454572,-8.2324576644194387,-8.57011324459293,-8.9077688247659417,-9.2454244049384773,-9.68915720242002,-10.144677471447746,-10.600197740474995,-11.055718009501724,-11.511238278527982,-11.966758547553731,-12.422278816578986,-12.877799085603739,-13.333319354628015,-13.788839623651787,-14.244359892675066,-14.69988016169785,-15.155400430720135,-15.610920699741945,-16.066440968763235,-16.521961237784026,-16.977481506804356,-17.433001775824142,-17.888522044843477,-18.344042313862275,0,0.010755877378236365,0.028467374964755487,0.057133703207971426,0.09944719518129698,0.15564384227455116,0.22578773311640768,0.30982838525082163,0.40758810055768929,0.51870942011395138,0.601188110236996,0.79290058491500648
DP 510,55.905132441850455,0.0011057856699662053,-5.9504192119692538,-5.8882172218464586,-5.8260152317236606,-5.7638132416008627,-5.7016112514780657,-5.6394092613552607,-5.5772072712324592,-5.5150052811096506,-5.4528032909868456,-5.39060130086404,-5.328399310741232,-5.26619732061842,-5.2039953304956139,-5.1417933403727965,-5.0795913502499817,-5.0173893601271642,-4.9551873700043449,-4.8929853798815266,-4.8307833897587091,-4.768581399635881,-4.7068289533697794,-4.6491224443069914,-4.5914159352441928,-4.5337094261813817,-4.476002917118552,-4.4182964080557161,-4.3605898989928651,-4.3028833899300034,-4.2451768808671266,-4.1874703718042374,-4.1297638627413384,-4.0720573536784244,-4.0143508446154934,-3.9566443355525536,-3.8989378264896049,-3.8412313174266353,-3.7835248083636608,-3.7258182993006721,-3.6681117902376688,-3.6104052811746525,-3.5545467972688987,-3.506080501332467,-3.4576142053959829,-3.4091479094594552,-3.360681613522881,-3.3122153175862579,-3.26374902164959,-3.215282725712874,-3.1668164297761119,-3.1183501338393009,-3.0698838379024447,-3.0214175419655427,-2.9729512460285918,-2.9244849500915957,-2.8760186541545507,-2.8275523582174595,-2.7790860622803195,-2.7306197663431382,-2.6821534704059058,-2.6336871744686285,-2.5892972333256963,-2.5544189151385588,-2.5195405969513747,-2.4846622787641404,-2.449783960576855,-2.4149056423895194,-2.3800273242021368,-2.3451490060147009,-2.3102706878272175,-2.2753923696396843,-2.2405140514521005,-2.2056357332644678,-2.170757415076785,-2.1358790968890524,-2.1010007787012688,-2.066122460513435,-2.0312441423255549,-1.9963658241376205,-1.9614875059496397,-1.9266091877616081,-1.898758986195703,-1.881451125641854,-1.8641432650879302,-1.8468354045339306,-1.8295275439798566,-1.8122196834257069,-1.7949118228714833,-1.7776039623171829,-1.76029610176281,-1.7429882412083593,-1.7256803806538354,-1.708372520099237,-1.6910646595445624,-1.6737567989898134,-1.6564489384349896,-1.63914107788009,-1.6218332173251175,-1.6045253567700675,-1.5872174962149435,-1.5699096356597457,-1.5708523552867744,-1.574691055224559,-1.5785297551622546,-1.5823684550998629,-1.5862071550373824,-1.5900458549748122,-1.5938845549121534,-1.5977232548494078,-1.6015619547865718,-1.6054006547236488,-1.6092393546606347,-1.6130780545975325,-1.6169167545343437,-1.6207554544710649,-1.6245941544076978,-1.6284328543442408,-1.6322715542806965,-1.6361102542170622,-1.6544556242632531,-1.6824723362498708,-1.7104890482363682,-1.7385057602227534,-1.7665224722090205,-1.7945391841951728,-1.8225558961812056,-1.8505726081671243,-1.8785893201529265,-1.9066060321386116,-1.9346227441241794,-1.9626394561096316,-1.9906561680949708,-2.01867288008019,-2.0466895920652926,-2.0747063040502813,-2.1027230160351524,-2.1307397280199063,-2.1587564400045438,-2.186773151989065,-2.2334425203141186,-2.2881061360826602,-2.342769751851085,-2.3974333676193909,-2.4520969833875825,-2.5067605991556574,-2.5614242149236133,-2.6160878306914581,-2.6707514464591813,-2.7254150622267921,-2.7800786779942839,-2.834742293761658,-2.8894059095289149,-2.9440695252960611,-2.9987331410630853,-3.0533967568299949,-3.1080603725967864,-3.1627239883634624,-3.2173876041300238,-3.2720512198964675,-3.3494483611688364,-3.4325291524194244,-3.5156099436698591,-3.5986907349201367,-3.68177152617026,-3.7648523174202317,-3.8479331086700466,-3.9310138999196997,-4.0140946911692108,-4.0971754824185611,-4.1802562736677569,-4.2633370649167972,-4.3464178561656821,-4.4294986474144133,-4.5125794386629892,-4.5956602299114149,-4.6787410211596789,-4.7618218124077911,-4.844902603655755,-4.9279833949035581,-5.0376388190493522,-5.1502472592817137,-5.2628556995139046,-5.3754641397459242,-5.4880725799777776,-5.6006810202094641,-5.7132894604409827,-5.8258979006723335,-5.9385063409035235,-6.0511147811345385,-6.1637232213653848,-6.2763316615960658,-6.3889401018265781,-6.5015485420569235,-6.6141569822871,-6.7267654225171087,-6.8393738627469505,-6.9519823029766172,-7.0645907432061215,-7.1771991834354578,0,0.007447776970450984,0.014419131855958498,0.022865941380697339,0.034552799513442076,0.049675145166099728,0.068290966243508625,0.090426627890177053,0.11609640493319899,0.14527017318629148,0.16624327702542185,0.21524907617179237
DP 511,187.87133122975047,0.0016027422438260831,-21.742726233791082,-21.305699527730891,-20.868672821670032,-20.431646115608576,-19.994619409546441,-19.557592703483675,-19.120565997420265,-18.683539291356198,-18.246512585291491,-17.809485879226148,-17.372459173160131,-16.935432467093502,-16.498405761026206,-16.06137905495828,-15.624352348889698,-15.187325642820484,-14.750298936750623,-14.313272230680109,-13.876245524608958,-13.439218818537162,-13.005493046335943,-12.601475990993599,-12.197458935650598,-11.793441880306951,-11.389424824962644,-10.985407769617696,-10.581390714272086,-10.177373658925825,-9.7733566035789234,-9.36933954823136,-8.9653224928831445,-8.5613054375342781,-8.1572883821847686,-7.7532713268345912,-7.3492542714837761,-6.9452372161322984,-6.5412201607801821,-6.137203105427405,-5.7331860500739715,-5.329168994719895,-4.9386545755174538,-4.6021513390768884,-4.2656481026356587,-3.9291448661937589,-3.5926416297511929,-3.2561383933079524,-2.9196351568640493,-2.5831319204194729,-2.2466286839742327,-1.9101254475283214,-1.5736222110817395,-1.2371189746344873,-0.90061573818656837,-0.56411250173797978,-0.22760926528872233,0.108893971161204,0.44539720761179841,0.78190044406306081,1.1184036805149895,1.4549069169675903,1.7620252157398923,2.0005777340791373,2.239130252419065,2.4776827707596683,2.716235289100954,2.954787807442921,3.1933403257855657,3.4318928441288943,3.670445362472901,3.908997880817588,4.1475503991629576,4.3861029175090032,4.62465543585573,4.8632079542031441,5.1017604725512324,5.3403129909000011,5.57886550924945,5.8174180275995884,6.0559705459503954,6.2945230643018872,6.4831694014974612,6.5969552876440742,6.71074117379139,6.8245270599394052,6.9383129460881108,7.0520988322375171,7.1658847183876242,7.2796706045384258,7.3934564906899229,7.5072423768421181,7.6210282629950017,7.7348141491485984,7.8486000353028853,7.9623859214578641,8.0761718076135427,8.189957693769923,8.3037435799269961,8.417529466084769,8.5313153522432348,8.6451012384023969,8.6180171584478771,8.5844260706296165,8.5508349828120824,8.5172438949952465,8.4836528071791264,8.45006171936371,8.416470631549009,8.3828795437350188,8.3492884559217462,8.3156973681091753,8.282106280297322,8.2485151924861775,8.2149241046757382,8.1813330168660183,8.1477419290570037,8.1141508412487,8.0805597534411167,8.04696866563423,7.9140809132937777,7.7149938203066437,7.5159067273202691,7.3168196343346432,7.1177325413497536,6.9186454483656039,6.7195583553822127,6.5204712623995675,6.3213841694176685,6.1222970764365074,5.9232099834561041,5.7241228904764432,5.5250357974975284,5.325948704519373,5.1268616115419521,4.9277745185652782,4.7286874255893494,4.5296003326141747,4.3305132396397443,4.1314261466660627,3.8068686591257093,3.42853645110125,3.050204243077518,2.6718720350545331,2.2935398270322724,1.9152076190107663,1.5368754109899934,1.1585432029699423,0.78021099495064394,0.401878786932071,0.023546578914243114,-0.35478562910285255,-0.73311783711920453,-1.1114500451348313,-1.4897822531497069,-1.8681144611638578,-2.2464466691772631,-2.6247788771899305,-3.0031110852018661,-3.3814432932130649,-3.9107197538964158,-4.4777340611884338,-5.0447483684796639,-5.611762675770092,-6.1787769830597252,-6.7457912903485724,-7.3128055976366211,-7.879819904923866,-8.4468342122103213,-9.0138485194959976,-9.58086282678085,-10.147877134064931,-10.714891441348193,-11.281905748630686,-11.848920055912364,-12.415934363193264,-12.982948670473343,-13.549962977752653,-14.11697728503116,-14.683991592308875,-15.425861664300832,-16.187161991002938,-16.94846231770423,-17.709762644404698,-18.471062971104381,-19.232363297803229,-19.993663624501259,-20.754963951198466,-21.516264277894908,-22.277564604590502,-23.0388649312853,-23.800165257979288,-24.561465584672447,-25.322765911364804,-26.084066238056337,-26.845366564747064,-27.606666891437015,-28.367967218126083,-29.129267544814425,-29.890567871501851,0,0.0169147763457123,0.045932548236030261,0.093506983186199877,0.16380661897069754,0.25723080360105083,0.37389747369934057,0.513724347026169,0.67640949464413158,0.86134540363268186,0.99866728215728073,1.3176367490643888
DP 512,92.333371430246117,0.0015316320007662766,-12.603598862520879,-12.404235019787574,-12.204871177054061,-12.005507334320328,-11.806143491586365,-11.606779648852198,-11.407415806117781,-11.208051963383165,-11.008688120648324,-10.809324277913262,-10.609960435177987,-10.410596592442479,-10.211232749706763,-10.01186890697082,-9.8125050642346565,-9.6131412214982763,-9.413777378761683,-9.2144135360248463,-9.015049693287807,-8.8156858505505458,-8.61776599034286,-8.4328421093945316,-8.2479182284459771,-8.06299434749718,-7.8780704665481585,-7.6931465855988979,-7.5082227046494143,-7.323298823699691,-7.1383749427497234,-6.9534510617995515,-6.7685271808491239,-6.5836032998984724,-6.3986794189475864,-6.2137555379964642,-6.0288316570451137,-5.8439077760935314,-5.6589838951417137,-5.4740600141896625,-5.289136133237383,-5.10421225228487,-4.9252362426469247,-4.7700519993726243,-4.6148677560980556,-4.45968351282322,-4.3044992695481117,-4.1493150262727392,-3.9941307829970936,-3.83894653972118,-3.6837622964450003,-3.5285780531685487,-3.3733938098918261,-3.2182095666148336,-3.0630253233375773,-2.9078410800600469,-2.7526568367822506,-2.5974725935041829,-2.4422883502258488,-2.2871041069472438,-2.1319198636683714,-1.9767356203892301,-1.8346561517033806,-1.7231549033004245,-1.6116536548971934,-1.500152406493686,-1.3886511580899035,-1.2771499096858445,-1.1656486612815096,-1.0541474128768977,-0.94264616447201022,-0.8311449160668466,-0.71964366766140753,-0.60814241925569223,-0.49664117084969928,-0.38513992244343154,-0.27363867403688719,-0.16213742563006636,-0.050636177222970008,0.060865071184403957,0.17236631959205245,0.28386756799997676,0.37276835368418465,0.42776791121942376,0.48276746875496535,0.5377670262908133,0.59276658382696468,0.64776614136342014,0.70276569890017981,0.75776525643724491,0.81276481397461231,0.86776437151228514,0.922763929050263,0.97776348658854439,1.0327630441271307,1.08776260166602,1.1427621592052146,1.1977617167447134,1.2527612742845149,1.3077608318246241,1.3627603893650371,1.4177599469057509,1.4129485223049558,1.4000239125511749,1.3870993027977156,1.3741746930445773,1.3612500832917631,1.3483254735392705,1.3354008637871,1.3224762540352475,1.30955164428372,1.2966270345325124,1.2837024247816282,1.2707778150310662,1.257853205280824,1.2449285955309053,1.2320039857813079,1.2190793760320326,1.2061547662830785,1.1932301565344476,1.1337257112968364,1.0431673085946498,0.9526089058928241,0.86205050319135379,0.77149210049024264,0.680933697789487,0.5903752950890937,0.49981689238905663,0.40925848968937611,0.31870008699005514,0.22814168429109552,0.13758328159249081,0.047024878894244317,-0.0435335238036414,-0.13409192650117224,-0.22465032919834194,-0.31520873189515641,-0.4057671345916109,-0.49632553728770612,-0.58688393998344268,-0.73726949572884226,-0.91329606777706029,-1.0893226398249245,-1.2653492118724303,-1.4413757839195847,-1.6174023559663762,-1.7934289280128131,-1.969455500058902,-2.1454820721046257,-2.3215086441500015,-2.4975352161950166,-2.6735617882396783,-2.8495883602839815,-3.0256149323279331,-3.2016415043715214,-3.3776680764147593,-3.5536946484576393,-3.7297212205001617,-3.9057477925423338,-4.0817743645841436,-4.3307074131321217,-4.5978679422131963,-4.8650284712938632,-5.132189000374118,-5.3993495294539624,-5.6665100585334018,-5.93367058761243,-6.2008311166910373,-6.4679916457692466,-6.7351521748470482,-7.0023127039244359,-7.2694732330014169,-7.5366337620779706,-7.8037942911541451,-8.0709548202298826,-8.33811534930522,-8.6052758783801426,-8.8724364074546713,-9.13959693652877,-9.4067574656024728,-9.7590971309878665,-10.120902039439319,-10.482706947890341,-10.844511856340928,-11.206316764791099,-11.568121673240825,-11.929926581690136,-12.291731490139007,-12.653536398587468,-13.015341307035492,-13.377146215483089,-13.738951123930256,-14.100756032377005,-14.462560940823302,-14.824365849269206,-15.186170757714653,-15.547975666159694,-15.909780574604284,-16.271585483048465,-16.63339039149221,0,0.011649650293135076,0.027229069384271914,0.050691680227174296,0.085064175449224247,0.13056331058260504,0.18722358131824832,0.2550049241720998,0.33378557827236938,0.42331300788760839,0.48951560534726474,0.64384046251129512
DP 513,195.43486165934982,0.0052837450625876281,-73.4707479052259,-71.98138235235713,-70.492016799486137,-69.002651246613013,-67.513285693737558,-66.023920140860042,-64.534554587980267,-63.045189035098261,-61.555823482214151,-60.066457929327726,-58.57709237643919,-57.087726823548458,-55.598361270655445,-54.1089957177603,-52.619630164862926,-51.130264611963355,-49.640899059061582,-48.1515335061576,-46.662167953251441,-45.17280240034308,-43.6947560966063,-42.318584105375706,-40.942412114142861,-39.566240122907821,-38.190068131670515,-36.813896140431062,-35.437724149189343,-34.061552157945385,-32.685380166699233,-31.309208175450852,-29.933036184200247,-28.556864192947408,-27.180692201692359,-25.80452021043514,-24.428348219175653,-23.052176227913908,-21.676004236649995,-20.299832245383843,-18.923660254115468,-17.547488262844897,-16.217567792831861,-15.072655593767008,-13.927743394699885,-12.782831195630495,-11.637918996558835,-10.493006797484894,-9.348094598408677,-8.20318239933019,-7.0582702002494413,-5.9133580011664018,-4.7684458020810965,-3.6235336029935103,-2.4786214039036585,-1.3337092048115278,-0.18879700571712615,0.95611519337955175,2.1010273924785,3.245939591579714,4.3908517906831994,5.5357639897889657,6.5802052851380317,7.3902113061352512,8.20021732713479,9.0102233481366287,9.8202293691407814,10.630235390147259,11.440241411156038,12.250247432167136,13.06025345318054,13.870259474196255,14.680265495214268,15.490271516234639,16.300277537257283,17.110283558282244,17.920289579309532,18.730295600339108,19.540301621371015,20.350307642405237,21.160313663441773,21.9703196844806,22.610087977441715,22.994495655459595,23.378903333479776,23.763311011502388,24.147718689527352,24.532126367554632,24.916534045584328,25.300941723616365,25.685349401650761,26.069757079687523,26.4541647577267,26.838572435768189,27.222980113812056,27.6073877918583,27.991795469906918,28.376203147957849,28.76061082601117,29.145018504066854,29.529426182124912,29.913833860185317,29.813581982412234,29.696598747850693,29.579615513291543,29.462632278734858,29.345649044180547,29.228665809628623,29.111682575079158,28.994699340532073,28.877716105987396,28.760732871445139,28.643749636905287,28.526766402367823,28.409783167832792,28.292799933300174,28.175816698769946,28.058833464242156,27.941850229716749,27.824866995193766,27.370988401153692,26.69250759341675,26.014026785682375,25.335545977950488,24.65706517022112,23.978584362494296,23.30010355476999,22.621622747048214,21.943141939328953,21.264661131612232,20.586180323898063,19.907699516186391,19.229218708477262,18.550737900770667,17.872257093066562,17.193776285365015,16.515295477665973,15.836814669969478,15.158333862275523,14.479853054584092,13.376757227250142,12.091677800729409,10.806598374211164,9.5215189476954318,8.2364395211821577,6.951360094671422,5.6662806681631714,4.3812012416573705,3.0961218151541137,1.8110423886533107,0.52596296215502769,-0.759116464340775,-2.0441958908340623,-3.3292753173248988,-4.6143547438131911,-5.8994341702990249,-7.1845135967823444,-8.4695930232631635,-9.75467244974152,-11.039751876217359,-12.834601915160214,-14.756900630275387,-16.679199345387897,-18.601498060497708,-20.523796775604836,-22.446095490709276,-24.368394205811057,-26.290692920910104,-28.212991636006496,-30.135290351100231,-32.057589066191213,-33.979887781279572,-35.902186496365182,-37.824485211448192,-39.746783926528437,-41.669082641606025,-43.591381356680934,-45.513680071753186,-47.435978786822709,-49.358277501889546,-51.870305728316062,-54.447865649591378,-57.025425570863931,-59.602985492133691,-62.180545413400786,-64.758105334665146,-67.335665255926685,-69.9132251771855,-72.490785098441677,-75.068345019694988,-77.64590494094557,-80.223464862193538,-82.801024783438621,-85.37858470468106,-87.956144625920615,-90.533704547157569,-93.1112644683918,-95.688824389623122,-98.266384310851976,-100.84394423207776,0,0.056728585466598827,0.15464951992005957,0.31550993060900778,0.55325074151465692,0.869227295219804,1.2638446117821072,1.7368253023163915,2.2871449313811585,2.9127421912048388,3.3772957547792597,4.4562337448012777
DP 514,56.962337111574669,0.0038746536842648714,-21.182949878222136,-20.956549959792223,-20.7301500413623,-20.503750122932352,-20.277350204502369,-20.0509502860724,-19.824550367642374,-19.598150449212334,-19.371750530782279,-19.145350612352207,-18.918950693922092,-18.692550775491974,-18.466150857061841,-18.239750938631676,-18.013351020201494,-17.786951101771294,-17.560551183341055,-17.334151264910808,-17.107751346480548,-16.881351428050245,-16.65658763345343,-16.446549108011332,-16.236510582569192,-16.026472057126981,-15.816433531684719,-15.606395006242401,-15.396356480800012,-15.186317955357568,-14.976279429915042,-14.766240904472486,-14.556202379029855,-14.34616385358718,-14.136125328144425,-13.926086802701604,-13.716048277258752,-13.506009751815823,-13.295971226372824,-13.08593270092978,-12.875894175486666,-12.665855650043502,-12.462545146463468,-12.286147048311836,-12.109748950160018,-11.933350852008004,-11.756952753855819,-11.580554655703459,-11.404156557550921,-11.227758459398208,-11.051360361245303,-10.874962263092224,-10.698564164938961,-10.522166066785529,-10.345767968631913,-10.169369870478116,-9.9929717723241431,-9.8165736741699856,-9.6401755760156576,-9.4637774778611412,-9.287379379706449,-9.1109812815515845,-8.9494210262691869,-8.8224828718589272,-8.69554471744847,-8.56860656303784,-8.441668408627006,-8.3147302542159913,-8.1877920998047813,-8.0608539453933812,-7.93391579098179,-7.8069776365700116,-7.6800394821580431,-7.553101327745888,-7.4261631733335358,-7.299225018921,-7.1722868645082718,-7.0453487100953538,-6.9184105556822493,-6.7914724012689494,-6.6645342468554647,-6.5375960924417917,-6.4362459132243357,-6.373278301461335,-6.3103106896980634,-6.2473430779345094,-6.1843754661706818,-6.12140785440657,-6.0584402426421864,-5.9954726308775221,-5.9325050191125834,-5.8695374073473605,-5.8065697955818694,-5.7436021838161,-5.680634572050046,-5.6176669602837235,-5.5546993485171168,-5.4917317367502347,-5.4287641249830783,-5.365796513215642,-5.3028289014479242,-5.2398612896799381,-5.2433988308570294,-5.2574075151991861,-5.2714161995410151,-5.2854248838825182,-5.2994335682236979,-5.3134422525645535,-5.3274509369050742,-5.3414596212452841,-5.3554683055851608,-5.3694769899247152,-5.3834856742639436,-5.3974943586028417,-5.4115030429414235,-5.4255117272796713,-5.4395204116175968,-5.4535290959552,-5.4675377802924769,-5.4815464646294236,-5.5483675753844,-5.6503978024097226,-5.7524280294346175,-5.8544582564590932,-5.956488483483148,-6.0585187105067826,-6.1605489375299909,-6.2625791645527764,-6.3646093915751409,-6.4666396185970862,-6.5686698456186008,-6.6707000726397032,-6.7727302996603758,-6.8747605266806238,-6.9767907537004605,-7.0788209807198674,-7.1808512077388462,-7.2828814347574058,-7.3849116617755524,-7.4869418887932682,-7.6568727253409952,-7.855904739985637,-8.0549367546298587,-8.2539687692736585,-8.45300078391704,-8.65203279855999,-8.8510648132025178,-9.0500968278446248,-9.249128842486309,-9.4481608571275739,-9.647192871768409,-9.8462248864088338,-10.045256901048827,-10.244288915688397,-10.443320930327543,-10.642352944966266,-10.841384959604564,-11.040416974242456,-11.239448988879921,-11.438481003516948,-11.720275939870346,-12.022762584515451,-12.325249229159999,-12.627735873803974,-12.930222518447419,-13.232709163090288,-13.5351958077326,-13.837682452374377,-14.140169097015566,-14.442655741656226,-14.745142386296314,-15.047629030935859,-15.350115675574832,-15.652602320213257,-15.955088964851116,-16.257575609488423,-16.560062254125175,-16.862548898761375,-17.165035543397032,-17.467522188032113,-17.866749743097468,-18.276727304224131,-18.686704865350162,-19.09668242647561,-19.506659987600447,-19.916637548724683,-20.326615109848309,-20.736592670971334,-21.146570232093755,-21.556547793215607,-21.966525354336824,-22.37650291545744,-22.786480476577445,-23.196458037696875,-23.606435598815665,-24.016413159933879,-24.426390721051511,-24.836368282168472,-25.24634584328491,-25.656323404400673,0,0.026144820881183004,0.050943942932341807,0.081338950966573981,0.12358657002384593,0.17836770942320124,0.24587507697844868,0.326188817392147,0.41934229642246079,0.5252109584498289,0.60151019730583577,0.77982509530265065
DP 515,195.78288755051659,0.0045407139057359863,-63.20905812716434,-61.927227842477414,-60.6453975577887,-59.363567273097971,-58.081736988405375,-56.799906703710896,-55.518076419014548,-54.236246134316332,-52.954415849616147,-51.67258556491408,-50.390755280210151,-49.10892499550436,-47.827094710796629,-46.545264426087023,-45.263434141375505,-43.98160385666209,-42.699773571946814,-41.417943287229626,-40.136113002510569,-38.854282717789573,-37.582197372411372,-36.397817402267,-35.21343743212072,-34.029057461972506,-32.844677491822395,-31.660297521670383,-30.475917551516428,-29.291537581360576,-28.107157611202854,-26.922777641043183,-25.738397670881589,-24.554017700718067,-23.369637730552661,-22.185257760385358,-21.000877790216148,-19.816497820044983,-18.632117849871928,-17.44773787969697,-16.263357909520106,-15.078977939341316,-13.934414282544845,-12.949117761057801,-11.963821239568782,-10.978524718077818,-9.9932281965849015,-9.00793167509002,-8.0226351535931837,-7.0373386320944018,-6.0520421105936517,-5.0667455890909512,-4.0814490675862922,-3.0961525460796726,-2.1108560245711003,-1.1255595030605712,-0.14026298154808342,0.84503353996635766,1.830330061482756,2.8156265830011082,3.8009231045214076,4.7862196260436711,5.6850321764525127,6.3820460693703094,7.07905996229011,7.7760738552118953,8.4730877481356721,9.17010164106143,9.8671155339891889,10.564129426918925,11.261143319850664,11.958157212784378,12.655171105720099,13.352184998657792,14.049198891597495,14.746212784539166,15.443226677482834,16.140240570428503,16.837254463376158,17.534268356325814,18.231282249277427,18.928296142231055,19.47878807237041,19.809493595880383,20.140199119392388,20.470904642906486,20.801610166422584,21.132315689940739,21.463021213460888,21.793726736983089,22.124432260507323,22.455137784033592,22.785843307561887,23.116548831092235,23.447254354624622,23.777959878159027,24.108665401695468,24.439370925233934,24.770076448774468,25.100781972317023,25.431487495861589,25.762193019408215,25.675583799197334,25.574798190703504,25.474012582211735,25.373226973722034,25.272441365234418,25.171655756748869,25.070870148265417,24.970084539783993,24.869298931304662,24.7685133228274,24.667727714352232,24.566942105879132,24.466156497408114,24.365370888939147,24.26458528047225,24.163799672007421,24.063014063544703,23.962228455084038,23.571554779113189,22.987617824656059,22.403680870201093,21.819743915748298,21.235806961297683,20.651870006849226,20.067933052402957,19.483996097958858,18.900059143516952,18.316122189077177,17.732185234639633,17.148248280204221,16.564311325771,15.980374371339954,15.396437416911072,14.81250046248438,14.228563508059841,13.644626553637499,13.060689599217323,12.476752644799333,11.527490426528836,10.421655305006581,9.315820183486446,8.20998506196846,7.1041499404526123,5.9983148189389448,4.8924796974274134,3.7866445759179874,2.6808094544107535,1.5749743329056249,0.46913921140266851,-0.636695910098155,-1.7425310315968161,-2.8483661530933646,-3.9542012745877253,-5.0600363960799744,-6.1658715175700571,-7.27170663905799,-8.3775417605437958,-9.4833768820274464,-11.027758238639363,-12.681781335556739,-14.335804432471805,-15.989827529384563,-17.643850626295,-19.297873723203125,-20.951896820108967,-22.605919917012464,-24.259943013913645,-25.913966110812595,-27.56798920770914,-29.222012304603432,-30.876035401495365,-32.530058498385053,-34.184081595272382,-35.838104692157387,-37.492127789040119,-39.146150885920534,-40.800173982798661,-42.454197079674451,-44.615521311402922,-46.833217663782072,-49.050914016158821,-51.268610368533196,-53.486306720905269,-55.704003073274926,-57.921699425642267,-60.139395778007177,-62.357092130369836,-64.574788482730028,-66.792484835087961,-69.01018118744355,-71.22787753979668,-73.445573892147507,-75.663270244495948,-77.8809665968421,-80.098662949185837,-82.316359301527157,-84.534055653866318,-86.751752006202778,0,0.0487883398799149,0.13302578281940239,0.27141948584694753,0.47595760598170117,0.74780636129510647,1.0873144399099182,1.4942431012676931,1.9677111376213083,2.5059446336270654,2.9056247504136268,3.8338878651179691
DP 516,275.67314105889284,0.001723056284454688,-29.802775846001058,-29.15636585857262,-28.50995587114334,-27.863545883713108,-27.217135896281988,-26.570725908849969,-25.924315921417019,-25.277905933983181,-24.631495946548441,-23.985085959112791,-23.338675971676203,-22.692265984238762,-22.045855996800373,-21.399446009361096,-20.753036021920924,-20.106626034479824,-19.460216047037832,-18.813806059594913,-18.167396072151103,-17.520986084706408,-16.879914032981887,-16.286883907311175,-15.693853781639531,-15.100823655966998,-14.507793530293556,-13.914763404619197,-13.321733278943929,-12.728703153267753,-12.135673027590663,-11.542642901912659,-10.949612776233755,-10.356582650553934,-9.7635525248732016,-9.1705223991915634,-8.5774922735090176,-7.9844621478255533,-7.3914320221411787,-6.7984018964559008,-6.2053717707697036,-5.6123416450826076,-5.0408001314016078,-4.5552140813294644,-4.0696280312564044,-3.5840419811824269,-3.0984559311075319,-2.6128698810317212,-2.1272838309549913,-1.6416977808773432,-1.1561117307987803,-0.67052568071929952,-0.18493963063889948,0.30064641944242149,0.78623246952465664,1.2718185196078098,1.7574045696918796,2.2429906197768696,2.7285766698627749,3.2141627199495955,3.6997487700373335,4.1853348201259912,4.6253583367254967,4.9590678396226435,5.2927773425207167,5.6264868454197261,5.96019634831966,6.2939058512205364,6.6276153541223382,6.961324857025077,7.2950343599287324,7.6287438628333328,7.962453365738857,8.29616286864532,8.6298723715527146,8.9635818744610347,9.2972913773703,9.6310008802804834,9.9647103831916066,10.298419886103648,10.63212938901664,10.965838891930556,11.224757751120954,11.371488877375272,11.518220003630525,11.664951129886717,11.811682256143861,11.958413382401941,12.105144508660972,12.251875634920941,12.398606761181822,12.545337887443694,12.692069013706483,12.838800139970223,12.985531266234899,13.132262392500524,13.278993518767088,13.425724645034586,13.57245577130305,13.719186897572436,13.865918023842774,14.012649150114052,13.922202644834865,13.856677416214836,13.791152187595761,13.72562695897763,13.660101730360479,13.594576501744251,13.529051273128987,13.463526044514694,13.398000815901362,13.332475587288961,13.266950358677512,13.201425130067037,13.135899901457504,13.070374672848931,13.004849444241309,12.939324215634649,12.873798987028932,12.808273758424187,12.605619360486015,12.311543356032244,12.017467351579445,11.72339134712764,11.429315342676842,11.135239338227015,10.841163333778205,10.547087329330367,10.253011324883513,9.9589353204376554,9.6648593159928122,9.37078331154895,9.0767073071060747,8.782631302664198,8.4885552982232984,8.1944792937834148,7.9004032893445,7.6063272849065937,7.3122512804696678,7.0181752760337535,6.5576376080023309,6.0257569792503247,5.4938763504992947,4.9619957217492487,4.4301150930001674,3.898234464252083,3.3663538355049707,2.834473206758815,2.3025925780136607,1.7707119492694683,1.2388313205262627,0.70695069178403147,0.1750700630427853,-0.35681056569750058,-0.88869119443678812,-1.4205718231751121,-1.9524524519124502,-2.484333080648808,-3.0162137093841963,-3.5480943381186041,-4.2736518838004063,-5.0476309470558,-5.82161001031016,-6.5955890735634748,-7.3695681368157562,-8.1435472000669922,-8.9175262633172,-9.6915053265663431,-10.465484389814453,-11.239463453061552,-12.013442516307567,-12.78742157955257,-13.561400642796514,-14.335379706039456,-15.109358769281306,-15.883337832522123,-16.65731689576193,-17.431295959000689,-18.205275022238393,-18.97925408547507,-19.972645437269737,-20.99041823659736,-22.008191035923925,-23.025963835249371,-24.043736634573808,-25.061509433897182,-26.07928223321948,-27.097055032540705,-28.114827831860925,-29.132600631180061,-30.150373430498139,-31.168146229815182,-32.185919029131142,-33.203691828446047,-34.221464627759858,-35.239237427072666,-36.257010226384409,-37.274783025695037,-38.2925558250047,-39.310328624313208,0,0.021036118173146885,0.058717952882575294,0.12141548936369211,0.21418919231162029,0.33758187027555669,0.491766614585344,0.67663744512096036,0.8917863335121059,1.136391583875396,1.3180774240829416,1.7397256995016785
DP 517,281.98661380059974,0.001950721272966374,-34.250043067431328,-33.504031302095058,-32.7580195367577,-32.012007771419341,-31.265996006079909,-30.519984240739458,-29.773972475397962,-29.027960710055442,-28.281948944711875,-27.535937179367263,-26.78992541402161,-26.043913648674955,-25.297901883327221,-24.55189011797847,-23.805878352628685,-23.059866587277867,-22.313854821925975,-21.567843056573079,-20.821831291219127,-20.075819525864151,-19.336013261720609,-18.652057095058957,-17.968100928396264,-17.284144761732541,-16.600188595067774,-15.916232428401964,-15.232276261735096,-14.548320095067194,-13.864363928398255,-13.180407761728263,-12.496451595057234,-11.81249542838516,-11.128539261712055,-10.444583095037896,-9.7606269283627078,-9.0766707616864633,-8.39271459500917,-7.7087584283308477,-7.0248022616514767,-6.3408460949710639,-5.6818390027823567,-5.1226293876915792,-4.5634197725997447,-4.0042101575068614,-3.4450005424129349,-2.8857909273179549,-2.3265813122219234,-1.7673716971248423,-1.2081620820267132,-0.64895246692753339,-0.089742851827300935,0.46946676327398545,1.0286763783763175,1.5878859934797018,2.1470956085841375,2.7063052236896206,3.2655148387961543,3.8247244539037335,4.3839340690123674,4.943143684122048,5.4495658942802692,5.83281582968652,6.2160657650938331,6.5993157005022178,6.9825656359116648,7.3658155713221749,7.7490655067337606,8.1323154421464068,8.5155653775601188,8.8988153129748966,9.28206524839074,9.665315183807655,10.048565119225632,10.431815054644682,10.815064990064791,11.19831492548597,11.581564860908211,11.964814796331538,12.348064731755908,12.731314667181341,13.028160657730149,13.195398689183419,13.362636720637758,13.529874752093189,13.697112783549668,13.864350815007256,14.031588846465921,14.198826877925644,14.366064909386452,14.533302940848341,14.700540972311337,14.86777900377535,15.035017035240488,15.202255066706693,15.369493098173979,15.536731129642344,15.703969161111781,15.8712071925823,16.038445224053895,16.205683255526569,16.096445875941729,16.01930285582991,15.942159835719188,15.865016815609543,15.787873795501001,15.71073077539355,15.633587755287179,15.55644473518192,15.479301715077725,15.402158694974647,15.325015674872661,15.247872654771767,15.17072963467195,15.09358661457323,15.016443594475621,14.939300574379084,14.862157554283646,14.785014534189306,14.55057133441402,14.21125887012319,13.871946405833492,13.532633941544923,13.193321477257488,12.854009012971172,12.514696548686008,12.175384084401969,11.836071620119066,11.496759155837305,11.157446691556675,10.818134227277175,10.478821762998807,10.139509298721585,9.80019683444548,9.4608843701705236,9.1215719058966886,8.7822594416240012,8.44294697735244,8.1036345130820191,7.5740688529906981,6.9629635399652283,6.351858226940875,5.7407529139176461,5.1296476008955123,4.5185422878745261,3.9074369748546487,3.2963316618358696,2.68522634881823,2.0741210358016891,1.4630157227862817,0.85191040977198262,0.24080509675881098,-0.37030021625326287,-0.98140552926419489,-1.5925108422740268,-2.2036161552827322,-2.8147214682903154,-3.4258267812967911,-4.0369320943021458,-4.86870261680225,-5.7556420488855933,-6.6425814809677544,-7.5295209130487226,-8.416460345128506,-9.3033997772070975,-10.190339209284513,-11.077278641360717,-11.96421807343574,-12.851157505509597,-13.738096937582236,-14.625036369653708,-15.511975801723954,-16.398915233793065,-17.285854665860953,-18.17279409792765,-19.059733529993157,-19.946672962057512,-20.833612394120653,-21.720551826182596,-22.856946287772949,-24.021060594747688,-25.185174901721279,-26.349289208693605,-27.513403515664741,-28.677517822634673,-29.841632129603372,-31.00574643657087,-32.169860743537178,-33.333975050502247,-34.498089357466149,-35.662203664428823,-36.826317971390282,-37.990432278350553,-39.154546585309632,-40.318660892267467,-41.482775199224157,-42.6468895061795,-43.811003813133745,-44.975118120086748,0,0.023981721643902439,0.067011205652630024,0.13865116315877027,0.24466380010343061,0.38567019500506056,0.56186903246813469,0.77313920459262475,1.0190140124002569,1.2985537904207756,1.5061896404262172,1.988043083693052
DP 518,56.513271526089348,0.0013874715425637586,-7.5347350494660965,-7.4549504999663982,-7.3751659504666947,-7.2953814009669866,-7.2155968514672741,-7.1358123019675519,-7.05602775246783,-6.9762432029680941,-6.8964586534683612,-6.81667410396862,-6.7368895544688705,-6.6571050049691207,-6.5773204554693692,-6.4975359059696016,-6.4177513564698341,-6.337966806970063,-6.25818225747029,-6.1783977079705084,-6.0986131584707195,-6.018828608970928,-5.9396205214074591,-5.8656006457605976,-5.7915807701137165,-5.7175608944668141,-5.6435410188198958,-5.5695211431729534,-5.4955012675259951,-5.4214813918790163,-5.3474615162320189,-5.2734416405850046,-5.199421764937969,-5.1254018892909139,-5.0513820136438383,-4.9773621379967476,-4.9033422623496312,-4.8293223867025015,-4.7553025110553531,-4.6812826354081842,-4.6072627597609968,-4.5332428841137862,-4.4615939534794808,-4.3994289149509767,-4.3372638764224067,-4.2750988378937809,-4.2129337993650893,-4.1507687608363346,-4.0886037223075187,-4.0264386837786432,-3.9642736452497025,-3.902108606720704,-3.8399435681916412,-3.7777785296625161,-3.7156134911333316,-3.6534484526040814,-3.591283414074772,-3.5291183755453961,-3.4669533370159664,-3.404788298486471,-3.3426232599569121,-3.2804582214272937,-3.2235219700989641,-3.1787863869862045,-3.1340508038733805,-3.0893152207604895,-3.0445796376475349,-2.9998440545345146,-2.9551084714214291,-2.9103728883082778,-2.8656373051950585,-2.8209017220817754,-2.7761661389684273,-2.7314305558550118,-2.6866949727415315,-2.6419593896279854,-2.5972238065143749,-2.5524882234006965,-2.5077526402869523,-2.4630170571731447,-2.4182814740592713,-2.3735458909453326,-2.33782660538273,-2.3156319792079709,-2.2934373530331187,-2.2712427268581656,-2.2490481006831176,-2.2268534745079727,-2.204658848332731,-2.1824642221573907,-2.160269595981954,-2.13807496980642,-2.1158803436307894,-2.0936857174550605,-2.0714910912792366,-2.049296465103315,-2.0271018389272943,-2.0049072127511791,-1.9827125865749649,-1.960517960398654,-1.9383233342222468,-1.9161287080457423,-1.9173595729948949,-1.9222908954893612,-1.9272222179837113,-1.9321535404779493,-1.93708486297207,-1.9420161854660796,-1.9469475079599716,-1.9518788304537538,-1.9568101529474189,-1.9617414754409699,-1.9666727979344067,-1.9716041204277297,-1.9765354429209387,-1.9814667654140339,-1.9863980879070133,-1.9913294103998787,-1.9962607328926294,-2.0011920553852662,-2.0247331437493727,-2.0606810358673147,-2.096628927985106,-2.1325768201027517,-2.1685247122202473,-2.2044726043375933,-2.24042049645479,-2.276368388571838,-2.31231628068874,-2.3482641728054885,-2.38421206492209,-2.4201599570385408,-2.4561078491548467,-2.4920557412710003,-2.5280036333870055,-2.5639515255028615,-2.5998994176185684,-2.6358473097341286,-2.6717952018495366,-2.7077430939647962,-2.7676188606789709,-2.8377497538935321,-2.9078806471079472,-2.9780115403222092,-3.0481424335363272,-3.1182733267502925,-3.1884042199641054,-3.2585351131777758,-3.3286660063912921,-3.3987968996046649,-3.4689277928178819,-3.5390586860309559,-3.6091895792438757,-3.6793204724566491,-3.749451365669271,-3.8195822588817476,-3.8897131520940684,-3.9598440453062449,-4.029974938518273,-4.10010583173015,-4.1993996790086747,-4.3059846093707446,-4.4125695397326279,-4.5191544700943043,-4.6257394004557888,-4.7323243308170717,-4.8389092611781637,-4.9454941915390531,-5.0520791218997489,-5.1586640522602467,-5.2652489826205446,-5.3718339129806507,-5.4784188433405516,-5.5850037737002651,-5.6915887040597744,-5.7981736344190935,-5.9047585647782093,-6.01134349513713,-6.117928425495851,-6.2245133558543824,-6.3651887434752839,-6.5096523177131154,-6.654115891950747,-6.7985794661881522,-6.9430430404253487,-7.0875066146623276,-7.2319701888990986,-7.3764337631356485,-7.520897337371995,-7.6653609116081185,-7.8098244858440307,-7.954288060079735,-8.09875163431522,-8.2432152085504917,-8.3876787827855459,-8.5321423570203887,-8.676605931255029,-8.8210695054894366,-8.9655330797236541,-9.1099966539576354,0,0.0093547096250328511,0.018178137402803933,0.028940400385272017,0.043870911255904442,0.063214148960111044,0.087040705869317309,0.11538111417830231,0.14824981858149403,0.18560510628244284,0.21249928829286233,0.27534769142650828
DP 519,200.52323952312148,0.0033142155311890269,-46.829638240032132,-45.8751713092319,-44.920704378430251,-43.966237447627215,-43.011770516822807,-42.05730358601695,-41.102836655209671,-40.148369724401007,-39.193902793590944,-38.23943586277943,-37.28496893196651,-36.330502001152254,-35.376035070336528,-34.421568139519415,-33.467101208700868,-32.512634277880927,-31.55816734705957,-30.603700416236791,-29.64923348541263,-28.694766554587048,-27.747585488708321,-26.865977896053828,-25.984370303397917,-25.102762710740571,-24.221155118081803,-23.339547525421619,-22.457939932760009,-21.576332340096954,-20.694724747432517,-19.813117154766662,-18.931509562099354,-18.049901969430625,-17.168294376760485,-16.286686784088911,-15.405079191415936,-14.523471598741526,-13.641864006065688,-12.760256413388431,-11.878648820709762,-10.997041228029664,-10.145180993255,-9.4123115960078785,-8.6794421987592933,-7.9465728015092534,-7.213703404257771,-6.4808340070048356,-5.7479646097504471,-5.0150952124945949,-4.2822258152372985,-3.5493564179785442,-2.8164870207183377,-2.0836176234566728,-1.3507482261935562,-0.61787882892898738,0.1149905683370363,0.84785996560451293,1.5807293628734429,2.3135987601438215,3.0464681574156538,3.7793375546889436,4.4476706897742462,4.9654171797118085,5.4831636696508541,6.0009101595913741,6.5186566495333746,7.0364031394768478,7.5541496294218113,8.07189611936825,8.5896426093161633,9.1073890992655482,9.625135589216411,10.142882079168754,10.660628569122588,11.17837505907789,11.696121549034672,12.213868038992928,12.731614528952685,13.249361018913884,13.76710750887659,14.284853998840752,14.693430777357305,14.93825040895214,15.183070040548467,15.427889672146309,15.672709303745673,15.917528935346533,16.162348566948889,16.407168198552796,16.651987830158188,16.896807461765107,17.141627093373515,17.386446724983436,17.631266356594875,17.876085988207816,18.120905619822278,18.365725251438235,18.610544883055709,18.855364514674712,19.100184146295202,19.34500377791721,19.27715322279748,19.20104846774279,19.124943712689635,19.048838957638026,18.972734202587944,18.896629447539386,18.820524692492405,18.744419937446938,18.668315182402992,18.592210427360627,18.516105672319767,18.440000917280443,18.363896162242682,18.287791407206441,18.211686652171739,18.135581897138564,18.059477142106942,17.983372387076862,17.692050435765754,17.257246963131092,16.822443490498053,16.38764001786663,15.95283654523679,15.518033072608587,15.083229599981994,14.648426127357011,14.213622654733621,13.778819182111857,13.344015709491723,12.909212236873186,12.474408764256255,12.039605291640937,11.604801819027232,11.169998346415143,10.735194873804652,10.300391401195784,9.86558792858853,9.4307844559828968,8.72522076396647,7.9036133218102993,7.0820058796557142,6.2603984375027251,5.4387909953513018,4.6171835532015084,3.795576111053292,2.9739686689066405,2.1523612267616095,1.3307537846181443,0.50914634247628532,-0.3124610996639931,-1.134068541802667,-1.9556759839397782,-2.7772834260752668,-3.598890868209188,-4.4204983103415083,-5.2421057524722325,-6.06371319460138,-6.8853206367289346,-8.0315100479649111,-9.25884878648769,-10.486187525008763,-11.713526263528127,-12.940865002045779,-14.168203740561722,-15.395542479075971,-16.622881217588461,-17.85021995609927,-19.07755869460841,-20.304897433115777,-21.532236171621467,-22.759574910125412,-23.986913648627684,-25.214252387128241,-26.441591125627056,-27.668929864124188,-28.896268602619607,-30.123607341113321,-31.350946079605343,-32.953412405007128,-34.5975635131462,-36.2417146212835,-37.885865729419017,-39.530016837552822,-41.174167945684836,-42.818319053815195,-44.462470161943642,-46.106621270070477,-47.750772378195542,-49.3949234863188,-51.039074594440486,-52.68322570256025,-54.327376810678366,-55.971527918794663,-57.615679026909255,-59.259830135022135,-60.903981243133224,-62.5481323512426,-64.192283459350122,0,0.035974610846835307,0.098304867051195066,0.20082375650416531,0.35235605769241973,0.55376760081420018,0.80531900067441353,1.1068336870384485,1.4576575730211498,1.8564739381830486,2.1526344506312225,2.8404271335018594
DP 520,195.67857837090193,0.0029122436404429813,-40.526421587893843,-39.704671376936531,-38.88292116597804,-38.061170955018333,-37.239420744057405,-36.417670533095212,-35.595920322131889,-34.774170111167322,-33.952419900201491,-33.130669689234495,-32.30891947826629,-31.487169267296839,-30.665419056326208,-29.843668845354344,-29.021918634381272,-28.200168423406989,-27.378418212431473,-26.556668001454742,-25.734917790476818,-24.913167579497689,-24.09766383512796,-23.338378880695764,-22.57909392626232,-21.819808971827651,-21.060524017391774,-20.301239062954664,-19.541954108516325,-18.782669154076775,-18.023384199635966,-17.264099245193972,-16.50481429075073,-15.745529336306257,-14.986244381860574,-14.226959427413671,-13.467674472965523,-12.708389518516151,-11.94910456406557,-11.189819609613746,-10.430534655160708,-9.6712497007064417,-8.9374884977561386,-8.3058235071133986,-7.6741585164694124,-7.0424935258241623,-6.41082853517766,-5.7791635445299105,-5.1474985538808991,-4.5158335632306361,-3.8841685725791213,-3.2525035819263532,-2.6208385912723258,-1.9891736006170431,-1.3575086099605083,-0.72584361930271923,-0.0941786286436747,0.53748636201662392,1.1691513526781756,1.8008163433409761,2.4324813340050317,3.0641463246703435,3.6403709678947997,4.087233053637596,4.5340951393816757,4.9809572251270282,5.4278193108736525,5.8746813966215594,6.3215434823707373,6.7684055681211914,7.2152676538729192,7.6621297396259278,8.1089918253802029,8.5558539111357579,9.0027159968925972,9.449578082650703,9.8964401684100913,10.343302254170743,10.790164339932675,11.237026425695896,11.683888511460383,12.130750597226141,12.483682327032179,12.695716303264069,12.907750279497272,13.119784255731778,13.331818231967572,13.543852208204678,13.755886184443103,13.967920160682819,14.17995413692385,14.391988113166173,14.604022089409805,14.816056065654745,15.028090041900986,15.24012401814853,15.452157994397385,15.664191970647545,15.876225946899009,16.088259923151753,16.30029389940584,16.51232787566121,16.456869571805644,16.392278932075197,16.327688292346082,16.263097652618281,16.198507012891827,16.133916373166677,16.069325733442877,16.004735093720406,15.94014445399926,15.875553814279447,15.810963174560962,15.746372534843797,15.681781895127974,15.617191255413468,15.5526006157003,15.488009975988456,15.423419336277938,15.358828696568748,15.108384707865506,14.734035558619611,14.359686409375074,13.985337260131937,13.610988110890212,13.236638961649861,12.862289812410912,12.487940663173358,12.113591513937195,11.73924236470244,11.364893215469065,10.990544066237094,10.61619491700651,10.241845767777326,9.8674966185495219,9.4931474693231319,9.1187983200981186,8.74444917087451,8.3701000216523,7.99575087243148,7.3871774309461289,6.6782189871611335,5.9692605433775068,5.2603020995952647,4.5513436558143736,3.8423852120348925,3.1334267682567787,2.4244683244800136,1.7155098807046556,1.0065514369306476,0.29759299315803261,-0.41136545061321556,-1.1203238943830751,-1.8292823381515837,-2.5382407819186876,-3.2471992256844393,-3.9561576694488,-4.6651161132117833,-5.3740745569734019,-6.08303300073364,-7.0731697991642237,-8.1336045084485118,-9.1940392177313353,-10.254473927012667,-11.314908636292531,-12.375343345570899,-13.435778054847816,-14.496212764123207,-15.556647473397138,-16.617082182669606,-17.677516891940563,-18.73795160121006,-19.79838631047804,-20.858821019744596,-21.919255729009606,-22.979690438273163,-24.04012514753525,-25.100559856795872,-26.160994566054953,-27.221429275312605,-28.607130793407919,-30.028976484129114,-31.450822174848859,-32.872667865566982,-34.29451355628369,-35.716359246998856,-37.1382049377125,-38.5600506284246,-39.981896319135281,-41.403742009844379,-42.825587700551985,-44.24743339125812,-45.669279081962628,-47.091124772665687,-48.512970463367239,-49.934816154067327,-51.356661844765881,-52.778507535462886,-54.2003532261584,-55.622198916852319,0,0.031283854529401647,0.085293938967969468,0.17402481338626918,0.30516375013797353,0.47945843823356366,0.69713237905227043,0.95803264428352886,1.2615940015789582,1.6066793448161636,1.8629319417827834,2.4580829015815162
DP 521,59.256725557414072,0.0026978335316538557,-15.253035386476773,-15.082567114217087,-14.912098841957333,-14.741630569697559,-14.571162297437747,-14.400694025177891,-14.230225752918006,-14.059757480658055,-13.889289208398099,-13.718820936138075,-13.548352663878033,-13.377884391617949,-13.207416119357804,-13.036947847097647,-12.866479574837429,-12.696011302577197,-12.525543030316911,-12.355074758056581,-12.184606485796218,-12.014138213535826,-11.844901765071841,-11.686751847213243,-11.528601929354577,-11.370452011495859,-11.212302093637058,-11.054152175778198,-10.896002257919276,-10.737852340060279,-10.579702422201223,-10.421552504342108,-10.263402586482906,-10.105252668623656,-9.9471027507643317,-9.7889528329049362,-9.6308029150454981,-9.472652997185973,-9.31450307932639,-9.1563531614667379,-8.9982032436070156,-8.8400533257472453,-8.68697129820832,-8.5541610714685579,-8.4213508447286376,-8.288540617988577,-8.1557303912483672,-8.0229201645080153,-7.89010993776751,-7.7572997110268549,-7.62448948428606,-7.4916792575451048,-7.3588690308040166,-7.2260588040627765,-7.0932485773213783,-6.9604383505798415,-6.82762812383816,-6.6948178970963177,-6.5620076703543369,-6.4291974436122192,-6.2963872168699409,-6.1635769901275186,-6.0419420939854991,-5.9463833213509494,-5.8508245487162327,-5.7552657760813686,-5.65970700344635,-5.5641482308111678,-5.46858945817583,-5.3730306855403454,-5.2774719129047014,-5.1819131402689,-5.0863543676329446,-4.99079559499684,-4.8952368223605678,-4.799678049724152,-4.7041192770875755,-4.6085605044508426,-4.5130017318139579,-4.4174429591769133,-4.3218841865397168,-4.2263254139023667,-4.1500398158605432,-4.1026644351494008,-4.0552890544380444,-4.0079136737264678,-3.96053829301468,-3.9131629123026723,-3.8657875315904509,-3.818412150878014,-3.7710367701653649,-3.7236613894524977,-3.6762860087394116,-3.6289106280261145,-3.581535247312599,-3.5341598665988707,-3.4867844858849226,-3.4394091051707623,-3.3920337244563856,-3.3446583437417918,-3.2972829630269831,-3.2499075823119625,-3.2527354808517939,-3.2633418260206808,-3.27394817118932,-3.2845545163577112,-3.295160861525853,-3.3057672066937491,-3.31637355186139,-3.32697989702879,-3.3375862421959352,-3.3481925873628335,-3.3587989325294845,-3.36940527769588,-3.3800116228620363,-3.3906179680279358,-3.4012243131935906,-3.4118306583589977,-3.4224370035241551,-3.4330433486890612,-3.4834289901323356,-3.5603347890993597,-3.6372405880660592,-3.7141463870324514,-3.7910521859985247,-3.8679579849642827,-3.9448637839297254,-4.0217695828948505,-4.0986753818596595,-4.1755811808241523,-4.2524869797883262,-4.3293927787521866,-4.4062985777157291,-4.4832043766789536,-4.5601101756418672,-4.6370159746044592,-4.7139217735667431,-4.7908275725287037,-4.8677333714903455,-4.9446391704516754,-5.0726873615910471,-5.2226544113883389,-5.3726214611853234,-5.5225885109819828,-5.6725555607783358,-5.82252261057437,-5.9724896603700834,-6.1224567101654879,-6.2724237599605708,-6.4223908097553375,-6.5723578595497907,-6.722324909343925,-6.8722919591377414,-7.0222590089312487,-7.1722260587244291,-7.322193108517304,-7.4721601583098582,-7.6221272081020928,-7.7720942578940226,-7.9220613076856212,-8.13436609228805,-8.3622560471275982,-8.5901460019667439,-8.8180359568054758,-9.0459259116437938,-9.27381586648172,-9.5017058213192254,-9.7295957761563177,-9.9574857309930032,-10.18537568582928,-10.413265640665148,-10.641155595500608,-10.869045550335647,-11.096935505170295,-11.324825460004515,-11.552715414838344,-11.780605369671749,-12.008495324504752,-12.236385279337338,-12.464275234169527,-12.765032253642858,-13.073886378912247,-13.382740504181216,-13.691594629449714,-14.000448754717784,-14.309302879985413,-14.61815700525259,-14.927011130519318,-15.235865255785633,-15.54471938105149,-15.853573506316906,-16.162427631581885,-16.47128175684642,-16.780135882110518,-17.088990007374164,-17.397844132637374,-17.706698257900143,-18.015552383162461,-18.324406508424357,-18.633260633685772,0,0.018285939895436473,0.036132613778205411,0.05852919702679004,0.089935469267797052,0.13081709830704225,0.18129319504659278,0.24140249757813512,0.31114471472892979,0.39040513497129486,0.44779240811263887,0.58193925012006209
DP 522,292.15533861490525,0.0031650004399123208,-56.901736353402136,-55.654163857827889,-54.406591362251874,-53.159018866674174,-51.911446371094776,-50.663873875513637,-49.416301379930808,-48.16872888434623,-46.92115638876,-45.673583893171951,-44.426011397582236,-43.178438901990823,-41.930866406397691,-40.683293910802817,-39.435721415206267,-38.188148919608004,-36.940576424008007,-35.693003928406263,-34.445431432802842,-33.197858937197672,-31.960787526127085,-30.818226868488559,-29.675666210848345,-28.53310555320639,-27.390544895562762,-26.24798423791734,-25.105423580270287,-23.962862922621444,-22.820302264970884,-21.677741607318616,-20.535180949664639,-19.392620292008914,-18.250059634351469,-17.107498976692309,-15.964938319031447,-14.822377661368838,-13.679817003704521,-12.537256346038479,-11.394695688370703,-10.252135030701222,-9.1517061108314,-8.21980613336998,-7.2879061559068266,-6.3560061784419313,-5.4241062009753165,-4.4922062235069626,-3.5603062460368795,-2.6284062685650595,-1.696506291091515,-0.76460631361623643,0.16729366386077868,1.0991936413395316,2.03109361882001,2.9629935963022245,3.8948935737861707,4.8267935512718472,5.7586935287592596,6.6905935062483985,7.6224934837392668,8.5543934612318679,9.3974593481058672,10.033242891264047,10.669026434423996,11.304809977585702,11.940593520749161,12.57637706391438,13.212160607081369,13.847944150250095,14.483727693420594,15.119511236592846,15.755294779766867,16.391078322942647,17.026861866120182,17.662645409299458,18.298428952480531,18.934212495663331,19.569996038847911,20.205779582034229,20.841563125222315,21.477346668412171,21.968394842580835,22.242336543028244,22.516278243477426,22.79021994392836,23.064161644381098,23.338103344835631,23.612045045291886,23.885986745749946,24.159928446209804,24.433870146671424,24.707811847134824,24.9817535476,25.255695248066925,25.529636948535686,25.803578649006177,26.077520349478462,26.351462049952524,26.625403750428362,26.899345450905972,27.173287151385374,26.977394301447461,26.8442480518083,26.711101802170951,26.577955552535379,26.444809302901639,26.31166305326968,26.17851680363955,26.045370554011175,25.912224304384619,25.779078054759868,25.645931805136907,25.512785555515748,25.379639305896387,25.24649305627883,25.113346806663074,24.980200557049102,24.847054307436945,24.713908057826572,24.320324441217192,23.753111810420016,23.185899179624741,22.618686548831274,22.051473918039715,21.484261287250007,20.917048656462185,20.349836025676229,19.782623394892109,19.215410764109873,18.648198133329537,18.080985502551012,17.513772871774382,16.946560240999617,16.379347610226709,15.81213497945569,15.244922348686499,14.677709717919207,14.110497087153773,13.543284456390207,12.66297133337225,11.648468057270248,10.633964781170075,9.61946150507177,8.6049582289752582,7.5904549528806422,6.5759516767878434,5.5614484006968592,4.546945124607749,3.5324418485204463,2.5179385724350052,1.5034352963513931,0.48893202026963711,-0.525571255810313,-1.5400745318883835,-2.5545778079646433,-3.5690810840390483,-4.5835843601116064,-5.5980876361823437,-6.6125909122512327,-7.9883554600231257,-9.4544395941047181,-10.920523728184365,-12.386607862262041,-13.852691996337779,-15.318776130411557,-16.784860264483402,-18.250944398553244,-19.717028532621143,-21.18311266668713,-22.649196800751117,-24.115280934813178,-25.581365068873261,-27.047449202931414,-28.513533336987596,-29.979617471041831,-31.445701605094094,-32.911785739144435,-34.377869873192765,-35.843954007239184,-37.716975319398166,-39.635216147394409,-41.553456975388755,-43.471697803381026,-45.389938631371329,-47.308179459359629,-49.226420287345952,-51.144661115330265,-53.062901943312653,-54.981142771293015,-56.899383599271388,-58.817624427247829,-60.735865255222237,-62.654106083194705,-64.572346911165056,-66.490587739133574,-68.408828567100059,-70.327069395064512,-72.24531022302709,-74.163551050987522,0,0.0393194369730894,0.11004173266989485,0.22789763123937729,0.40231762396238435,0.63432551945593618,0.92425012847941446,1.2718926977004534,1.6764840297476069,2.1364757547834148,2.4781516511569093,3.2710211153060125
DP 523,275.45772672989131,0.0040455607885720134,-69.937846786899144,-68.421145264970576,-66.904443743039892,-65.387742221107089,-63.871040699172141,-62.354339177235047,-60.837637655295921,-59.320936133354579,-57.8042346114111,-56.287533089465533,-54.770831567517845,-53.254130045567983,-51.737428523616,-50.220727001661942,-48.704025479705741,-47.1873239577474,-45.670622435786953,-44.153920913824336,-42.637219391859645,-41.1205178698928,-39.616337808511005,-38.224852075994036,-36.833366343474957,-35.441880610953689,-34.050394878430289,-32.658909145904794,-31.267423413377159,-29.875937680847333,-28.48445194831541,-27.092966215781377,-25.70148048324517,-24.309994750706853,-22.918509018166382,-21.527023285623763,-20.13553755307904,-18.74405182053215,-17.352566087983128,-15.961080355431978,-14.569594622878695,-13.178108890323278,-11.837032589057628,-10.69759639537739,-9.55816020169501,-8.4187240080104679,-7.2792878143237818,-6.1398516206349365,-5.0004154269439374,-3.860979233250784,-2.7215430395554874,-1.5821068458580305,-0.44267065215841822,0.69676554154335524,1.836201735247275,2.9756379289533483,4.1150741226615786,5.2545103163719613,6.3939465100844934,7.53338270379917,8.6728188975160041,9.8122550912349951,10.844799452312639,11.627926169333906,12.411052886357364,13.194179603383018,13.977306320410833,14.760433037440849,15.543559754473048,16.326686471507433,17.109813188544024,17.892939905582775,18.676066622623718,19.45919333966685,20.242320056712181,21.02544677375969,21.8085734908094,22.591700207861287,23.374826924915361,24.157953641971609,24.941080359030053,25.724207076090671,26.331855083332307,26.67628087917107,27.020706675012004,27.365132470855215,27.709558266700608,28.053984062548249,28.398409858398047,28.742835654250076,29.087261450104297,29.431687245960816,29.776113041819471,30.120538837680389,30.464964633543456,30.809390429408797,31.153816225276312,31.498242021146023,31.842667817018015,32.187093612892163,32.531519408768524,32.875945204647131,32.664063332828263,32.51042448337256,32.356785633919117,32.203146784467926,32.049507935018944,31.895869085572247,31.742230236127753,31.588591386685547,31.434952537245554,31.281313687807806,31.127674838372283,30.97403598893904,30.820397139508021,30.66675829007924,30.513119440652684,30.35948059122839,30.205841741806331,30.052202892386518,29.576745134016008,28.886736366502944,28.196727598992208,27.506718831483774,26.816710063977716,26.126701296473911,25.436692528972483,24.746683761473403,24.056674993976603,23.366666226482131,22.676657458990029,21.986648691500225,21.296639924012755,20.60663115652763,19.916622389044804,19.226613621564347,18.536604854086153,17.846596086610344,17.156587319136847,16.466578551665684,15.385864342859842,14.13769966916978,12.889534995482018,11.64137032179657,10.393205648113366,9.1450409744325221,7.8968763007539637,6.648711627077641,5.4005469534036719,4.1523822797319578,2.9042176060625664,1.6560529323954536,0.407888258730656,-0.84027641493188687,-2.0884410885920857,-3.3366057622500258,-4.58477043590565,-5.8329351095589743,-7.0810997832100293,-8.329264456858775,-10.032058806526766,-11.848515946752425,-13.664973086975648,-15.481430227196419,-17.297887367414763,-19.114344507630676,-20.930801647844124,-22.747258788055106,-24.563715928263687,-26.380173068469873,-28.196630208673508,-30.01308734887477,-31.82954448907352,-33.646001629269925,-35.462458769463829,-37.2789159096553,-39.095373049844341,-40.911830190030962,-42.728287330215089,-44.544744470396786,-46.876278933986271,-49.265049620845652,-51.653820307702553,-54.042590994556875,-56.431361681408823,-58.820132368258292,-61.208903055105239,-63.597673741949649,-65.986444428791685,-68.375215115631136,-70.763985802468142,-73.152756489302661,-75.541527176134792,-77.930297862964338,-80.31906854979141,-82.70783923661601,-85.096609923438137,-87.485380610257749,-89.874151297074974,-92.262921983889527,0,0.049378637724274969,0.1378250293068109,0.2849847823686863,0.50273696506336529,0.79235551333427956,1.1542467833465408,1.588161819446837,2.0931429564664645,2.6672619479611521,3.0937009430695945,4.0833625346469624
DP 524,56.820541657344357,0.0058508544341086162,-31.919473594388595,-31.579316920632674,-31.239160246876736,-30.899003573120758,-30.558846899364752,-30.218690225608722,-29.878533551852669,-29.538376878096578,-29.198220204340462,-28.858063530584332,-28.517906856828144,-28.177750183071961,-27.837593509315717,-27.497436835559444,-27.157280161803161,-26.817123488046839,-26.476966814290488,-26.136810140534116,-25.796653466777716,-25.456496793021291,-25.118798368378403,-24.803224418121836,-24.48765046786518,-24.172076517608453,-23.856502567351626,-23.540928617094718,-23.225354666837735,-22.909780716580613,-22.594206766323467,-22.2786328160662,-21.963058865808872,-21.647484915551427,-21.3319109652939,-21.016337015036282,-20.7007630647786,-20.3851891145208,-20.06961516426292,-19.754041214004957,-19.438467263746904,-19.12289331348876,-18.817427248669482,-18.552393203318413,-18.287359157967074,-18.02232511261548,-17.757291067263623,-17.492257021911492,-17.22722297655908,-16.962188931206423,-16.697154885853493,-16.432120840500268,-16.167086795146812,-15.902052749793073,-15.637018704439063,-15.371984659084797,-15.106950613730254,-14.841916568375444,-14.576882523020375,-14.311848477665027,-14.04681443230942,-13.781780386953537,-13.539039920456766,-13.348318507045702,-13.15759709363434,-12.966875680222696,-12.776154266810778,-12.58543285339857,-12.394711439986082,-12.203990026573305,-12.013268613160257,-11.822547199746907,-11.63182578633328,-11.441104372919382,-11.250382959505179,-11.059661546090707,-10.868940132675958,-10.678218719260915,-10.487497305845592,-10.296775892429977,-10.106054479014087,-9.9153330655979115,-9.76305331578774,-9.6684369697875248,-9.5738206237868972,-9.4792042777858452,-9.3845879317843828,-9.2899715857824958,-9.1953552397802021,-9.1007388937774856,-9.0061225477743569,-8.911506201770818,-8.8168898557668545,-8.7222735097624824,-8.6276571637576822,-8.5330408177524824,-8.4384244717468526,-8.3438081257408143,-8.2491917797343621,-8.1545754337274818,-8.0599590877201948,-7.9653427417125009,-7.97064042320996,-7.9916829836546768,-8.0127255440989078,-8.0337681045426574,-8.0548106649859061,-8.07585322542868,-8.0968957858709487,-8.11793834631274,-8.13898090675404,-8.1600234671948648,-8.1810660276351843,-8.20210858807502,-8.2231511485143756,-8.2441937089532349,-8.265236269391611,-8.28627882982949,-8.3073213902668854,-8.3283639507037943,-8.4287528155553151,-8.58204046668193,-8.7353281178079154,-8.8886157689332581,-9.0419034200579684,-9.1951910711820535,-9.3484787223054955,-9.5017663734283015,-9.6550540245504823,-9.8083416756720272,-9.9616293267929183,-10.114916977913195,-10.268204629032846,-10.421492280151824,-10.5747799312702,-10.728067582387924,-10.881355233505031,-11.034642884621494,-11.187930535737323,-11.341218186852512,-11.596520359037433,-11.895544417766088,-12.19456847649411,-12.493592535221492,-12.792616593948257,-13.091640652674359,-13.390664711399836,-13.6896887701247,-13.988712828848886,-14.287736887572466,-14.586760946295412,-14.88578500501772,-15.184809063739385,-15.483833122460425,-15.782857181180821,-16.081881239900582,-16.380905298619705,-16.679929357338196,-16.978953416056054,-17.27797747477328,-17.7013467990741,-18.155803908938193,-18.610261018801467,-19.064718128663905,-19.519175238525484,-19.973632348386246,-20.428089458246149,-20.882546568105226,-21.33700367796347,-21.791460787820903,-22.245917897677455,-22.700375007533182,-23.154832117388064,-23.609289227242133,-24.063746337095328,-24.518203446947727,-24.972660556799251,-25.427117666649973,-25.881574776499829,-26.336031886348866,-26.93583551887895,-27.551790291530153,-28.167745064180483,-28.783699836829889,-29.399654609478389,-30.015609382125977,-30.631564154772668,-31.247518927418412,-31.863473700063295,-32.479428472707269,-33.09538324535032,-33.711338017992439,-34.3272927906337,-34.943247563274042,-35.559202335913469,-36.175157108552,-36.791111881189607,-37.407066653826284,-38.023021426462122,-38.638976199097,0,0.039469479040477658,0.076841012398355141,0.12257585092664344,0.18610722042565028,0.26846424788419276,0.36994001376183644,0.49065797991295518,0.63067179046377531,0.78979726274090156,0.904441813639771,1.172365791902261
DP 525,151.93425928099157,0.0029084232032253717,-34.441701031137555,-33.783815305388,-33.125929579637493,-32.468043853886073,-31.810158128133718,-31.152272402380397,-30.494386676626121,-29.836500950870889,-29.178615225114751,-28.52072949935765,-27.862843773599614,-27.204958047840613,-26.547072322080652,-25.889186596319785,-25.231300870557938,-24.573415144795185,-23.915529419031458,-23.257643693266786,-22.599757967501166,-21.941872241734636,-21.288838619555143,-20.679474388308517,-20.070110157060938,-19.460745925812414,-18.851381694562917,-18.242017463312443,-17.632653232061021,-17.023289000808635,-16.413924769555287,-15.804560538300985,-15.195196307045714,-14.585832075789479,-13.976467844532293,-13.367103613274123,-12.757739382015018,-12.148375150754928,-11.539010919493894,-10.929646688231898,-10.320282456968926,-9.71091822570501,-9.12148697075717,-8.61178856313671,-8.1020901555152438,-7.5923917478927834,-7.0826933402693122,-6.5729949326448427,-6.063296525019366,-5.5535981173928874,-5.0438997097654035,-4.5342013021369185,-4.0245028945074255,-3.5148044868769275,-3.0051060792454276,-2.4954076716129232,-1.9857092639794143,-1.4760108563449021,-0.96631244870938693,-0.45661404107287018,0.0530843665646488,0.56278277420317369,1.0287988468594351,1.3928880949028948,1.7569773429473803,2.121066590992887,2.4851558390394137,2.849245087086965,3.213334335135539,3.5774235831851375,3.9415128312357575,4.3056020792873992,4.6696913273400638,5.0337805753937523,5.3978698234484623,5.7619590715041928,6.1260483195609519,6.4901375676187305,6.8542268156775341,7.2183160637373565,7.5824053117982029,7.9464945598600778,8.2357346558108411,8.4126992548614812,8.5896638539131942,8.7666284529659535,8.94359305201978,9.120557651074666,9.2975222501306138,9.4744868491876062,9.6514514482456786,9.8284160473047955,10.005380646364985,10.182345245426228,10.359309844488536,10.536274443551896,10.713239042616316,10.8902036416818,11.067168240748344,11.244132839815947,11.421097438884617,11.598062037954337,11.57078003063924,11.524473885823443,11.478167741008725,11.431861596195098,11.385555451382578,11.339249306571121,11.292943161760761,11.24663701695148,11.200330872143287,11.154024727336187,11.107718582530183,11.061412437725259,11.015106292921416,10.968800148118671,10.922494003317009,10.876187858516435,10.829881713716947,10.783575568918538,10.58529058358784,10.28568397700487,9.9860773704230557,9.6864707638423919,9.38686415726289,9.08725755068453,8.7876509441073356,8.4880443375312886,8.1884377309563909,7.8888311243826648,7.5892245178100861,7.2896179112386523,6.9900113046683883,6.6904046980992709,6.390798091531309,6.0911914849645052,5.7915848783988393,5.4919782718343431,5.1923716652709979,4.892765058708811,4.39929689308528,3.8227425844146925,3.2461882757452445,2.669633967076944,2.0930796584097631,1.5165253497437516,0.93997104107887042,0.363416732415112,-0.21313757624748256,-0.78969188490895781,-1.3662461935692773,-1.9428005022284653,-2.5193548108865036,-3.0959091195434167,-3.6724634281991704,-4.2490177368537987,-4.8255720455072773,-5.4021263541596172,-5.9786806628108211,-6.5552349714608811,-7.3667830351970194,-8.2370823142092586,-9.1073815932202624,-9.9776808722300174,-10.84798015123854,-11.718279430245806,-12.588578709251831,-13.458877988256607,-14.32917726726013,-15.199476546262439,-16.069775825263456,-16.940075104263265,-17.8103743832618,-18.680673662259125,-19.550972941255178,-20.421272220249985,-21.291571499243553,-22.161870778235908,-23.032170057226963,-23.902469336216825,-25.046340016850454,-26.220610393050528,-27.39488076924933,-28.569151145446817,-29.743421521643089,-30.917691897838047,-32.091962274031708,-33.266232650224083,-34.440503026415236,-35.614773402605074,-36.789043778793641,-37.963314154980971,-39.137584531166958,-40.31185490735173,-41.486125283535166,-42.660395659717388,-43.834666035898287,-45.008936412077908,-46.183206788256285,-47.357477164433348,0,0.027820559589115872,0.073526747812663551,0.14744991410075164,0.25655907776837067,0.40146230534610128,0.58232398902151994,0.79901370740198985,1.0510738852403392,1.3375840113167468,1.5502380197830767,2.04454622434904
DP 526,112.87928031492314,0.001847294068154144,-17.7692493645465,-17.460918119521189,-17.152586874495469,-16.844255629469355,-16.535924384442836,-16.227593139415923,-15.919261894388629,-15.610930649360919,-15.30259940433282,-14.994268159304319,-14.685936914275429,-14.377605669246144,-14.069274424216449,-13.760943179186359,-13.452611934155879,-13.144280689125004,-12.835949444093725,-12.527618199062056,-12.219286954029995,-11.910955708997514,-11.604865478091835,-11.318944586160686,-11.033023694229117,-10.747102802297146,-10.461181910364754,-10.175261018431963,-9.8893401264987553,-9.6034192345651412,-9.3174983426311169,-9.0315774506966857,-8.7456565587618353,-8.4597356668265871,-8.1738147748909125,-7.8878938829548435,-7.6019729910183571,-7.3160520990814595,-7.0301312071441533,-6.7442103152064385,-6.45828942326831,-6.1723685313297745,-5.8956764290542436,-5.6558999215973715,-5.4161234141400554,-5.1763469066822916,-4.9365703992240793,-4.6967938917654228,-4.45701738430632,-4.2172408768467662,-3.9774643693867655,-3.7376878619263194,-3.4979113544654243,-3.2581348470040772,-3.018358339542289,-2.7785818320800537,-2.538805324617369,-2.2990288171542379,-2.0592523096906579,-1.8194758022266335,-1.5796992947621606,-1.3399227872972419,-1.1204586956364877,-0.9483908808453877,-0.77632306605382773,-0.60425525126181268,-0.43218743646934016,-0.26011962167641028,-0.088051806883023082,0.084016007910822088,0.25608382270512331,0.42815163749988239,0.60021945229509688,0.77228726709076867,0.944355081886901,1.1164228966834886,1.2884907114805324,1.4605585262780343,1.6326263410759947,1.8046941558744125,1.9767619706732866,2.1488297854726146,2.2859094087927017,2.3705059181005379,2.4551024274088609,2.5396989367176723,2.6242954460269696,2.7088919553367559,2.7934884646470275,2.8780849739577863,2.962681483269034,3.0472779925807703,3.1318745018929874,3.2164710112056936,3.3010675205188931,3.3856640298325713,3.4702605391467456,3.5548570484613973,3.6394535577765423,3.7240500670921737,3.8086465764082953,3.8932430857248996,3.8845231370133431,3.8641156571635928,3.8437081773143529,3.8233006974656147,3.8028932176173904,3.7824857377696657,3.7620782579224556,3.741670778075743,3.7212632982295419,3.700855818383848,3.6804483385386577,3.660040858693979,3.6396333788498048,3.6192258990061359,3.5988184191629746,3.5784109393203196,3.5580034594781687,3.5375959796365297,3.4452820600990286,3.3050293813043519,3.1647767025102316,3.0245240237166588,2.8842713449236381,2.7440186661311627,2.6037659873392451,2.4635133085478751,2.3232606297570539,2.1830079509667848,2.0427552721770685,1.9025025933879003,1.762249914599282,1.6219972358112185,1.4817445570237016,1.3414918782367373,1.2012391994503206,1.060986520664458,0.92073384187914664,0.78048116309438531,0.54799490559181818,0.27597872605522744,0.0039625465191787269,-0.26805363301632057,-0.540069812551282,-0.81208599208568755,-1.0841021716195514,-1.3561183511528794,-1.628134530685649,-1.9001507102178861,-2.172166889749569,-2.4441830692807129,-2.7161992488113031,-2.9882154283413596,-3.2602316078708604,-3.5322477873998217,-3.8042639669282363,-4.0762801464561047,-4.3482963259834291,-4.6203125055102117,-5.0046189859145969,-5.4169993682737756,-5.8293797506323477,-6.2417601329903105,-6.6541405153476605,-7.0665208977043994,-7.4789012800605308,-7.89128166241604,-8.3036620447709435,-8.7160424271252577,-9.1284228094789359,-9.540803191832012,-9.9531835741844628,-10.365563956536327,-10.77794433888756,-11.190324721238197,-11.602705103588212,-12.015085485937636,-12.427465868286424,-12.839846250634606,-13.383325174554365,-13.941371979945032,-14.499418785335061,-15.057465590724435,-15.615512396113209,-16.173559201501327,-16.731606006888821,-17.289652812275669,-17.847699617661906,-18.405746423047521,-18.963793228432472,-19.521840033816826,-20.079886839200515,-20.6379336445836,-21.195980449966029,-21.75402725534785,-22.312074060729007,-22.870120866109549,-23.428167671489469,-23.986214476868735,0,0.015320217015827893,0.038069756646522783,0.073687229629803674,0.1261036813745422,0.19561418872073205,0.2822804641466537,0.38603840316080656,0.50668224802535178,0.64379559158736832,0.74542024527273321,0.9819903312084427
DP 527,97.854136930812459,0.0019488185424319604,-16.79816240749301,-16.52442218950754,-16.250681971521761,-15.976941753535648,-15.703201535549233,-15.429461317562488,-15.155721099575437,-14.881980881588055,-14.608240663600348,-14.334500445612331,-14.060760227623984,-13.787020009635334,-13.513279791646363,-13.239539573657066,-12.965799355667448,-12.692059137677516,-12.418318919687264,-12.144578701696698,-11.870838483705802,-11.597098265714591,-11.325341977530009,-11.071441245137144,-10.817540512743935,-10.563639780350398,-10.309739047956523,-10.055838315562321,-9.8019375831677724,-9.5480368507728954,-9.294136118377688,-9.0402353859821378,-8.78633465358626,-8.5324339211900444,-8.2785331887934959,-8.0246324563966152,-7.7707317239993978,-7.516830991601843,-7.262930259203956,-7.0090295268057323,-6.755128794407173,-6.5012280620082823,-6.2555002356830975,-6.042464419916616,-5.8294286041497578,-5.6163927883825178,-5.4033569726149109,-5.190321156846915,-4.9772853410785407,-4.76424952530979,-4.5512137095406615,-4.3381778937711521,-4.1251420780012626,-3.9121062622309952,-3.6990704464603485,-3.4860346306893253,-3.2729988149179192,-3.059962999146137,-2.8469271833739747,-2.6338913676014348,-2.4208555518285175,-2.2078197360552205,-2.0127868893115237,-1.8597615375319325,-1.7067361857519516,-1.5537108339715828,-1.4006854821908263,-1.2476601304096817,-1.0946347786281485,-0.94160942684622606,-0.78858407506391726,-0.63555872328121876,-0.48253337149813375,-0.32950801971466043,-0.17648266793079703,-0.023457316146546527,0.12956803563809219,0.28259338742311996,0.43561873920853578,0.58864409099434056,0.74166944278053148,0.89469479456711143,1.0166800116555545,1.0921042931985405,1.16752857474195,1.2429528562857821,1.3183771378300373,1.3938014193747157,1.4692257009198144,1.5446499824653375,1.6200742640112824,1.6954985455576543,1.7709228271044455,1.84634710865166,1.9217713901992983,1.9971956717473545,2.0726199532958391,2.1480442348447468,2.2234685163940751,2.2988927979438287,2.3743170794940043,2.4497413610445995,2.4428574887390373,2.425018907200557,2.4071803256625208,2.3893417441249292,2.3715031625877834,2.3536645810510812,2.3358259995148258,2.3179874179790105,2.300148836443642,2.2823102549087158,2.2644716733742394,2.2466330918402027,2.2287945103066118,2.2109559287734628,2.1931173472407623,2.1752787657085033,2.1574401841766906,2.1396016026453228,2.05782559156666,1.9334236202046926,1.809021648843218,1.6846196774822331,1.5602177061217406,1.4358157347617346,1.311413763402228,1.1870117920432084,1.0626098206846808,0.93820784932664347,0.81380587796910153,0.68940390661204753,0.56500193525548614,0.44059996389941841,0.31619799254383774,0.19179602118875205,0.067394049834153383,-0.057007921519950717,-0.18140989287356113,-0.30581186422668177,-0.51231292146535679,-0.75400040981986127,-0.99568789817388015,-1.2373753865274089,-1.4790628748804555,-1.7207503632330068,-1.9624378515850727,-2.2041253399366596,-2.4458128282877509,-2.6875003166383631,-2.9291878049884796,-3.1708752933381117,-3.412562781687257,-3.6542502700359161,-3.8959377583840822,-4.1376252467317673,-4.3793127350789627,-4.6210002234256669,-4.8626877117718905,-5.1043752001176248,-5.4460918151534772,-5.8128168937286873,-6.1795419723033467,-6.5462670508774448,-6.9129921294509868,-7.2797172080239712,-7.6464422865964128,-8.0131673651682842,-8.3798924437395961,-8.7466175223103644,-9.1133426008805678,-9.4800676794502277,-9.8467927580193138,-10.213517836587865,-10.580242915155832,-10.946967993723259,-11.313693072290127,-11.680418150856449,-12.047143229422204,-12.413868307987409,-12.897442761815647,-13.39400170676311,-13.890560651709993,-14.38711959665628,-14.883678541602,-15.380237486547133,-15.876796431491709,-16.373355376435676,-16.869914321379088,-17.366473266321911,-17.863032211264166,-18.359591156205827,-18.856150101146927,-19.352709046087444,-19.849267991027379,-20.34582693596672,-20.842385880905496,-21.338944825843704,-21.835503770781337,-22.332062715718354,0,0.01517379297071151,0.036158325293583524,0.068181957482372491,0.11517611420197064,0.17742303129133569,0.25497125624242267,0.3477644912896744,0.45562973571954418,0.578211994125366,0.66893515977392415,0.88032823226131773
DP 528,134.32134979160239,0.0036553056191993448,-39.834360732438384,-39.099888828310924,-38.3654169241824,-37.63094502005287,-36.8964731159223,-36.162001211790745,-35.427529307658084,-34.693057403524492,-33.958585499389848,-33.224113595254167,-32.489641691117527,-31.7551697869798,-31.020697882841063,-30.286225978701328,-29.551754074560595,-28.817282170418778,-28.082810266275988,-27.348338362132147,-26.61386645798731,-25.879394553841419,-25.150296200883986,-24.469560316561573,-23.788824432238137,-23.108088547913624,-22.427352663588085,-21.746616779261529,-21.065880894933908,-20.385145010605253,-19.704409126275547,-19.023673241944802,-18.342937357613007,-17.662201473280174,-16.981465588946286,-16.30072970461136,-15.619993820275415,-14.939257935938404,-14.258522051600352,-13.577786167261266,-12.89705028292112,-12.216314398579948,-11.557685514289572,-10.987485675013119,-10.417285835735553,-9.8470859964568955,-9.2768861571771364,-8.7066863178962652,-8.136486478614291,-7.5662866393312145,-6.9960868000470358,-6.425886960761745,-5.8556871214753539,-5.285487282187848,-4.7152874428992462,-4.1450876036095394,-3.5748877643187242,-3.0046879250268033,-2.4344880857337809,-1.8642882464396564,-1.2940884071444267,-0.72388856784809175,-0.20224842283419633,0.20608423885979932,0.61441690055492781,1.0227495622511797,1.4310822239485557,1.8394148856470631,2.247747547346695,2.6560802090474565,3.0644128707493437,3.4727455324523584,3.8810781941564962,4.2894108558617638,4.6977435175681572,5.1060761792756795,5.5144088409843324,5.9227415026941035,6.33107416440501,6.7394068261170386,7.1477394878301972,7.5560721495444811,7.8809534956901341,8.0806558964747754,8.2803582972605856,8.48006069804758,8.679763098835755,8.879465499625109,9.0791679004156318,9.2788703012073483,9.4785727020002355,9.6782751027943039,9.8779775035895554,10.077679904385981,10.277382305183576,10.477084705982358,10.676787106782324,10.876489507583461,11.076191908385782,11.275894309189276,11.475596709993969,11.675299110799807,11.650006435086674,11.59994841248777,11.549890389890077,11.499832367293607,11.449774344698364,11.399716322104313,11.349658299511489,11.299600276919884,11.249542254329485,11.199484231740293,11.149426209152338,11.099368186565592,11.049310163980055,10.999252141395727,10.949194118812633,10.899136096230734,10.849078073650066,10.799020051070611,10.578382555584444,10.244022724234105,9.9096628928850681,9.5753030615373316,9.2409432301908812,8.90658339884574,8.57222356750191,8.2378637361593725,7.9035039048181241,7.5691440734781859,7.2347842421395514,6.9004244108022181,6.56606457946618,6.2317047481314436,5.897344916798005,5.5629850854658782,5.22862525413504,4.8942654228055034,4.5599055914772748,4.2255457601503483,3.6729318612657407,3.0267775577464953,2.3806232542285333,1.7344689507118665,1.0883146471964664,0.44216034368238066,-0.20399395983042845,-0.85014826334197391,-1.4963025668522076,-2.1424568703611744,-2.7886111738688437,-3.4347654773752341,-4.08091978088033,-4.72707408438416,-5.3732283878866776,-6.0193826913879231,-6.6655369948878818,-7.3116912983865419,-7.9578456018839416,-8.6039999053800464,-9.515357521707454,-10.493019099680039,-11.470680677651231,-12.448342255621002,-13.426003833589359,-14.403665411556288,-15.381326989521815,-16.358988567485902,-17.336650145448587,-18.31431172340988,-19.291973301369712,-20.269634879328169,-21.247296457285163,-22.224958035240782,-23.202619613194955,-24.180281191147717,-25.157942769099073,-26.135604347049028,-27.113265924997538,-28.090927502944634,-29.377819527175319,-30.699073737549721,-32.020327947922695,-33.341582158294166,-34.662836368664223,-35.984090579032816,-37.305344789399967,-38.626598999765569,-39.9478532101298,-41.269107420492531,-42.590361630853842,-43.91161584121371,-45.232870051572036,-46.55412426192899,-47.875378472284396,-49.196632682638459,-50.517886892991029,-51.839141103342094,-53.160395313691815,-54.481649524039909,0,0.03293987950677945,0.085190557144608589,0.16877636946127844,0.29203199546584935,0.45564021075409422,0.65977100350624251,0.90427526519603274,1.1886467095481725,1.5118657218716682,1.7516653175467738,2.3093699325814807
DP 529,107.80386636192708,0.0031217565964881794,-29.006534624719809,-28.512569028463563,-28.018603432206724,-27.52463783594926,-27.030672239691153,-26.53670664343246,-26.042741047173145,-25.548775450913194,-25.054809854652628,-24.560844258391452,-24.066878662129653,-23.572913065867244,-23.078947469604195,-22.584981873340546,-22.091016277076275,-21.597050680811382,-21.103085084545882,-20.609119488279735,-20.115153892012987,-19.62118829574564,-19.130809062433798,-18.672707434725243,-18.214605807016067,-17.756504179306233,-17.298402551595768,-16.840300923884651,-16.382199296172903,-15.924097668460512,-15.465996040747482,-15.007894413033801,-14.549792785319475,-14.091691157604515,-13.633589529888914,-13.175487902172666,-12.717386274455787,-12.259284646738255,-11.801183019020087,-11.343081391301267,-10.884979763581814,-10.426878135861726,-9.9835472406779449,-9.5992999737266977,-9.2150527067747454,-8.8308054398220843,-8.44655817286872,-8.0623109059146465,-7.6780636389598582,-7.2938163720043683,-6.9095691050481767,-6.5253218380912745,-6.141074571133661,-5.7568273041753413,-5.3725800372163164,-4.9883327702565827,-4.60408550329614,-4.2198382363349936,-3.8355909693731407,-3.4513437024105791,-3.0670964354473149,-2.6828491684833398,-2.3311226854849418,-2.0552790563878651,-1.7794354272900619,-1.5035917981915372,-1.2277481690922911,-0.95190453999231939,-0.67606091089162523,-0.40021728179020538,-0.12437365268806437,0.15146997641480084,0.42731360551838732,0.70315723462269752,0.97900086372773354,1.2548444928334923,1.5306881219399726,1.8065317510471783,2.0823753801551073,2.3582190092637614,2.634062638373138,2.9099062674832341,3.1297104967217249,3.2654543019058928,3.4011981070908344,3.5369419122765513,3.6726857174630467,3.8084295226503131,3.9441733278383633,4.07991713302718,4.215660938216776,4.35140474340715,4.4871485485982987,4.6228923537902142,4.7586361589829158,4.8943799641763848,5.0301237693706389,5.165867574565663,5.3016113797614635,5.4373551849580419,5.5730989901553949,5.7088427953535179,5.6954350822859974,5.6629229179446465,5.6304107536041048,5.5978985892643625,5.5653864249254434,5.5328742605873256,5.5003620962500248,5.4678499319135261,5.4353377675778392,5.4028256032429569,5.3703134389088945,5.3378012745756269,5.3052891102431783,5.2727769459115361,5.2402647815807049,5.2077526172506774,5.1752404529214653,5.1427282885930579,4.9949448979088578,4.7703122070378869,4.5456795161678034,4.3210468252985965,4.0964141344302769,3.8717814435628348,3.6471487526962849,3.4225160618306196,3.1978833709658296,2.9732506801019274,2.7486179892389151,2.523985298376779,2.2993526075155275,2.074719916655166,1.8500872257956766,1.6254545349370801,1.4008218440793594,1.1761891532225301,0.95155646236658531,0.7269237715115231,0.354372128262973,-0.0815753490923613,-0.51752282644682235,-0.9534703038004031,-1.38941778115312,-1.8253652585049449,-2.2613127358558964,-2.697260213205992,-3.1332076905551909,-3.5691551679035314,-4.005102645250985,-4.4410501225975718,-4.8769975999432758,-5.3129450772881119,-5.7488925546320582,-6.184840031975142,-6.6207875093173527,-7.056734986658677,-7.4926824639991345,-7.9286299413387127,-8.5447182787006568,-9.2058439594733255,-9.866969640245026,-10.528095321015723,-11.189221001785457,-11.850346682554191,-12.511472363321948,-13.172598044088707,-13.833723724854478,-14.494849405619284,-15.155975086383089,-15.8171007671459,-16.478226447907723,-17.139352128668587,-17.800477809428447,-18.461603490187326,-19.122729170945203,-19.783854851702117,-20.444980532458025,-21.106106213212978,-21.977591344886804,-22.87245195816811,-23.767312571448397,-24.662173184727635,-25.557033798005875,-26.4518944112831,-27.346755024559243,-28.241615637834393,-29.136476251108586,-30.031336864381672,-30.926197477653744,-31.821058090924861,-32.715918704194884,-33.61077931746393,-34.505639930731917,-35.40050054399893,-36.295361157264878,-37.190221770529789,-38.085082383793761,-38.979942997056618,0,0.025350745232125986,0.062206714302063086,0.11948967209346439,0.20372674409474248,0.31539875896533515,0.4546004204013267,0.62122896626415558,0.81495930349523837,1.0351316084810549,1.1982544240166535,1.5780938561368723
DP 530,142.38770667888818,0.0012769694698682671,-14.481452322985087,-14.20975755360598,-13.938062784226494,-13.666368014846617,-13.394673245466354,-13.122978476085718,-12.85128370670469,-12.57958893732328,-12.307894167941459,-12.036199398559289,-11.764504629176724,-11.492809859793775,-11.221115090410436,-10.949420321026723,-10.677725551642611,-10.406030782258131,-10.134336012873259,-9.862641243487996,-9.590946474102358,-9.3192517047163275,-9.0495514855269974,-8.7978024066444878,-8.5460533277615927,-8.294304248878305,-8.04255516999462,-7.7908060911105386,-7.5390570122260776,-7.2873079333412223,-7.0355588544559691,-6.7838097755703339,-6.5320606966842956,-6.2803116177978646,-6.02856253891105,-5.7768134600238392,-5.5250643811362421,-5.2733153022482471,-5.0215662233598621,-4.769817144471082,-4.5180680655819145,-4.266318986692359,-4.0227703260936538,-3.8120237262227334,-3.6012771263514032,-3.390530526479659,-3.1797839266075023,-2.9690373267349361,-2.7582907268619556,-2.5475441269885652,-2.3367975271147632,-2.1260509272405468,-1.9153043273659198,-1.7045577274908796,-1.4938111276154282,-1.2830645277395656,-1.0723179278632902,-0.8615713279866013,-0.65082472810950287,-0.44007812823199233,-0.229331528354071,-0.018584928475737124,0.174165797022098,0.324925581960553,0.47568536689943053,0.62644515183872629,0.77720493677844049,0.92796472171857725,1.0787245066591333,1.229484291600109,1.3802440765415052,1.53100386148332,1.6817636464255552,1.8325234313682115,1.983283216311285,2.1340430012547809,2.2848027861986981,2.4355625711430333,2.5863223560877855,2.7370821410329653,2.8878419259785586,3.0386017109245747,3.1584742447811438,3.2320151721179995,3.3055560994552908,3.3790970267930205,3.452637954131188,3.5261788814697952,3.5997198088088322,3.6732607361483125,3.7468016634882328,3.8203425908285822,3.8938835181693743,3.9674244455106,4.0409653728522681,4.1145063001943694,4.1880472275369076,4.2615881548798846,4.3351290822232968,4.40867000956715,4.48221093691144,4.555751864256159,4.5455847424247411,4.5268095337068219,4.5080343249893566,4.489259116272331,4.47048390755576,4.4517086988396377,4.4329334901239656,4.4141582814087412,4.3953830726939742,4.3766078639796451,4.3578326552657725,4.3390574465523493,4.3202822378393728,4.3015070291268449,4.2827318204147717,4.2639566117031471,4.24518140299197,4.2264061942812416,4.1446710328210967,4.0209615776750995,3.8972521225295891,3.7735426673845534,3.6498332122399937,3.5261237570959159,3.40241430195232,3.2787048468092008,3.1549953916665596,3.0312859365244016,2.907576481382721,2.7838670262415208,2.6601575711007954,2.5364481159605567,2.4127386608207897,2.2890292056815031,2.1653197505426975,2.0416102954043711,1.9179008402665245,1.7941913851291575,1.5900273294728871,1.35138164434931,1.1127359592262052,0.87409027410357643,0.63544458898141576,0.39679890385973754,0.15815321873853042,-0.080492466382211011,-0.31913815150246916,-0.55778383662226172,-0.796429521741575,-1.0350752068604177,-1.2737208919787828,-1.5123665770966828,-1.7510122622140982,-1.9896579473310467,-2.22830363244752,-2.4669493175635173,-2.705595002679047,-2.9442406877940988,-3.28054874742726,-3.6412735545930826,-4.0019983617583827,-4.3627231689231669,-4.7234479760874324,-5.0841727832511783,-5.4448975904144046,-5.805622397577106,-6.1663472047392895,-6.5270720119009731,-6.8877968190621042,-7.2485216262227441,-7.6092464333828405,-7.9699712405424386,-8.3306960477015011,-8.6914208548600573,-9.05214566201808,-9.4128704691756049,-9.7735952763325891,-10.134320083489065,-10.608845032115941,-11.09601563608298,-11.583186240049503,-12.070356844015468,-12.557527447980917,-13.044698051945835,-13.531868655910211,-14.019039259874054,-14.506209863837356,-14.993380467800131,-15.480551071762385,-15.967721675724089,-16.454892279685268,-16.942062883645914,-17.429233487606012,-17.916404091565592,-18.403574695524625,-18.890745299483132,-19.377915903441139,-19.865086507398551,0,0.011837967884201881,0.030950820841183644,0.06169587559892481,0.10705418108822477,0.1672774704412644,0.24243114987259937,0.33246064628575267,0.43717768795862816,0.55620319802787832,0.644528907342676,0.8498947708677933
DP 531,129.59586761017994,0.0057512451283984987,-61.131554974504759,-60.017114415161522,-58.902673855816793,-57.788233296470544,-56.67379273712276,-55.559352177773413,-54.444911618422566,-53.3304710590702,-52.21603049971624,-51.10158994036081,-49.9871493810039,-48.87270882164534,-47.75826826228527,-46.64382770292378,-45.529387143560683,-44.414946584196066,-43.300506024829929,-42.186065465462235,-41.071624906093028,-39.9571843467223,-38.850883457126073,-37.817840364909358,-36.784797272691037,-35.75175418047116,-34.718711088249776,-33.685667996026737,-32.6526249038022,-31.619581811576044,-30.586538719348379,-29.553495627119087,-28.520452534888289,-27.487409442655881,-26.454366350421925,-25.421323258186412,-24.388280165949322,-23.355237073710654,-22.322193981470441,-21.289150889228651,-20.256107796985294,-19.223064704740388,-18.223516023704377,-17.35794657050112,-16.4923771172962,-15.626807664089615,-14.761238210881354,-13.895668757671444,-13.030099304459863,-12.16452985124662,-11.298960398031703,-10.433390944815113,-9.567821491596856,-8.7022520383769386,-7.8366825851553514,-6.9711131319320936,-6.10554367870718,-5.23997422548059,-4.3744047722523351,-3.5088353190224213,-2.6432658657908417,-1.7776964125575943,-0.98574009480496239,-0.36555007920574306,0.254639936395186,0.87482995199780944,1.4950199676021307,2.1152099832081581,2.7353999988158786,3.3555900144253128,3.9757800300364403,4.5959700456492651,5.2161600612637944,5.8363500768800138,6.4565400924979457,7.0767301081175793,7.6969201237389111,8.3171101393619384,8.9373001549866764,9.5574901706131143,10.177680186241245,10.797870201871079,11.291477428537354,11.595207480525843,11.898937532516136,12.202667584508198,12.506397636502046,12.810127688497694,13.113857740495106,13.417587792494318,13.721317844495315,14.025047896498098,14.328777948502641,14.632508000508993,14.936238052517121,15.239968104527039,15.543698156538737,15.847428208552204,16.151158260567477,16.454888312584554,16.758618364603375,17.062348416624005,17.025713377729243,16.950312635050217,16.87491189237301,16.799511149697647,16.724110407024146,16.64870966435247,16.57330892168266,16.497908179014665,16.422507436348543,16.347106693684232,16.271705951021797,16.196305208361171,16.120904465702409,16.045503723045488,15.970102980390392,15.894702237737153,15.81930149508576,15.743900752436199,15.409383926769854,14.90211896371912,14.394854000670367,13.887589037623597,13.380324074578777,12.873059111535948,12.365794148495091,11.858529185456229,11.351264222419321,10.843999259384395,10.336734296351475,9.8294693333205139,9.3222043702915212,8.8149394072645268,8.3076744442394883,7.8004094812164455,7.2931445181953585,6.7858795551762592,6.2786145921591441,5.7713496291440061,4.9323274104926211,3.951119031097682,2.9699106517046912,1.9887022723136696,1.0074938929245725,0.026285513537477496,-0.95492286584767827,-1.9361312452309105,-2.9173396246121457,-3.8985480039914617,-4.8797563833687985,-5.8609647627441852,-6.8421731421176091,-7.8233815214891038,-8.8045899008586055,-9.7857982802261816,-10.767006659591781,-11.748215038955422,-12.72942341831714,-13.710631797676871,-15.09516992767924,-16.580545260774858,-18.065920593868313,-19.551295926959593,-21.036671260048742,-22.522046593135691,-24.007421926220509,-25.492797259303163,-26.978172592383633,-28.463547925461985,-29.948923258538141,-31.434298591612148,-32.91967392468397,-34.4050492577537,-35.890424590821162,-37.375799923886525,-38.861175256949728,-40.346550590010779,-41.831925923069626,-43.317301256126356,-45.273121720484284,-47.281218806909848,-49.289315893333274,-51.297412979754377,-53.305510066173277,-55.313607152589974,-57.321704239004411,-59.329801325416589,-61.337898411826664,-63.34599549823443,-65.354092584639957,-67.362189671043367,-69.370286757444433,-71.378383843843366,-73.386480930239969,-75.394578016634384,-77.402675103026667,-79.410772189416519,-81.418869275804425,-83.426966362189845,0,0.050935233546864384,0.13077545668044807,0.25801579230384691,0.44558221492079658,0.6945138043842124,1.0050616832316432,1.3769981912922928,1.8095586153457761,2.301202244592075,2.6659000234836481,3.5142286162892904
DP 532,195.82530696912806,0.00339246869818153,-47.231281269125695,-46.27342465512325,-45.3155680411193,-44.357711427113962,-43.399854813107289,-42.441998199099139,-41.484141585089588,-40.5262849710786,-39.568428357066239,-38.610571743052439,-37.652715129037212,-36.694858515020584,-35.737001901002557,-34.779145286983095,-33.821288672962211,-32.863432058939921,-31.905575444916238,-30.947718830891109,-29.989862216864584,-29.032005602836637,-28.08143104991251,-27.196395735265604,-26.311360420617326,-25.426325105967582,-24.541289791316423,-23.65625447666384,-22.771219162009825,-21.886183847354364,-21.001148532697503,-20.11611321803921,-19.231077903379475,-18.346042588718305,-17.461007274055717,-16.575971959391712,-15.690936644726259,-14.805901330059386,-13.920866015391084,-13.035830700721354,-12.150795386050188,-11.265760071377612,-10.4104786865449,-9.6742144272881365,-8.9379501680299089,-8.2016859087702247,-7.4654216495090751,-6.7291573902464634,-5.9928931309823934,-5.256628871716857,-4.5203646124498631,-3.7841003531814081,-3.0478360939114872,-2.3115718346400991,-1.5753075753672556,-0.83904331609294835,-0.10277905681717878,0.6334852024600528,1.3697494617387436,2.1060137210188943,2.8422779803005023,3.57854223958358,4.2501788993305665,4.771015790573081,5.2918526818170895,5.8126895730625874,6.333526464309565,6.8543633555580321,7.3752002468079834,7.8960371380594188,8.4168740293123481,8.9377109205667615,9.4585478118226547,9.9793847030800471,10.500221594338919,11.021058485599285,11.541895376861126,12.062732268124467,12.583569159389281,13.104406050655598,13.625242941923398,14.146079833192674,14.557426798116373,14.804536286204566,15.051645774294268,15.298755262385484,15.545864750478247,15.7929742385725,16.040083726668293,16.287193214765619,16.534302702864441,16.78141219096478,17.028521679066646,17.275631167170033,17.522740655274955,17.769850143381369,18.016959631489332,18.264069119598783,18.511178607709784,18.758288095822298,19.005397583936325,19.25250707205187,19.187759137014993,19.112437455846287,19.037115774679137,18.961794093513529,18.886472412349459,18.811150731186942,18.735829050025977,18.660507368866572,18.585185687708691,18.509864006552373,18.434542325397619,18.359220644244402,18.283898963092724,18.208577281942606,18.13325560079403,18.057933919647013,17.982612238501527,17.907290557357612,17.6153530850693,17.17900167284882,16.742650260629969,16.306298848412744,15.869947436197137,15.433596023983142,14.997244611770803,14.560893199560054,14.124541787350942,13.688190375143481,13.251838962937613,12.81548755073338,12.379136138530766,11.942784726329792,11.506433314130421,11.070081901932696,10.633730489736582,10.197379077542102,9.7610276653492427,9.3246762531580263,8.6153439307594155,7.78901610360769,6.9626882764575662,6.1363604493090564,5.3100326221621357,4.4837047950168456,3.6573769678731436,2.8310491407310252,2.0047213135905397,1.1783934864516292,0.35206565931434208,-0.47426216782135233,-1.3005899949554287,-2.1269178220879295,-2.953245649218796,-3.7795734763480793,-4.6059013034757488,-5.4322291306018116,-6.258556957726281,-7.084884784849141,-8.2389030322059984,-9.4748477563580913,-10.710792480508461,-11.946737204657099,-13.182681928804028,-14.418626652949227,-15.654571377092708,-16.890516101234425,-18.126460825374448,-19.362405549512768,-20.598350273649306,-21.834294997784149,-23.070239721917225,-24.306184446048633,-25.542129170178271,-26.778073894306235,-28.014018618432409,-29.249963342556907,-30.485908066679652,-31.721852790800682,-33.3368576534773,-34.99398429037533,-36.651110927271553,-38.308237564165957,-39.965364201058705,-41.622490837949627,-43.279617474838787,-44.936744111726163,-46.593870748611813,-48.250997385495722,-49.908124022377827,-51.56525065925824,-53.222377296136848,-54.879503933013673,-56.5366305698887,-58.193757206762058,-59.850883843633653,-61.508010480503373,-63.165137117371479,-64.822263754237682,0,0.036454244970864171,0.0993978110715588,0.20280889289926526,0.35564477963163016,0.55877688941378745,0.81246586254213471,1.1165334132136011,1.4703208306697579,1.8725026087122014,2.1711538892080573,2.864775744608794
DP 533,249.22974608894449,0.004091609646322443,-66.28548362602605,-64.8748677393574,-63.464251852686822,-62.053635966014163,-60.643020079339479,-59.232404192662813,-57.8217883059841,-56.411172419303291,-55.000556532620493,-53.589940645935691,-52.179324759248793,-50.768708872559891,-49.358092985869021,-47.947477099176041,-46.536861212481043,-45.126245325784019,-43.715629439084985,-42.305013552383919,-40.894397665680827,-39.483781778975676,-38.084471906559372,-36.7869172314519,-35.489362556342414,-34.191807881230886,-32.894253206117313,-31.596698531001692,-30.299143855884004,-29.001589180764288,-27.704034505642568,-26.406479830518798,-25.108925155392949,-23.811370480265069,-22.513815805135149,-21.21626113000319,-19.9187064548692,-18.621151779733154,-17.323597104595077,-16.026042429454947,-14.728487754312773,-13.430933079168573,-12.179135728262461,-11.110369836869676,-10.041603945474828,-8.9728380540779114,-7.9040721626789452,-6.8353062712779149,-5.7665403798748107,-4.6977744884696371,-3.6290085970624069,-2.5602427056531085,-1.4914768142417407,-0.42271092282830014,0.6460549685871978,1.7148208600047654,2.7835867514243935,3.8523526428460917,4.9211185342698558,5.98988442569568,7.05865031712356,8.1274162085535142,9.0983143346009747,9.8408512578549239,10.583388181110983,11.325925104369134,12.068462027629385,12.810998950891735,13.553535874156175,14.296072797422738,15.038609720691364,15.781146643962112,16.523683567234947,17.266220490509905,18.008757413786917,18.751294337066049,19.493831260347303,20.236368183630624,20.978905106916059,21.721442030203605,22.463978953493239,23.206515876784962,23.786540604602827,24.122793198942595,24.459045793284467,24.795298387628517,25.131550981974652,25.467803576322915,25.804056170673324,26.14030876502585,26.476561359380504,26.812813953737297,27.149066548096215,27.485319142457289,27.821571736820424,28.157824331185736,28.494076925553184,28.830329519922746,29.166582114294439,29.502834708668246,29.839087303044206,30.175339897422276,30.015210308720974,29.883907070487037,29.752603832255261,29.621300594025648,29.489997355798195,29.358694117572927,29.22739087934977,29.096087641128836,28.964784402910002,28.83348116469336,28.702177926478868,28.570874688266539,28.439571450056345,28.308268211848365,28.176964973642505,28.045661735438809,27.914358497237266,27.783055259037891,27.34520799799828,26.702993225859213,26.060778453722403,25.418563681587838,24.776348909455528,24.134134137325429,23.491919365197628,22.849704593072023,22.207489820948691,21.565275048827612,20.923060276708775,20.280845504592186,19.63863073247785,18.996415960365777,18.354201188255924,17.711986416148338,17.069771644042977,16.427556871939888,15.785342099839035,15.143127327740448,14.123435161269763,12.941961871518689,11.760488581769826,10.5790152920232,9.3975420022787546,8.2160687125365683,7.0345954227965848,5.853122133058779,4.6716488433232453,3.4901755535898822,2.3087022638587653,1.1272289741298489,-0.054244315596831766,-1.2357176053213355,-2.4171908950435737,-3.5986641847636318,-4.7801374744814522,-5.9616107641970482,-7.14308405391045,-8.32455734362163,-9.95058179867411,-11.6877492975349,-13.424916796393331,-15.162084295249386,-16.899251794103087,-18.636419292954422,-20.373586791803408,-22.110754290649972,-23.847921789494212,-25.585089288336103,-27.322256787175597,-29.059424286012753,-30.796591784847468,-32.533759283679927,-34.270926782509939,-36.00809428133762,-37.745261780162934,-39.4824292789859,-41.219596777806451,-42.9567642766247,-45.2017001146348,-47.503059989795538,-49.804419864953879,-52.105779740109696,-54.407139615263226,-56.708499490414326,-59.009859365563,-61.3112192407092,-63.61257911585313,-65.913938990994552,-68.215298866133622,-70.516658741270277,-72.818018616404487,-75.119378491536381,-77.420738366665759,-79.722098241792722,-82.02345811691734,-84.324817992039527,-86.626177867159441,-88.927537742276655,0,0.0483148239460995,0.13414140926277557,0.27651051783345043,0.48711026594442119,0.76716483837855287,1.1170592324256263,1.5365517842840106,2.0247206492226684,2.5797095316034486,2.9919191700114629,3.9487363873916079
DP 534,299.494744822348,0.0028483477457163071,-52.074767234231359,-50.927774878823364,-49.780782523413876,-48.633790168002733,-47.4867978125901,-46.339805457175842,-45.192813101760073,-44.045820746342756,-42.898828390923867,-41.751836035503381,-40.604843680081373,-39.457851324657746,-38.310858969232591,-37.163866613805851,-36.016874258377591,-34.869881902947753,-33.722889547516331,-32.575897192083382,-31.428904836648833,-30.281912481212743,-29.14465836807986,-28.095049356188934,-27.045440344296459,-25.995831332402407,-24.946222320506784,-23.896613308609606,-22.847004296710846,-21.797395284810513,-20.747786272908627,-19.698177261005167,-18.648568249100123,-17.59895923719353,-16.549350225285359,-15.49974121337563,-14.450132201464333,-13.400523189551457,-12.350914177637032,-11.30130516572102,-10.251696153803453,-9.2020871418843164,-8.1914871023317453,-7.3369247958685042,-6.4823624894036787,-5.627800182937281,-4.7732378764693149,-3.9186755699997629,-3.06411326352864,-2.2095509570559368,-1.3549886505816646,-0.50042634410581266,0.35413596237161971,1.2086982688506318,2.0632605753312161,2.9178228818133758,3.7723851882971156,4.6269474947824376,5.4815098012693255,6.3360721077577864,7.19063441424782,8.04519672073944,8.817712789457806,9.3987850516344285,9.9798573138126514,10.560929575992473,11.142001838173893,11.723074100356913,12.304146362541541,12.885218624727761,13.466290886915585,14.047363149105012,14.628435411296042,15.209507673488654,15.790579935682882,16.371652197878714,16.952724460076137,17.533796722275167,18.114868984475784,18.695941246678029,19.277013508881844,19.858085771087278,20.305934553345359,20.553944967526256,20.801955381708794,21.049965795892913,21.297976210078687,21.545986624266042,21.793997038455039,22.042007452645642,22.290017866837875,22.538028281031703,22.78603869522717,23.034049109424245,23.282059523622916,23.530069937823203,23.778080352025135,24.026090766228688,24.274101180433824,24.522111594640592,24.770122008848965,25.018132423058965,24.829197271317408,24.704020422297287,24.578843573278768,24.453666724261886,24.328489875246643,24.203313026233044,24.078136177221115,23.952959328210778,23.827782479202074,23.702605630195034,23.5774287811896,23.452251932185831,23.32707508318369,23.201898234183179,23.0767213851843,22.951544536187061,22.826367687191464,22.70119083819748,22.3383335172085,21.817018803873307,21.295704090539839,20.774389377208042,20.253074663877939,19.73175995054952,19.210445237222824,18.68913052389782,18.167815810574488,17.646501097252877,17.125186383932959,16.60387167061474,16.082556957298205,15.561242243983385,15.039927530670242,14.518612817358809,13.997298104049053,13.475983390740996,12.954668677434668,12.433353964130013,11.627574508606028,10.699877750970593,9.7721809933368178,8.8444842357047229,7.9167874780742826,6.9890907204455521,6.0613939628184736,5.13369720519304,4.2060004475693162,3.278303689947236,2.3506069323268415,1.4229101747081112,0.4952134170910692,-0.43248334052433346,-1.3601800981380281,-2.2878768557500764,-3.2155736133604402,-4.1432703709691268,-5.0709671285761573,-5.9986638861815065,-7.2533067653669709,-8.5896900378901186,-9.9260733104114962,-11.262456582931089,-12.59883985544892,-13.935223127964962,-15.271606400479248,-16.607989672991732,-17.944372945502444,-19.280756218011426,-20.617139490518575,-21.953522763023997,-23.289906035527576,-24.62628930802947,-25.962672580529517,-27.299055853027831,-28.635439125524343,-29.971822398019096,-31.308205670512081,-32.644588943003264,-34.348269571231093,-36.092764874273733,-37.837260177314612,-39.581755480353614,-41.326250783390861,-43.070746086426318,-44.815241389459914,-46.559736692491711,-48.304231995521768,-50.048727298549977,-51.793222601576353,-53.537717904601024,-55.282213207623805,-57.026708510644809,-58.771203813663945,-60.515699116681418,-62.260194419697029,-64.0046897227108,-65.749185025722838,-67.493680328732921,0,0.035635582632645421,0.09983559599999467,0.20688937565860988,0.3653334101017443,0.57609893813189594,0.83948594360591466,1.1553138331044446,1.5228834278046577,1.9407867179577851,2.2512023563303463,2.9715025254954766
DP 535,72.187910716547378,0.0025360968842086467,-16.988777918361322,-16.760219090441392,-16.5316602625213,-16.303101434601032,-16.074542606680595,-15.845983778760012,-15.617424950839231,-15.388866122918298,-15.160307294997191,-14.931748467075938,-14.703189639154489,-14.474630811232903,-14.246071983311129,-14.017513155389203,-13.78895432746708,-13.560395499544809,-13.331836671622376,-13.10327784369977,-12.874719015776998,-12.646160187854058,-12.41925407343888,-12.207222536816479,-11.99519100019389,-11.783159463571117,-11.571127926948149,-11.359096390324982,-11.147064853701636,-10.935033317078085,-10.723001780454354,-10.510970243830439,-10.298938707206307,-10.086907170582007,-9.8748756339575063,-9.66284409733282,-9.4508125607079378,-9.2387810240828614,-9.0267494874576,-8.8147179508321525,-8.6026864142064987,-8.39065487758067,-8.1854279548528321,-8.00741980931305,-7.8294116637730209,-7.6514035182327236,-7.4733953726921563,-7.2953872271513509,-7.117379081610264,-6.9393709360689275,-6.7613627905273255,-6.5833546449854632,-6.4053464994433353,-6.2273383539009526,-6.0493302083582954,-5.8713220628153895,-5.6933139172722189,-5.5153057717287846,-5.33729762618509,-5.1592894806411387,-4.9812813350969254,-4.8032731895524483,-4.6402660597354553,-4.5122617725935594,-4.3842574854513838,-4.2562531983089444,-4.12824891116623,-4.0002446240232494,-3.8722403368799951,-3.7442360497364673,-3.6162317625926756,-3.4882274754486104,-3.3602231883042748,-3.2322189011596705,-3.1042146140147926,-2.9762103268696429,-2.8482060397242264,-2.7202017525785389,-2.5921974654325797,-2.4641931782863491,-2.3361888911398485,-2.2081846039930793,-2.1060588237882474,-2.042751415521967,-1.979444007255363,-1.9161365989884338,-1.8528291907211831,-1.7895217824536078,-1.72621437418571,-1.6629069659174898,-1.5995995576489466,-1.5362921493800772,-1.4729847411108861,-1.4096773328413734,-1.3463699245715359,-1.283062516301376,-1.2197551080308917,-1.1564476997600861,-1.0931402914889568,-1.029832883217501,-0.96652547494572461,-0.90321806667362525,-0.90786528591960336,-0.92238580240003287,-0.93690631888011056,-0.95142683535983485,-0.96594735183920455,-0.98046786831822252,-0.9949883847968829,-1.009508901275195,-1.0240294177531502,-1.0385499342307536,-1.0530704507080029,-1.0675909671848967,-1.0821114836614421,-1.0966320001376291,-1.1111525166134639,-1.1256730330889468,-1.1401935495640751,-1.1547140660388493,-1.2226341885866634,-1.3261548897584436,-1.4296755909298056,-1.533196292100756,-1.6367169932712882,-1.7402376944414046,-1.8437583956111032,-1.9472790967803866,-2.0507997979492574,-2.1543204991177083,-2.25784120028574,-2.3613619014533613,-2.4648826026205657,-2.5684033037873504,-2.6719240049537207,-2.7754447061196728,-2.8789654072852162,-2.982486108450336,-3.0860068096150388,-3.1895275107793273,-3.3616793460334193,-3.56324545120299,-3.7648115563721465,-3.9663776615408874,-4.167943766709219,-4.3695098718771268,-4.5710759770446234,-4.7726420822117142,-4.9742081873783786,-5.1757742925446335,-5.3773403977104772,-5.5789065028759053,-5.7804726080409141,-5.9820387132055171,-6.1836048183696928,-6.3851709235334626,-6.5867370286968105,-6.7883031338597526,-6.9898692390222807,-7.1914353441843932,-7.4766643193614835,-7.7828100005380829,-8.0889556817141788,-8.39510136288977,-8.70124704406486,-9.00739272523945,-9.3135384064135369,-9.6196840875871121,-9.9258297687601882,-10.231975449932776,-10.538121131104839,-10.844266812276407,-11.150412493447469,-11.456558174618044,-11.762703855788093,-12.068849536957654,-12.374995218126715,-12.681140899295261,-12.987286580463314,-13.293432261630858,-13.697355730335397,-14.112144424558426,-14.526933118780921,-14.941721813002877,-15.356510507224295,-15.771299201445171,-16.186087895665533,-16.600876589885338,-17.015665284104635,-17.4304539783234,-17.845242672541627,-18.260031366759318,-18.674820060976472,-19.089608755193105,-19.5043974494092,-19.919186143624742,-20.333974837839786,-20.748763532054269,-21.163552226268237,-21.578340920481633,0,0.017825432702833859,0.037987731151128731,0.065977815758930233,0.10639009817329403,0.15960421641162903,0.22568140708779927,0.30459732840382031,0.39625446406936027,0.50041175937098037,0.57689804772943387,0.75555203534900894
DP 536,111.12843363955724,0.0010146342382112347,-9.6464314311236272,-9.4800865447374179,-9.3137416583509989,-9.1473967719643614,-8.98105188557752,-8.8147069991904612,-8.6483621128031967,-8.4820172264157137,-8.3156723400280246,-8.14932745364012,-7.982982567251999,-7.8166376808636668,-7.6502927944751242,-7.4839479080863667,-7.3176030216974013,-7.1512581353082254,-6.9849132489188319,-6.8185683625292342,-6.6522234761394126,-6.4858785897493823,-6.320742294168201,-6.1664834301094569,-6.0122245660504863,-5.8579657019913105,-5.7037068379318994,-5.5494479738722822,-5.3951891098124412,-5.24093024575238,-5.086671381692101,-4.9324125176316027,-4.7781536535708815,-4.6238947895099445,-4.4696359254487854,-4.3153770613874061,-4.1611181973258082,-4.0068593332639937,-3.8526004692019526,-3.6983416051396967,-3.5440827410772222,-3.3898238770145288,-3.2405422005535112,-3.1111695097286924,-2.9817968189036255,-2.8524241280783222,-2.7230514372527757,-2.59367874642699,-2.4643060556009653,-2.3349333647746988,-2.2055606739481934,-2.0761879831214478,-1.946815292294461,-1.8174426014672338,-1.6880699106397663,-1.5586972198120586,-1.4293245289841099,-1.2999518381559225,-1.170579147327494,-1.0412064564988261,-0.911833765669918,-0.7824610748407701,-0.66404437226560031,-0.57119198747875688,-0.47833960269166687,-0.38548721790433149,-0.2926348331167512,-0.19978244832892456,-0.10693006354085252,-0.014077678752534059,0.0787747060360293,0.17162709082483885,0.26447947561389257,0.35733186040319281,0.45018424519273953,0.54303662998253122,0.63588901477256843,0.72874139956285178,0.82159378435338115,0.91444616914415577,1.0072985539351762,1.1001509387264414,1.1741289368006282,1.2197949087853466,1.2654608807703271,1.3111268527555711,1.3567928247410774,1.4024587967268445,1.4481247687128751,1.4937907406991673,1.5394567126857219,1.5851226846725388,1.6307886566596184,1.67645462864696,1.7221206006345642,1.7677865726224304,1.813452544610558,1.8591185165989499,1.9047844885876015,1.9504504605765185,1.9961164325656962,2.0417824045551352,2.0371444613035568,2.0261559825042408,2.015167503705197,2.0041790249064277,1.9931905461079331,1.98220206730971,1.9712135885117603,1.9602251097140846,1.9492366309166806,1.9382481521195505,1.9272596733226921,1.9162711945261079,1.9052827157297973,1.8942942369337592,1.8833057581379922,1.8723172793425011,1.8613288005472808,1.8503403217523362,1.8005495993334364,1.7248901032192423,1.6492306071053466,1.5735711109917454,1.4979116148784437,1.4222521187654369,1.3465926226527312,1.2709331265403188,1.195273630428203,1.1196141343163861,1.0439546382048679,0.96829514209364564,0.89263564598272116,0.81697614987209488,0.74131665376176326,0.66565715765173128,0.58999766154199307,0.51433816543255528,0.43867866932341504,0.36301917321457172,0.23758063587380254,0.090807551547201118,-0.055965532779106743,-0.20273861710511881,-0.34951170143084009,-0.49628478575626134,-0.64305787008138959,-0.78983095440622908,-0.936604038730768,-1.0833771230550178,-1.2301502073789687,-1.3769232917026282,-1.5236963760259916,-1.6704694603490642,-1.8172425446718359,-1.9640156289943191,-2.1107887133165057,-2.2575617976383966,-2.404334881959993,-2.5511079662812985,-2.7584916850759229,-2.9810287786172829,-3.2035658721583116,-3.4261029656990112,-3.6486400592393786,-3.8711771527794174,-4.0937142463191272,-4.3162513398584972,-4.5387884333975475,-4.7613255269362691,-4.9838626204746515,-5.2063997140127043,-5.4289368075504276,-5.6514739010878312,-5.874010994624892,-6.0965480881616267,-6.3190851816980267,-6.5416222752341033,-6.7641593687698522,-6.9866964623052583,-7.2800021108051709,-7.5811716753199416,-7.8823412398343793,-8.1835108043484617,-8.48468036886221,-8.7858499333756139,-9.0870194978886776,-9.3881890624013842,-9.6893586269137675,-9.9905281914258079,-10.2916977559375,-10.592867320448857,-10.894036884959865,-11.195206449470531,-11.496376013980861,-11.797545578490841,-12.098715143000495,-12.399884707509777,-12.701054272018766,-13.002223836527358,0,0.0083542265569388329,0.020673094378364367,0.039913841468323427,0.068222639019459408,0.10575950741762821,0.15255724846687344,0.2085812748699219,0.2737210404355338,0.34775271333818453,0.4026161920275117,0.530343958143194
DP 537,292.83962939086484,0.0022528705585903416,-40.566923072511756,-39.677105308306309,-38.78728754409962,-37.897469779891729,-37.007652015682595,-36.117834251472217,-35.228016487260639,-34.33819872304786,-33.448380958833809,-32.558563194618571,-31.668745430402069,-30.778927666184394,-29.889109901965476,-28.999292137745321,-28.109474373523962,-27.219656609301378,-26.329838845077575,-25.440021080852542,-24.5502033166263,-23.660385552398793,-22.778063812423177,-21.9632069992803,-21.148350186136216,-20.333493372990919,-19.518636559844374,-18.7037797466966,-17.888922933547615,-17.07406612039739,-16.259209307245939,-15.444352494093271,-14.629495680939375,-13.814638867784236,-12.999782054627893,-12.18492524147031,-11.3700684283115,-10.55521161515146,-9.7403548019902022,-8.9254979888277148,-8.1106411756639876,-7.2957843624990568,-6.5109969654599613,-5.846488654050451,-5.1819803426397044,-4.5174720312277241,-3.852963719814511,-3.1884554084000638,-2.5239470969843825,-1.8594387855674617,-1.1949304741493139,-0.5304221627299287,0.13408614869069316,0.79859446011255353,1.4631027715356419,2.1276110829599695,2.7921193943855327,3.456627705812326,4.1211360172403539,4.7856443286696129,5.450152640100109,6.114660951531838,6.7157819195640256,7.168997089154642,7.6222122587465124,8.0754274283396459,8.5286425979340148,8.9818577675296574,9.4350729371265381,9.8882881067246764,10.341503276324071,10.794718445924723,11.247933615526607,11.70114878512976,12.154363954734176,12.60757912433983,13.06079429394674,13.514009463554904,13.967224633164333,14.420439802775002,14.873654972386923,15.326870142000109,15.676843891633681,15.871953071636952,16.067062251641481,16.262171431647293,16.457280611654369,16.652389791662696,16.847498971672298,17.042608151683151,17.2377173316953,17.432826511708704,17.627935691723369,17.823044871739317,18.018154051756511,18.21326323177497,18.408372411794712,18.603481591815704,18.798590771837969,18.993699951861512,19.188809131886323,19.383918311912367,19.243563525270474,19.148399225869063,19.053234926468924,18.958070627070086,18.862906327672512,18.767742028276221,18.672577728881222,18.5774134294875,18.482249130095063,18.387084830703913,18.291920531314052,18.196756231925427,18.101591932538124,18.006427633152107,17.911263333767362,17.816099034383893,17.720934735001727,17.625770435620815,17.344978641829737,16.940432260776607,16.53588587972482,16.13133949867435,15.726793117625206,15.322246736577393,14.917700355530926,14.513153974485784,14.108607593441953,13.704061212399452,13.299514831358307,12.894968450318483,12.49042206927998,12.085875688242821,11.681329307206973,11.276782926172469,10.872236545139289,10.467690164107445,10.063143783076924,9.6585974020477483,9.0309810769243342,8.3077603350498563,7.58453959317668,6.8613188513048318,6.1380981094342779,5.4148773675650563,4.6916566256971324,3.9684358838305007,3.245215141965208,2.5219944001012036,1.7987736582385245,1.0755529163771469,0.35233217451709342,-0.37088856734167408,-1.0941093091991023,-1.8173300510552404,-2.5405507929100577,-3.2637715347635585,-3.9869922766157635,-4.7102130184666473,-5.6907249783527094,-6.7355627827017184,-7.7804005870493356,-8.8252383913955654,-9.8700761957404026,-10.914914000083835,-11.959751804425903,-13.004589608766549,-14.049427413105809,-15.094265217443697,-16.139103021780162,-17.183940826115261,-18.228778630448932,-19.273616434781271,-20.318454239112157,-21.363292043441682,-22.408129847769811,-23.452967652096547,-24.49780545642189,-25.542643260745823,-26.877230549130186,-28.244015267702885,-29.610799986274166,-30.977584704844016,-32.344369423412473,-33.711154141979506,-35.077938860545125,-36.444723579109251,-37.811508297672106,-39.178293016233461,-40.5450777347934,-41.911862453351979,-43.278647171909114,-44.645431890464813,-46.012216609019092,-47.379001327571977,-48.745786046123534,-50.112570764673521,-51.479355483222228,-52.846140201769359,0,0.028006741095211424,0.078389192334186522,0.16235458622575075,0.28661934976320769,0.45191297744575054,0.6584698849760755,0.9061483363772509,1.1944003887302534,1.5221229073665892,1.7655510956387828,2.3304315934932447
DP 538,266.468839345161,0.0012054178253869568,-20.390323172070211,-19.95087052498851,-19.511417877906212,-19.071965230823263,-18.6325125837397,-18.193059936655526,-17.753607289570695,-17.314154642485271,-16.874701995399224,-16.435249348312563,-15.995796701225261,-15.556344054137337,-15.11689140704879,-14.677438759959639,-14.237986112869855,-13.798533465779437,-13.359080818688408,-12.919628171596749,-12.480175524504476,-12.040722877411579,-11.604861012169335,-11.201316523004186,-10.79777203383841,-10.394227544672017,-9.9906830555049861,-9.5871385663373356,-9.1835940771690581,-8.7800495880001623,-8.3765050988306253,-7.9729606096604853,-7.5694161204897075,-7.1658716313183088,-6.7623271421462787,-6.358782652973626,-5.9552381638003533,-5.5516936746264438,-5.1481491854519161,-4.7446046962767605,-4.3410602071009841,-3.93751571792458,-3.5484538076758576,-3.2173228976065742,-2.8861919875366637,-2.5550610774661227,-2.2239301673949488,-1.8927992573231449,-1.5616683472507107,-1.230537437177643,-0.89940652710394831,-0.56827561702962093,-0.237144706954662,0.093986203120930312,0.42511711319715134,0.75624802327400409,1.0873789333514876,1.4185098434296008,1.7496407535083467,2.0807716635877211,2.4119025736677258,2.7430334837483614,3.0433619513864909,3.2718170828178,3.5002722142497538,3.72872734568234,3.9571824771155715,4.1856376085494515,4.4140927399839622,4.6425478714191195,4.8710030028549154,5.099458134291349,5.3279132657284292,5.5563683971661417,5.7848235286045062,6.0132786600435,6.2417337914831448,6.4701889229234268,6.698644054364344,6.9270991858059121,7.1555543172481162,7.38400944869096,7.5616954431504881,7.6632265324277888,7.7647576217057495,7.86628871098435,7.967819800263598,8.069350889543502,8.170881978824049,8.2724130681052426,8.3739441573870934,8.47547524666959,8.5770063359527313,8.6785374252365273,8.7800685145209787,8.8815996038060554,8.9831306930917947,9.0846617823781859,9.18619287166523,9.287723960952917,9.3892550502412462,9.4907861395302362,9.4334137205381783,9.3901582613758716,9.346902802214224,9.3036473430532372,9.2603918838929147,9.217136424733237,9.1738809655742237,9.13062550641587,9.0873700472581689,9.0441145881011273,9.0008591289447448,8.9576036697890213,8.9143482106339533,8.8710927514795461,8.8278372923257891,8.7845818331727,8.741326374020252,8.6980709148684738,8.5607803921436876,8.360798345635656,8.160816299128312,7.9608342526216411,7.7608522061156533,7.5608701596103529,7.360888113105748,7.16090606660181,6.9609240200985578,6.7609419735959939,6.5609599270941183,6.3609778805929169,6.1609958340924056,5.9610137875925826,5.7610317410934284,5.56104969459497,5.3610676480971886,5.1610856016000959,4.9611035551036844,4.7611215086079586,4.4463988374888066,4.0825000636036952,3.71860128971925,3.3547025158354833,2.9908037419523823,2.6269049680699719,2.2630061941882285,1.8991074203071461,1.5352086464267558,1.1713098725470241,0.80741109866797511,0.44351232478959635,0.079613550911897257,-0.28428522296514047,-0.64818399684148964,-1.0120827707171753,-1.3759815445921806,-1.7398803184665113,-2.1037790923401749,-2.4676778662131618,-2.9656658383091314,-3.4971776942551749,-4.0286895502004993,-4.5602014061451053,-5.0917132620889989,-5.6232251180321722,-6.1547369739746349,-6.6862488299163667,-7.2177606858573808,-7.7492725417976969,-8.2807843977372784,-8.8122962536761484,-9.3438081096142849,-9.8753199655517321,-10.406831821488426,-10.938343677424438,-11.469855533359716,-12.001367389294272,-12.532879245228115,-13.06439110116124,-13.748264284492949,-14.449068104364775,-15.149871924235885,-15.85067574410624,-16.551479563975896,-17.252283383844805,-17.95308720371299,-18.653891023580428,-19.354694843447163,-20.055498663313134,-20.756302483178413,-21.457106303042945,-22.157910122906756,-22.858713942769814,-23.559517762632161,-24.260321582493766,-24.961125402354664,-25.661929222214791,-26.362733042074243,-27.063536861932924,0,0.014558435734776646,0.040568440783529856,0.083803423456840276,0.14777200489242354,0.23284764033311189,0.33914897633519708,0.46660277737409611,0.61492808767519525,0.78355939459292923,0.90881204658651771,1.199510291080043
DP 539,153.68064585605561,0.0036225875272115895,-43.222610966688642,-42.394496184406556,-41.566381402123277,-40.738266619838789,-39.910151837553137,-39.082037055266248,-38.253922272978187,-37.425807490688918,-36.597692708398483,-35.76957792610682,-34.941463143814012,-34.113348361519982,-33.28523357922478,-32.457118796928356,-31.629004014630745,-30.800889232331961,-29.972774450031938,-29.14465966773076,-28.3165448854284,-27.48843010312482,-26.666428489853306,-25.899445975722927,-25.132463461591296,-24.365480947458476,-23.598498433324444,-22.831515919189176,-22.064533405052703,-21.297550890915023,-20.530568376776138,-19.763585862636035,-18.996603348494716,-18.229620834352179,-17.462638320208448,-16.695655806063495,-15.928673291917315,-15.161690777769941,-14.394708263621345,-13.62772574947153,-12.860743235320513,-12.093760721168278,-11.351888268317765,-10.710457247414237,-10.069026226509404,-9.4275952056033319,-8.78616418469599,-8.144733163787377,-7.5033021428775077,-6.8618711219663719,-6.2204401010539714,-5.5790090801403069,-4.937578059225368,-4.29614703830917,-3.6547160173917121,-3.0132849964729838,-2.3718539755529919,-1.7304229546317358,-1.0889919337092158,-0.44756091278543408,0.19387010813961097,0.83530112906592258,1.4217198674896305,1.8797748801081611,2.3378298927279872,2.7958849053490984,3.253939917971497,3.7119949305951825,4.1700499432201568,4.6281049558464256,5.0861599684739742,5.5442149811028214,6.0022699937329458,6.4603250063643607,6.9183800189970688,7.376435031631063,7.8344900442663512,8.2925450569029167,8.7506000695407824,9.2086550821799378,9.6667100948203615,10.124765107462085,10.488590818412575,10.711070350127402,10.933549881843552,11.156029413561047,11.378508945279874,11.600988477000032,11.823468008721521,12.045947540444347,12.268427072168512,12.490906603894002,12.71338613562083,12.935865667348988,13.1583451990785,13.380824730809318,13.603304262541489,13.825783794274992,14.048263326009828,14.270742857745994,14.493222389483488,14.715701921222331,14.680691397823733,14.622190750945553,14.563690104068719,14.505189457193302,14.44668881031923,14.388188163446506,14.329687516575177,14.271186869705202,14.2126862228366,14.154185575969366,14.095684929103509,14.037184282239012,13.978683635375877,13.920182988514121,13.861682341653717,13.803181694794706,13.744681047937043,13.686180401080751,13.436497574728788,13.059356950217532,12.682216325707747,12.305075701199401,11.927935076692505,11.550794452187059,11.173653827683069,10.796513203180536,10.419372578679445,10.042231954179806,9.6650913296816316,9.2879507051848975,8.9108100806896182,8.5336694561957991,8.1565288317034117,7.7793882072124978,7.4022475827230121,7.0251069582349954,6.6479663337484327,6.2708257092633177,5.6499016110263929,4.9244955893451046,4.1990895676652462,3.4736835459868316,2.748277524309827,2.0228715026342923,1.29746548096018,0.57205945928747615,-0.1533465623837629,-0.87875258405359313,-1.6041586057219737,-2.329564627388927,-3.0549706490544333,-3.7803766707185327,-4.5057826923811684,-5.23118871404239,-5.9565947357021676,-6.6820007573605027,-7.40740677901743,-8.1328128006728981,-9.153641922119,-10.248330309003784,-11.343018695887004,-12.437707082768643,-13.532395469648739,-14.627083856527255,-15.721772243404219,-16.8164606302796,-17.911149017153434,-19.005837404025716,-20.100525790896395,-21.195214177765553,-22.289902564633088,-23.384590951499128,-24.479279338363561,-25.573967725226435,-26.668656112087749,-27.763344498947493,-28.858032885805681,-29.952721272662316,-31.391266867587252,-32.868022430296854,-34.344777993004847,-35.821533555711156,-37.298289118415944,-38.775044681119091,-40.251800243820661,-41.728555806520525,-43.205311369218883,-44.682066931915642,-46.158822494610725,-47.635578057304315,-49.112333619996143,-50.58908918268655,-52.065844745375209,-53.542600308062347,-55.019355870747852,-56.496111433431658,-57.972866996114014,-59.449622558794658,0,0.034842384678622662,0.092247328298469752,0.18517354998593152,0.32234102534251541,0.50451486221590425,0.73190315493459412,1.0043422457714548,1.3212560214598128,1.6814850846818,1.9488632134840775,2.5703482272997951
DP 540,189.69867550980632,0.0028043463895906667,-38.274985713193246,-37.504039561278177,-36.733093409362034,-35.962147257444734,-35.1912011055263,-34.420254953606722,-33.649308801686004,-32.878362649764156,-32.107416497841157,-31.336470345917046,-30.565524193991784,-29.794578042065375,-29.023631890137857,-28.252685738209173,-27.48173958627936,-26.7107934343484,-25.939847282416324,-25.168901130483111,-24.397954978548725,-23.627008826613249,-22.861894179299021,-22.14926362480459,-21.436633070309004,-20.724002515812256,-20.011371961314364,-19.298741406815331,-18.586110852315137,-17.873480297813792,-17.160849743311303,-16.448219188807666,-15.735588634302866,-15.022958079796918,-14.310327525289827,-13.597696970781584,-12.885066416272204,-12.172435861761665,-11.459805307249971,-10.747174752737127,-10.034544198223129,-9.321913643708,-8.63313150645394,-8.03974416535707,-7.4463568242590039,-6.8529694831597672,-6.2595821420593492,-5.6661948009577632,-5.072807459854987,-4.479420118751035,-3.8860327776459065,-3.2926454365395972,-2.6992580954321048,-2.1058707543234321,-1.512483413213584,-0.91909607210255484,-0.32570873099034614,0.26767861012304184,0.861065951237608,1.4544532923533495,2.04784063347027,2.641227974588372,3.1827377573507212,3.6031982694178657,4.0236587814862155,4.4441192935557616,4.8645798056265042,5.2850403176984448,5.7055008297715908,6.1259613418459358,6.5464218539214842,6.9668823659982193,7.387342878076165,7.8078033901553106,8.2282639022356463,8.6487244143171917,9.06918492639993,9.48964543848387,9.9101059505690152,10.33056646265536,10.751026974742897,11.171487486831632,11.503891061756732,11.704207150094453,11.904523238433406,12.104839326773584,12.305155415114996,12.505471503457642,12.705787591801506,12.906103680146595,13.106419768492925,13.306735856840476,13.507051945189255,13.70736803353927,13.907684121890501,14.108000210242963,14.308316298596667,14.508632386951584,14.708948475307741,14.909264563665124,15.109580652023721,15.309896740383556,15.261148607654626,15.201585645610114,15.142022683566855,15.082459721524867,15.022896759484109,14.96333379744461,14.903770835406355,14.844207873369376,14.784644911333626,14.725081949299128,14.66551898726591,14.605956025233919,14.546393063203192,14.486830101173711,14.4272671391455,14.367704177118521,14.308141215092792,14.248578253068322,14.01403166863045,13.662826579275542,13.311621489921947,12.960416400569667,12.609211311218713,12.258006221869069,11.906801132520741,11.555596043173718,11.204390953828005,10.853185864483615,10.501980775140561,10.150775685798799,9.7995705964583664,9.4483655071192452,9.09716041778143,8.7459553284449321,8.3947502391097526,8.0435451497758823,7.6923400604433345,7.3411349711121092,6.7689549876847082,6.1020684943665566,5.4351820010496867,4.76829550773413,4.1014090144198523,3.4345225211068953,2.7676360277952274,2.1007495344848404,1.433863041175776,0.76697654786798919,0.10009005456151318,-0.5667964387436718,-1.233682932047548,-1.9005694253501473,-2.5674559186514232,-3.2343424119514208,-3.9012289052501106,-4.5681153985474978,-5.2350018918435923,-5.9018883851383874,-6.8344854205691865,-7.8335132309643791,-8.8325410413581817,-9.8315688517505784,-10.830596662141586,-11.829624472531176,-12.828652282919396,-13.82768009330618,-14.826707903691585,-15.825735714075609,-16.824763524458191,-17.823791334839409,-18.822819145219192,-19.821846955597618,-20.8208747659746,-21.819902576350227,-22.818930386724418,-23.817958197097219,-24.816986007468628,-25.816013817838655,-27.1227473611636,-28.463673662027059,-29.804599962889114,-31.145526263749684,-32.486452564608854,-33.827378865466585,-35.168305166322881,-36.50923146717772,-37.8501577680312,-39.191084068883228,-40.532010369733783,-41.87293667058298,-43.213862971430679,-44.554789272276984,-45.895715573121862,-47.236641873965311,-48.577568174807304,-49.918494475647869,-51.259420776487048,-52.6003470773247,0,0.029722129124381613,0.080790762617737918,0.16455935720598666,0.28834766912562493,0.45285942624572428,0.6583031683154299,0.9045341714616526,1.1910202152934166,1.5166908345004038,1.7585165720899356,2.3202107009274813
DP 541,184.18503558440878,0.001640635720401546,-21.981771322698581,-21.541862642939545,-21.101953963179856,-20.662045283419502,-20.22213660365853,-19.782227923896897,-19.342319244134611,-18.902410564371678,-18.4625018846081,-18.022593204843862,-17.582684525078989,-17.142775845313473,-16.702867165547289,-16.262958485780462,-15.823049806012994,-15.383141126244873,-14.943232446476097,-14.503323766706677,-14.063415086936606,-13.623506407165872,-13.186910789960926,-12.780133049018032,-12.373355308074455,-11.966577567130237,-11.559799826185365,-11.153022085239835,-10.746244344293642,-10.339466603346802,-9.9326888623993064,-9.5259111214511485,-9.1191333805023387,-8.7123556395528752,-8.3055778986027455,-7.8988001576519675,-7.4920224167005394,-7.0852446757484469,-6.678466934795698,-6.2716891938422972,-5.8649114528882365,-5.4581337119335291,-5.0649158552484232,-4.725938176502722,-4.3869604977563448,-4.0479828190092944,-3.7090051402615791,-3.3700274615131822,-3.0310497827641139,-2.6920721040143687,-2.3530944252639538,-2.0141167465128649,-1.6751390677610989,-1.3361613890086581,-0.99718371025554453,-0.65820603150175827,-0.31922835274729638,0.019749326007838547,0.35872700476364683,0.69770468352012749,1.0366823622772814,1.375660041035111,1.6851039379147075,1.9256347465430121,2.1661655551720065,2.4066963638016849,2.6472271724320491,2.8877579810630984,3.1282887896948322,3.3688195983272555,3.6093504069603655,3.8498812155941549,4.0904120242286295,4.3309428328637924,4.5714736414996446,4.8120044501361781,5.0525352587734034,5.2930660674113046,5.5335968760498986,5.7741276846891818,6.0146584933291418,6.2551893019697884,6.4455075397450079,6.5605057346668554,6.6755039295893965,6.7905021245126367,6.9055003194365865,7.0204985143612406,7.1354967092865973,7.2504949042126574,7.3654930991394192,7.4804912940668782,7.5954894889950406,7.7104876839239171,7.8254858788534909,7.940484073783761,8.0554822687147389,8.1704804636464257,8.2854786585788087,8.4004768535118952,8.5154750484456834,8.63047324338018,8.6043017294970152,8.5708332042921533,8.537364679088018,8.5038961538845985,8.4704276286818931,8.43695910347991,8.4034905782786389,8.3700220530780829,8.3365535278782534,8.3030850026791363,8.2696164774807279,8.23614795228305,8.202679427086089,8.1692109018898371,8.13574237669431,8.1022738514994952,8.0688053263053945,8.0353368011120168,7.9017113115676585,7.7013129346121065,7.50091455765731,7.3005161807032612,7.1001178037499724,6.8997194267974313,6.6993210498456506,6.4989226728946186,6.2985242959443406,6.0981259189948256,5.8977275420460584,5.6973291650980489,5.4969307881507925,5.2965324112042937,5.0961340342585366,4.895735657313546,4.695337280369305,4.4949389034258225,4.29454052648309,4.0941421495411179,3.7670384975817841,3.3856308739847454,3.0042232503884416,2.6228156267928915,2.241408003198075,1.8600003796040165,1.4785927560106982,1.0971851324181126,0.71577750882628688,0.33436988523519262,-0.047037738355149572,-0.42844536194475086,-0.8098529855336023,-1.191260609121721,-1.5726682327090811,-1.9540758562957083,-2.3354834798815833,-2.7168911034667147,-3.0982987270511058,-3.4797063506347512,-4.0136882564817249,-4.5858155355943317,-5.1579428147061392,-5.7300700938171376,-6.3021973729273411,-6.8743246520367336,-7.4464519311453339,-8.0185792102531153,-8.5907064893600982,-9.1628337684662853,-9.73496104757165,-10.307088326676226,-10.879215605779983,-11.451342884882967,-12.023470163985118,-12.595597443086472,-13.167724722187028,-13.739852001286781,-14.311979280385726,-14.884106559483858,-15.633088034972006,-16.401721834122615,-17.170355633272404,-17.938989432421383,-18.707623231569524,-19.476257030716859,-20.244890829863376,-21.013524629009048,-21.782158428153906,-22.550792227297954,-23.319426026441171,-24.088059825583581,-24.856693624725164,-25.625327423865937,-26.39396122300586,-27.162595022144995,-27.93122882128328,-28.699862620420756,-29.4684964195574,-30.237130218693217,0,0.017163404881807572,0.046511070035664279,0.094575725584070583,0.16559332652990472,0.25996651831509288,0.37781352148904468,0.51905101792329245,0.68337464830903172,0.87017167617032076,1.008871501235433,1.331060599961454
DP 542,103.89552437850264,0.0010122420218156194,-9.1432020694837934,-8.9899734293040385,-8.8367447891240936,-8.6835161489439567,-8.5302875087636369,-8.37705886858314,-8.2238302284024414,-8.0706015882215567,-7.91737294804049,-7.7641443078592323,-7.6109156676777836,-7.4576870274961626,-7.3044583873143409,-7.1512297471323381,-6.9980011069501513,-6.8447724667677692,-6.6915438265852,-6.5383151864024507,-6.3850865462195161,-6.231857906036387,-6.0797409869595969,-5.9376296629259864,-5.7955183388921832,-5.653407014858189,-5.5112956908239905,-5.3691843667896064,-5.2270730427550225,-5.0849617187202449,-4.942850394685272,-4.80073907065011,-4.6586277466147488,-4.5165164225791861,-4.3744050985434377,-4.23229377450749,-4.0901824504713513,-3.9480711264350132,-3.8059598023984869,-3.6638484783617589,-3.5217371543248381,-3.3796258302877242,-3.2420933520393613,-3.1228764733492285,-3.0036595946588784,-2.8844427159683121,-2.7652258372775269,-2.6460089585865276,-2.5267920798953067,-2.4075752012038745,-2.2883583225122233,-2.1691414438203545,-2.04992456512827,-1.9307076864359669,-1.8114908077434477,-1.6922739290507114,-1.5730570503577623,-1.4538401716645919,-1.3346232929712059,-1.2154064142776042,-1.0961895355837863,-0.97697265688975066,-0.867839182942603,-0.78223397110764536,-0.6966287592724637,-0.61102354743706155,-0.52541833560143747,-0.4398131237655909,-0.35420791192952295,-0.26860270009323239,-0.18299748825672066,-0.097392276419986656,-0.011787064583031425,0.073818147254145511,0.15942335909154559,0.24502857092916666,0.33063378276700972,0.41623899460507519,0.50184420644336214,0.58744941828187192,0.67305463012060174,0.75865984195955449,0.82688497233960323,0.86903956982884323,0.91119416731832081,0.95334876480803776,0.99550336229799563,1.0376579597881919,1.0798125572786261,1.1219671547693006,1.1641217522602152,1.2062763497513675,1.2484309472427604,1.2905855447343912,1.332740142226263,1.3748947397183713,1.4170493372107205,1.4592039347033077,1.5013585321961369,1.5435131296892024,1.5856677271825086,1.6278223246760524,1.6237882714809226,1.6137436320255965,1.60369899257052,1.5936543531156933,1.5836097136611178,1.5735650742067919,1.5635204347527181,1.5534757952988918,1.5434311558453164,1.533386516391992,1.5233418769389169,1.5132972374860936,1.5032525980335176,1.4932079585811959,1.4831633191291207,1.4731186796772979,1.4630740402257254,1.453029400774402,1.4072132055138926,1.3375487428458475,1.267884280178079,1.1982198175105807,1.1285553548433591,1.05889089217641,0.989226429509738,0.91956196684333913,0.84989750417721366,0.78023304151136286,0.71056857884579039,0.64090411618048837,0.57123965351546124,0.50157519085071145,0.43191072818623244,0.36224626552203043,0.29258180285810009,0.22291734019444592,0.15325287753106748,0.08358841486796309,-0.031992293129690437,-0.16725201199737857,-0.30251173086479527,-0.4377714497319386,-0.573031168598813,-0.70829088746541058,-0.8435506063317374,-0.97881032519779554,-1.1140700440635787,-1.2493297629290931,-1.3845894817943332,-1.5198492006593014,-1.6551089195239961,-1.790368638388423,-1.9256283572525725,-2.0608880761164547,-2.1961477949800621,-2.3314075138433976,-2.4666672327064614,-2.6019269515692525,-2.7931162798916924,-2.9982886714000743,-3.2034610629081439,-3.4086334544159085,-3.6138058459233662,-3.8189782374305148,-4.0241506289373588,-4.2293230204438883,-4.4344954119501141,-4.6396678034560317,-4.844840194961642,-5.0500125864669467,-5.2551849779719326,-5.4603573694766263,-5.6655297609810029,-5.8707021524850713,-6.0758745439888342,-6.2810469354922871,-6.4862193269954345,-6.6913917184982754,-6.9618846709886739,-7.2396361496127062,-7.5173876282364249,-7.7951391068598106,-8.0728905854828934,-8.35064206410564,-8.6283935427280731,-8.906145021350186,-9.1838964999719916,-9.4616479785934651,-9.7393994572146241,-10.017150935835472,-10.294902414455992,-10.572653893076186,-10.850405371696056,-11.128156850315627,-11.405908328934872,-11.683659807553786,-11.961411286172408,-12.239162764790672,0,0.0080860795026328688,0.019630101373208936,0.037456443325545076,0.063652423766423841,0.098369895572696292,0.14163730153132006,0.19342281232783098,0.25362692971566714,0.32204703455208245,0.3727203537539453,0.49074429384497981
DP 543,90.53961885892879,0.0023032411595972687,-18.65424114037344,-18.362306177774443,-18.070371215175147,-17.778436252575531,-17.486501289975614,-17.194566327375373,-16.902631364774809,-16.610696402173939,-16.318761439572729,-16.02682647697122,-15.734891514369393,-15.442956551767262,-15.151021589164817,-14.859086626562048,-14.567151663958946,-14.275216701355554,-13.983281738751836,-13.691346776147823,-13.39941181354345,-13.107476850938788,-12.817655697289281,-12.546859024044993,-12.276062350800357,-12.0052656775554,-11.734469004310089,-11.463672331064451,-11.19287565781848,-10.92207898457219,-10.651282311325545,-10.380485638078582,-10.109688964831264,-9.8388922915836243,-9.5680956183356454,-9.2972989450873271,-9.0265022718386856,-8.7557055985896977,-8.4849089253403776,-8.2141122520907324,-7.9433155788407364,-7.6725189055904126,-7.41043015809891,-7.1831735251923066,-6.9559168922853161,-6.7286602593779383,-6.5014036264701653,-6.2741469935620087,-6.0468903606534585,-5.81963372774452,-5.5923770948351832,-5.3651204619254624,-5.13786382901535,-4.9106071961048485,-4.6833505631939554,-4.4560939302826741,-4.2288372973709993,-4.0015806644589311,-3.7743240315464734,-3.5470673986336343,-3.3198107657203986,-3.0925541328067738,-2.8844849467112246,-2.7211870744061293,-2.5578892021006303,-2.3945913297947334,-2.2312934574884351,-2.0679955851817353,-1.9046977128746374,-1.7413998405671349,-1.5781019682592328,-1.4148040959509289,-1.2515062236422281,-1.0882083513331253,-0.92491047902361945,-0.76161260671371456,-0.5983147344034081,-0.43501686209269991,-0.27171898978159226,-0.10842111747008243,0.054876754841826782,0.21817462715413591,0.34838142313659176,0.42895082266096,0.50952022218577009,0.59008962171102475,0.67065902123672538,0.75122842076286767,0.83179782028945348,0.91236721981648483,0.9929366193439545,1.0735060188718735,1.1540754184002335,1.2346448179290375,1.3152142174582835,1.3957836169879756,1.4763530165181102,1.55692241604869,1.6374918155797098,1.7180612151111772,1.7986306146430875,1.8792000141754397,1.8722443140803871,1.8533479661036882,1.8344516181274571,1.8155552701516939,1.7966589221764053,1.777762574201583,1.7588662262272341,1.7399698782533497,1.7210735302799389,1.7021771823069938,1.6832808343345238,1.6643844863625206,1.6454881383909861,1.6265917904199221,1.6076954424493282,1.5887990944792045,1.5699027465095479,1.5510063985403646,1.4638979021271137,1.3313135654900319,1.1987292288534752,1.066144892217441,0.93356055558193352,0.80097621894694992,0.668391882312496,0.53580754567856537,0.40322320904515957,0.27063887241227974,0.13805453577993,0.0054701991481007272,-0.12711413748320213,-0.25969847411397545,-0.39228281074422794,-0.52486714737395146,-0.657451484003154,-0.7900358206318262,-0.9226201572599726,-1.0552044938875937,-1.2754094368772644,-1.5331672514589927,-1.7909250660402005,-2.048682880620885,-2.306440695201053,-2.5641985097806885,-2.8219563243598058,-3.0797141389384115,-3.3374719535164838,-3.5952297680940433,-3.8529875826710747,-4.11074539724759,-4.3685032118235751,-4.626261026399054,-4.8840188409739929,-5.1417766555484228,-5.3995344701223242,-5.6572922846957017,-5.9150500992685595,-6.1728079138409022,-6.5373475770540059,-6.9285839640790536,-7.3198203511035054,-7.71105673812735,-8.1022931251505934,-8.4935295121732359,-8.8847658991952816,-9.2760022862167162,-9.6672386732375433,-10.058475060257788,-10.449711447277409,-10.840947834296436,-11.232184221314848,-11.623420608332676,-12.014656995349894,-12.405893382366507,-12.797129769382513,-13.188366156397928,-13.579602543412726,-13.970838930426925,-14.486835701664006,-15.016696048100544,-15.546556394536461,-16.076416740971734,-16.606277087406387,-17.1361374338404,-17.665997780273806,-18.195858126706543,-18.725718473138695,-19.255578819570182,-19.785439166001066,-20.315299512431313,-20.845159858860914,-21.375020205289911,-21.904880551718268,-22.434740898145982,-22.964601244573078,-23.494461590999528,-24.024321937425391,-24.554182283850569,0,0.017386850269116065,0.0403633007929306,0.07479637123303183,0.12520642389064188,0.19191784303474002,0.27498104438393567,0.37433809076472446,0.48981314764836831,0.62103969320373753,0.71804482639224965,0.94420798500654313
DP 544,68.7010279630416,0.0030773228325179872,-19.756225527830207,-19.501141556392991,-19.246057584955615,-18.990973613518065,-18.735889642080384,-18.480805670642521,-18.225721699204492,-17.970637727766317,-17.715553756327964,-17.460469784889462,-17.205385813450803,-16.950301842011971,-16.695217870572989,-16.440133899133858,-16.185049927694546,-15.929965956255083,-15.674881984815441,-15.419798013375669,-15.164714041935708,-14.909630070495606,-14.656390378907171,-14.419749380314315,-14.183108381721253,-13.946467383128018,-13.709826384534596,-13.473185385940967,-13.236544387347157,-12.999903388753159,-12.763262390158971,-12.526621391564593,-12.289980392970033,-12.053339394375264,-11.816698395780319,-11.580057397185188,-11.343416398589858,-11.106775399994344,-10.870134401398641,-10.633493402802744,-10.396852404206655,-10.160211405610386,-9.9311617820642528,-9.7324780174981864,-9.5337942529318322,-9.335110488365201,-9.1364267237983,-8.9377429592311159,-8.73905919466366,-8.5403754300959243,-8.3416916655279181,-8.14300790095962,-7.9443241363910557,-7.7456403718222147,-7.5469566072530911,-7.3482728426836958,-7.1495890781140226,-6.9509053135440668,-6.7522215489738429,-6.5535377844033347,-6.3548540198325574,-6.1561702552614976,-5.9742243848702552,-5.8313341282675264,-5.6884438716645063,-5.5455536150612028,-5.4026633584576125,-5.2597731018537308,-5.1168828452495649,-4.9739925886451086,-4.8311023320403637,-4.688212075435338,-4.5453218188300166,-4.4024315622244119,-4.2595413056185212,-4.1166510490123409,-3.973760792405872,-3.830870535799118,-3.6879802791920739,-3.5450900225847413,-3.4021997659771239,-3.2593095093692197,-3.1452915342088716,-3.0745826634902915,-3.0038737927713584,-2.9331649220520752,-2.8624560513324355,-2.7917471806124428,-2.7210383098921009,-2.6503294391714038,-2.5796205684503577,-2.5089116977289532,-2.4382028270071991,-2.3674939562850925,-2.2967850855626315,-2.2260762148398197,-2.1553673441166525,-2.0846584733931346,-2.0139496026692632,-1.9432407319450375,-1.8725318612204587,-1.801822990495531,-1.8068013808559276,-1.8229346753134164,-1.8390679697705163,-1.855201264227226,-1.8713345586835455,-1.8874678531394766,-1.9036011475950125,-1.9197344420501672,-1.9358677365049264,-1.9520010309592992,-1.9681343254132782,-1.9842676198668687,-2.0004009143200703,-2.0165342087728821,-2.0326675032253037,-2.0488007976773357,-2.0649340921289778,-2.0810673865802278,-2.1567836285517026,-2.2722227741891667,-2.3876619198261615,-2.5031010654626931,-2.618540211098757,-2.73397935673436,-2.84941850236949,-2.964857648004156,-3.0802967936383596,-3.195735939272093,-3.3111750849053569,-3.4266142305381613,-3.542053376170498,-3.6574925218023657,-3.7729316674337712,-3.8883708130647059,-4.0038099586951805,-4.1192491043251858,-4.234688249954722,-4.350127395583792,-4.5421538169854694,-4.7670043907422412,-4.991854964498545,-5.2167055382543861,-5.4415561120097626,-5.6664066857646693,-5.8912572595191168,-6.1161078332731034,-6.3409584070266138,-6.565808980779674,-6.7906595545322634,-7.0155101282843857,-7.2403607020360434,-7.4652112757872393,-7.6900618495379653,-7.914912423288226,-8.1397629970380336,-8.36461357078737,-8.5894641445362332,-8.8143147182846366,-9.1325259564369929,-9.4740784637677127,-9.815630971097864,-10.157183478427442,-10.498735985756451,-10.840288493084893,-11.181841000412765,-11.523393507740041,-11.864946015066771,-12.206498522392934,-12.548051029718494,-12.889603537043508,-13.231156044367939,-13.572708551691798,-13.914261059015086,-14.255813566337814,-14.59736607365995,-14.938918580981539,-15.280471088302534,-15.622023595622963,-16.072691835160434,-16.53548519092331,-16.998278546685576,-17.461071902447227,-17.923865258208263,-18.386658613968713,-18.849451969728538,-19.312245325487751,-19.775038681246386,-20.237832037004384,-20.700625392761783,-21.163418748518588,-21.62621210427476,-22.089005460030329,-22.551798815785304,-23.014592171539658,-23.477385527293436,-23.940178883046539,-24.402972238799084,-24.865765594550986,0,0.02138463282747868,0.0446948458663699,0.076341830317880277,0.12179152013171789,0.18152154675897308,0.25561669445929974,0.34406237600453676,0.44676781757718803,0.56348168926568121,0.64897511546912257,0.8487384737817748
DP 545,168.88279944416868,0.004227840033101578,-53.619563907450917,-52.567696482625841,-51.5158290577992,-50.463961632971028,-49.412094208141355,-48.360226783310083,-47.308359358477318,-46.256491933642984,-45.20462450880715,-44.152757083969718,-43.100889659130772,-42.049022234290312,-40.997154809448283,-39.945287384604754,-38.893419959759655,-37.841552534913028,-36.789685110064859,-35.737817685215148,-34.685950260363896,-33.634082835511123,-32.590050844996796,-31.616538504179843,-30.643026163361327,-29.66951382254129,-28.696001481719637,-27.722489140896474,-26.748976800071738,-25.775464459245431,-24.801952118417596,-23.828439777588155,-22.85492743675718,-21.881415095924638,-20.907902755090539,-19.934390414254885,-18.960878073417661,-17.98736573257888,-17.013853391738543,-16.040341050896636,-15.066828710053169,-14.09331636920817,-13.151937896360135,-12.339096414196044,-11.526254932030358,-10.713413449863058,-9.90057196769414,-9.0877304855236183,-8.2748890033514719,-7.4620475211777162,-6.6492060390023493,-5.8363645568253695,-5.0235230746467741,-4.2106815924665639,-3.3978401102847409,-2.584998628101308,-1.7721571459162584,-0.959315663729595,-0.14647418154132244,0.66636730064856109,1.479208782840054,2.2920502650331653,3.0346784555691872,3.6134734199938938,4.1922683844202515,4.7710633488482426,5.3498583132778714,5.9286532777091532,6.5074482421420763,7.0862432065766354,7.6650381710128421,8.2438331354506822,8.8226280998901725,9.4014230643312988,9.9802180287740754,10.559012993218484,11.137807957664544,11.716602922112251,12.295397886561588,12.874192851012575,13.452987815465193,14.031782779919462,14.490716241246133,14.769854615477252,15.048992989710033,15.328131363944506,15.607269738180692,15.886408112418557,16.165546486658123,16.444684860899361,16.723823235142291,17.002961609386936,17.282099983633241,17.561238357881265,17.840376732130967,18.119515106382348,18.398653480635442,18.67779185489022,18.956930229146682,19.236068603404838,19.51520697766469,19.794345351926214,19.741640142521966,19.664729710825622,19.587819279131033,19.510908847438134,19.433998415746984,19.357087984057561,19.280177552369874,19.203267120683911,19.126356688999682,19.049446257317179,18.972535825636395,18.895625393957356,18.818714962280055,18.741804530604458,18.66489409893061,18.587983667258474,18.511073235588078,18.434162803919403,18.115921076497063,17.636788016708845,17.157654956922418,16.678521897137816,16.199388837355052,15.720255777574087,15.241122717794985,14.761989658017676,14.282856598242201,13.803723538468546,13.324590478696745,12.845457418926753,12.366324359158584,11.887191299392249,11.408058239627723,10.928925179865033,10.449792120104151,9.970659060345108,9.4915260005878963,9.0123929408325036,8.22662478237768,7.3094374410938832,6.3922500998118821,5.4750627585316884,4.5578754172532845,3.6406880759767133,2.7235007347019375,1.8063133934289297,0.88912605215776119,-0.028061289111634025,-0.94524863037920792,-1.8624359716449894,-2.779623312908952,-3.6968106541711441,-4.6139979954314976,-5.5311853366900765,-6.448372677946832,-7.36556001920179,-8.2827473604549535,-9.1999347017063116,-10.487660366459249,-11.868024990082043,-13.248389613702894,-14.628754237321768,-16.00911886093871,-17.389483484553672,-18.769848108166709,-20.150212731777753,-21.530577355386857,-22.910941978994071,-24.291306602599249,-25.671671226202474,-27.052035849803755,-28.432400473403117,-29.812765097000486,-31.193129720595884,-32.5734943441894,-33.953858967780917,-35.33422359137046,-36.714588214958042,-38.525443800907674,-40.384136237205162,-42.242828673500682,-44.101521109794156,-45.96021354608564,-47.818905982375121,-49.677598418662669,-51.536290854948078,-53.394983291231604,-55.253675727513063,-57.112368163792574,-58.971060600070096,-60.829753036345558,-62.688445472619051,-64.5471379088905,-66.405830345160027,-68.26452278142753,-70.123215217692959,-71.981907653956426,-73.840600090217919,0,0.042516550999744135,0.11405597322185879,0.230626596238588,0.40279033777508622,0.63151540591367394,0.91707716560286945,1.2592721228204851,1.6573685239555049,2.1098945706813224,2.4458521709919512,3.2264729166720856
DP 546,99.041629915903428,0.0012156065552152877,-10.578261574796425,-10.404867850722779,-10.231474126648934,-10.05808040257488,-9.8846866785006249,-9.7112929544261632,-9.537899230351508,-9.3645055062766414,-9.1911117822015651,-9.0177180581262917,-8.8443243340508122,-8.6709306099751267,-8.4975368858992386,-8.3241431618231445,-8.1507494377468479,-7.9773557136703452,-7.8039619895936392,-7.63056826551673,-7.4571745414396169,-7.2837808173623,-7.1116441269816608,-6.9508208586929552,-6.7899975904040426,-6.6291743221149115,-6.4683510538255673,-6.3075277855360063,-6.1467045172462456,-5.98588124895626,-5.8250579806660623,-5.6642347123756505,-5.5034114440850281,-5.3425881757941873,-5.1817649075031351,-5.0209416392118724,-4.8601183709203921,-4.6992951026287013,-4.5384718343367938,-4.3776485660446731,-4.2168252977523375,-4.0560020294597852,-3.9003563785612561,-3.7654214419408154,-3.6304865053201314,-3.4955515686992062,-3.3606166320780391,-3.2256816954566303,-3.090746758834984,-2.9558118222130942,-2.8208768855909665,-2.6859419489685954,-2.5510070123459814,-2.4160720757231267,-2.2811371391000348,-2.1462022024766965,-2.01126726585312,-1.8763323292292997,-1.7413973926052426,-1.606462455980942,-1.4715275193564006,-1.3365925827316198,-1.2130623703956054,-1.1161435407342901,-1.0192247110727262,-0.92230588141091729,-0.82538705174886162,-0.72846822208655748,-0.63154939242400709,-0.53463056276120891,-0.43771173309816391,-0.34079290343487256,-0.24387407377133455,-0.14695524410754929,-0.050036414443516246,0.0468824152207631,0.14380124488529,0.24072007455006383,0.33763890421508458,0.43455773388035346,0.53147656354586781,0.62839539321162929,0.70565159319455273,0.75341338401268987,0.80117517483109524,0.8489369656497705,0.89669875646871477,0.94446054728792728,0.99222233810740756,1.0399841289271559,1.0877459197471728,1.1355077105674591,1.1832695013880132,1.2310312922088351,1.2787930830299268,1.3265548738512851,1.3743166646729146,1.4220784554948098,1.4698402463169751,1.5176020371394077,1.5653638279621103,1.6131256187850807,1.6087256636842024,1.5974132118040316,1.5861007599241428,1.5747883080445333,1.563475856165208,1.5521634042861641,1.5408509524074032,1.5295385005289208,1.5182260486507249,1.506913596772804,1.4956011448951707,1.4842886930178183,1.4729762411407477,1.4616637892639581,1.4503513373874521,1.4390388855112257,1.4277264336352822,1.4164139817596217,1.3646060979135037,1.2858006214670934,1.2069951450209953,1.1281896685752049,1.0493841921297269,0.97057871568455889,0.89177323923970442,0.81296776279516059,0.73416228635092617,0.6553568099070034,0.57655133346339427,0.49774585702009372,0.41894038057710509,0.34013490413442926,0.26132942769206169,0.18252395125000759,0.10371847480826188,0.024912998366829614,-0.053892478074290921,-0.13269795451510058,-0.26349951967170193,-0.41658582495855484,-0.5696721302451,-0.72275843553133567,-0.87584474081726593,-1.0289310461028824,-1.1820173513881909,-1.3351036566731973,-1.4881899619578884,-1.6412762672422758,-1.7943625725263515,-1.9474488778101218,-2.1005351830935806,-2.2536214883767354,-2.406707793659574,-2.5597940989421111,-2.7128804042243364,-2.8659667095062513,-3.0190530147878629,-3.17213932006916,-3.3885736637681103,-3.620845765542918,-3.8531178673173767,-4.0853899690914819,-4.3176620708652385,-4.54993417263864,-4.7822062744116929,-5.01447837618439,-5.2467504779567387,-5.4790225797287428,-5.7112946815003847,-5.9435667832716783,-6.1758388850426149,-6.4081109868132149,-6.6403830885834552,-6.8726551903533375,-7.1049272921228752,-7.337199393892063,-7.5694714956608973,-7.8017435974293825,-8.1080132892965473,-8.422505712772816,-8.7369981362487277,-9.0514905597242681,-9.3659829831994443,-9.68047540667425,-9.9949678301486991,-10.309460253622765,-10.623952677096486,-10.938445100569826,-11.252937524042817,-11.567429947515437,-11.881922370987692,-12.196414794459567,-12.510907217931093,-12.82539964140225,-13.139892064873042,-13.454384488343452,-13.768876911813532,-14.083369335283203,0,0.0095127878238813156,0.022756023026109524,0.04301699275213354,0.072758698738103048,0.11215829484051042,0.16124677811193763,0.21998839160579187,0.28827287681283437,0.36587444556938076,0.42331624495536008,0.55714917119301932
DP 547,56.953370085706005,0.0043778912294315459,-23.93098605075469,-23.675262404409857,-23.419538758064974,-23.163815111720098,-22.908091465375207,-22.652367819030285,-22.396644172685335,-22.140920526340327,-21.885196879995323,-21.629473233650312,-21.373749587305241,-21.118025940960173,-20.862302294615073,-20.606578648269949,-20.350855001924803,-20.095131355579628,-19.839407709234436,-19.583684062889208,-19.327960416543963,-19.0722367701987,-18.818361247364571,-18.581119010823357,-18.343876774282087,-18.106634537740742,-17.869392301199337,-17.632150064657854,-17.39490782811631,-17.1576655915747,-16.920423355033019,-16.683181118491262,-16.445938881949445,-16.208696645407578,-15.971454408865615,-15.734212172323591,-15.496969935781507,-15.259727699239349,-15.022485462697128,-14.785243226154829,-14.548000989612472,-14.31075875307004,-14.081115572207842,-13.881868973208611,-13.682622374209185,-13.48337577520954,-13.284129176209696,-13.084882577209665,-12.885635978209423,-12.686389379208972,-12.48714278020833,-12.28789618120749,-12.088649582206441,-11.88940298320518,-11.690156384203716,-11.490909785202064,-11.291663186200198,-11.092416587198134,-10.893169988195869,-10.693923389193404,-10.494676790190738,-10.29543019118786,-10.112943626117891,-9.9695643349577487,-9.8261850437973912,-9.682805752636817,-9.5394264614760456,-9.3960471703150414,-9.2526678791538313,-9.1092885879924026,-8.9659092968307625,-8.8225300056689075,-8.6791507145068429,-8.53577142334456,-8.3923921321820654,-8.2490128410193488,-8.1056335498564209,-7.9622542586932843,-7.8188749675299318,-7.6754956763663609,-7.532116385202583,-7.3887370940385839,-7.2742597974117764,-7.2031361755632668,-7.1320125537144419,-7.0608889318653016,-6.9897653100158648,-6.9186416881660877,-6.847518066316022,-6.77639444446562,-6.7052708226149269,-6.63414720076391,-6.5630235789125813,-6.4918999570609355,-6.4207763352089842,-6.3496527133567122,-6.2785290915041241,-6.2074054696512366,-6.1362818477980223,-6.065158225944498,-5.9940346040906638,-5.9229109822365142,-5.9269097498117294,-5.9427341455811238,-5.9585585413501585,-5.9743829371188264,-5.9902073328871275,-6.0060317286550573,-6.021856124422615,-6.0376805201898138,-6.0535049159566441,-6.0693293117231093,-6.0851537074892,-6.1009781032549233,-6.1168024990202889,-6.13262689478528,-6.1484512905499011,-6.1642756863141592,-6.18010008207805,-6.1959244778415759,-6.2713999002127494,-6.3866436133806763,-6.5018873265481254,-6.6171310397151037,-6.7323747528816051,-6.84761846604763,-6.9628621792131717,-7.0781058923782343,-7.1933496055428314,-7.3085933187069365,-7.4238370318705718,-7.5390807450337318,-7.6543244581964149,-7.7695681713586158,-7.884811884520345,-8.0000555976815964,-8.115299310842369,-8.230543024002662,-8.3457867371624825,-8.4610304503218128,-8.6529704335319586,-8.8777812824024434,-9.1025921312724627,-9.3274029801419953,-9.55221382901106,-9.7770246778796377,-10.001835526747731,-10.226646375615369,-10.451457224482512,-10.67626807334919,-10.901078922215385,-11.125889771081109,-11.350700619946354,-11.575511468811115,-11.80032231767539,-12.025133166539202,-12.24994401540253,-12.474754864265392,-12.69956571312777,-12.92437656198967,-13.242667974876561,-13.58433063326367,-13.925993291650169,-14.267655950036032,-14.609318608421274,-14.950981266805872,-15.292643925189855,-15.634306583573181,-15.975969241955923,-16.317631900338014,-16.659294558719459,-17.000957217100307,-17.342619875480516,-17.684282533860102,-18.025945192239035,-18.367607850617347,-18.709270508995022,-19.050933167372097,-19.392595825748526,-19.734258484124329,-20.185193998296992,-20.648272088520713,-21.111350178743766,-21.57442826896613,-22.037506359187827,-22.500584449408834,-22.963662539629134,-23.426740629848773,-23.889818720067748,-24.352896810286012,-24.815974900503605,-25.279052990720533,-25.742131080936762,-26.205209171152337,-26.66828726136719,-27.131365351581394,-27.594443441794894,-28.057521532007726,-28.520599622219898,-28.983677712431319,0,0.029540012827121164,0.057556426076045046,0.091891413289721308,0.13961361825087326,0.20149244367672289,0.277745720574967,0.36846412064523565,0.47368548685478967,0.59326925464572666,0.6794512320837186,0.88086227087508606
DP 548,103.20428789634231,0.0037303034401366449,-33.521048469388631,-32.960958410325489,-32.400868351261614,-31.840778292197083,-31.280688233131855,-30.720598174065955,-30.160508114999413,-29.600418055932128,-29.040327996864217,-28.4802379377956,-27.920147878726308,-27.36005781965633,-26.799967760585691,-26.239877701514335,-25.679787642442307,-25.119697583369621,-24.559607524296233,-23.999517465222166,-23.439427406147427,-22.879337347072006,-22.32331010471831,-21.803848596900593,-21.28438708908218,-20.764925581263057,-20.245464073443213,-19.726002565622654,-19.206541057801402,-18.687079549979433,-18.167618042156764,-17.648156534333385,-17.128695026509281,-16.609233518684483,-16.089772010858958,-15.570310503032713,-15.050848995205806,-14.531387487378172,-14.011925979549815,-13.492464471720755,-12.973002963890979,-12.453541456060497,-11.950815431619255,-11.515032131679266,-11.079248831738481,-10.643465531796913,-10.207682231854564,-9.7718989319114069,-9.3361156319674716,-8.9003323320227352,-8.4645490320772137,-8.0287657321309069,-7.5929824321837991,-7.15719913223591,-6.72141583228722,-6.2856325323377495,-5.8498492323874807,-5.4140659324364231,-4.9782826324845759,-4.5424993325319409,-4.1067160325785173,-3.6709327326242991,-3.2720045023165518,-2.9590725957280006,-2.6461406891386372,-2.3332087825484642,-2.0202768759574852,-1.707344969365695,-1.3944130627730971,-1.081481156179686,-0.76854924958546911,-0.45561734299044143,-0.14268543639460671,0.17024647020203731,0.48317837679949388,0.79611028339775658,1.1090421899968297,1.4219740965967143,1.7349060031974073,2.0478379097989121,2.3607698164012243,2.6737017230043416,2.923107420060767,3.0772223016321396,3.2313371832043836,3.3854520647775019,3.5395669463515014,3.6936818279263681,3.8477967095021093,4.0019115910787244,4.1560264726562117,4.3101413542345757,4.4642562358138074,4.6183711173939148,4.7724859989749,4.9266008805567552,5.080715762139481,5.2348306437230816,5.3889455253075571,5.5430604068929092,5.6971752884791291,5.8512901700662248,5.8366247355252465,5.7999352246906968,5.7632457138570548,5.7265562030243249,5.6898666921925187,5.6531771813616194,5.6164876705316331,5.57979815970256,5.5431086488744015,5.50641913804716,5.4697296272208371,5.43304011639542,5.3963506055709161,5.3596610947473318,5.3229715839246641,5.2862820731029014,5.2495925622820616,5.2129030514621286,5.0454500191928124,4.7908192459465235,4.5361884727012516,4.2815576994569673,4.0269269262136946,3.7722961529714159,3.5176653797301531,3.2630346064898892,3.0084038332506218,2.7537730600123664,2.4991422867751187,2.2445115135388667,1.9898807403036181,1.7352499670693795,1.4806191938361342,1.2259884206039013,0.9713576473726645,0.71672687414243652,0.46209610091321396,0.20746532768499476,-0.21502018336577736,-0.70944570575957566,-1.2038712281523838,-1.6982967505441897,-2.1927222729350135,-2.6871477953248277,-3.1815733177136489,-3.6759988401014931,-4.1704243624883244,-4.6648498848741751,-5.159275407259023,-5.6537009296428806,-6.1481264520257364,-6.6425519744076142,-7.13697749678847,-7.631403019168352,-8.1258285415472322,-8.6202540639251186,-9.1146795863020174,-9.6091051086779071,-10.307996998431905,-11.058007895846965,-11.808018793260892,-12.558029690673694,-13.308040588085371,-14.058051485495927,-14.808062382905359,-15.558073280313641,-16.308084177720826,-17.058095075126872,-17.808105972531774,-18.558116869935596,-19.30812776733822,-20.058138664739779,-20.808149562140173,-21.558160459539469,-22.308171356937624,-23.058182254334657,-23.80819315173056,-24.558204049125358,-25.54702033628654,-26.56237306367823,-27.577725791068808,-28.593078518458164,-29.608431245846358,-30.623783973233419,-31.639136700619275,-32.654489428003927,-33.669842155387514,-34.685194882769871,-35.700547610151062,-36.715900337531053,-37.731253064909929,-38.746605792287625,-39.76195851966412,-40.777311247039485,-41.792663974413642,-42.8080167017866,-43.82336942915849,-44.8387221565291,0,0.029711773313790386,0.071985436384942481,0.13718418578174774,0.23298113345055105,0.35993342365573922,0.51814444933515691,0.70749792155108293,0.9276311010788173,1.1778048271575332,1.3630755933609984,1.7946117226085756
DP 549,195.61850195867467,0.0012739177543242307,-17.724283651103914,-17.3649133273438,-17.005543003583149,-16.646172679821941,-16.286802356060221,-15.927432032297988,-15.568061708535186,-15.208691384771869,-14.84932106100803,-14.489950737243667,-14.130580413478745,-13.771210089713316,-13.411839765947335,-13.052469442180838,-12.69309911841381,-12.333728794646246,-11.974358470878155,-11.614988147109534,-11.25561782334038,-10.896247499570695,-10.539608810285236,-10.207555089567837,-9.8755013688499069,-9.54344764813144,-9.2113939274124377,-8.879340206692909,-8.5472864859728332,-8.21523276525222,-7.8831790445310723,-7.5511253238093943,-7.2190716030871735,-6.8870178823644226,-6.5549641616411334,-6.2229104409173059,-5.8908567201929474,-5.5588029994680523,-5.2267492787426191,-4.89469555801665,-4.5626418372901423,-4.2305881165631067,-3.9096960012881476,-3.6334508353361636,-3.3572056693836294,-3.0809605034305392,-2.8047153374769054,-2.5284701715227262,-2.252225005567996,-1.9759798396127186,-1.699734673656891,-1.4234895077005159,-1.1472443417435918,-0.87099917578611763,-0.5947540098280959,-0.31850884386952549,-0.042263677910406493,0.23398148804926097,0.51022665400947609,0.78647181997023918,1.0627169859315495,1.3389621518934096,1.5909627334531091,1.7863918541883785,1.9818209749242068,2.1772500956605918,2.372679216397533,2.5681083371350355,2.7635374578730945,2.9589665786117116,3.1543956993508875,3.3498248200906211,3.5452539408309103,3.7406830615717555,3.936112182313162,4.1315413030551253,4.3269704237976505,4.5223995445407246,4.7178286652843671,4.9132577860285549,5.1086869067733156,5.304116027518627,5.4584673071892578,5.5512008545521425,5.6439344019155948,5.7366679492796218,5.829401496644218,5.9221350440093818,6.014868591375123,6.1076021387414281,6.200335686108307,6.293069233475757,6.3858027808437754,6.4785363282123614,6.5712698755815175,6.6640034229512537,6.7567369703215547,6.8494705176924331,6.94220406506387,7.0349376124358791,7.1276711598084672,7.220404707181622,7.1961675758608274,7.1679257851634945,7.1396839944667292,7.1114422037705562,7.0832004130749615,7.0549586223799441,7.02671683168552,6.9984750409916678,6.9702332502983895,6.9419914596057009,6.9137496689135984,6.8855078782220689,6.8572660875311122,6.8290242968407489,6.8007825061509735,6.7725407154617816,6.7442989247731475,6.7160571340851076,6.6065343572946311,6.4428229759586886,6.2791115946233615,6.1154002132886376,5.9516888319545274,5.7879774506210175,5.6242660692881268,5.4605546879558444,5.2968433066241687,5.1331319252931067,4.9694205439626531,4.8057091626328088,4.6419977813035747,4.4782863999749525,4.31457501864694,4.15086363731953,3.9871522559927319,3.8234408746665469,3.659729493340973,3.4960181120160092,3.229869272068115,2.9198172809141174,2.6097652897607158,2.2997132986079194,1.9896613074557139,1.6796093163041272,1.3695573251531366,1.0595053340027367,0.74945334285295051,0.439401351703757,0.12934936055517177,-0.18070263059281588,-0.49075462174019624,-0.80080661288698562,-1.1108586040331618,-1.4209105951787433,-1.730962586323719,-2.0410145774680917,-2.3510665686118672,-2.6611185597550411,-3.0941455472021984,-3.5579177367028647,-4.0216899262028889,-4.4854621157022612,-4.9492343052009868,-5.4130064946990668,-5.8767786841965037,-6.3405508736932754,-6.80432306318941,-7.26809525268491,-7.7318674421797366,-8.1956396316739379,-8.6594118211674669,-9.12318401066038,-9.586956200152617,-10.050728389644215,-10.514500579135165,-10.978272768625471,-11.442044958115128,-11.905817147604141,-12.511848404396586,-13.133687718287115,-13.755527032177001,-14.377366346066202,-14.999205659954736,-15.621044973842629,-16.24288428772984,-16.86472360161639,-17.486562915502304,-18.108402229387544,-18.730241543272115,-19.35208085715605,-19.973920171039307,-20.595759484921921,-21.217598798803834,-21.839438112685116,-22.461277426565722,-23.083116740445682,-23.704956054325013,-24.326795368203584,0,0.013682853513390386,0.037304563598907645,0.076111091423023164,0.13346474898387328,0.20969252365798824,0.30489215843481127,0.4189967566389296,0.55175916851385209,0.7026820293374062,0.81475385572134373,1.0750429332250755
DP 550,198.162628036352,0.0037054665368457915,-51.972542168935412,-50.9158824273159,-49.859222685694739,-48.802562944072044,-47.745903202447813,-46.689243460822048,-45.632583719194663,-44.575923977565736,-43.51926423593531,-42.46260449430325,-41.405944752669647,-40.349285011034482,-39.292625269397774,-38.235965527759504,-37.179305786119656,-36.122646044478245,-35.0659863028353,-34.009326561190747,-32.952666819544667,-31.896007077897053,-30.847396927521576,-29.87123385949,-28.895070791456838,-27.918907723422137,-26.942744655385813,-25.966581587347967,-24.990418519308495,-24.01425545126747,-23.038092383224871,-22.06192931518072,-21.085766247134945,-20.109603179087639,-19.133440111038716,-18.157277042988241,-17.181113974936192,-16.204950906882566,-15.228787838827346,-14.252624770770577,-13.276461702712211,-12.300298634652295,-11.357012682439183,-10.545236747436261,-9.7334608124317352,-8.921684877425589,-8.1099089424178459,-7.2981330074084863,-6.4863570723975146,-5.6745811373849309,-4.8628052023707413,-4.051029267354938,-3.2392533323375234,-2.4274773973184933,-1.6157014622978554,-0.8039255272756054,0.00785040774825515,0.8196263427737277,1.6314022778008086,2.4431782128295016,3.254954147859797,4.0667300828917057,4.807138431850051,5.38102016468971,5.9549018975310268,6.52878363037396,7.1026653632185432,7.6765470960647635,8.2504288289126286,8.8243105617621218,9.3981922946132581,9.972074027466034,10.545955760320441,11.119837493176485,11.69371922603418,12.267600958893512,12.84148269175448,13.415364424617072,13.989246157481318,14.563127890347207,15.137009623214732,15.71089135608389,16.163951864486474,16.435777681106153,16.707603497727526,16.979429314350568,17.251255130975284,17.523080947601692,17.794906764229765,18.0667325808595,18.338558397490903,18.610384214124004,18.882210030758756,19.154035847395203,19.42586166403332,19.697687480673103,19.969513297314581,20.241339113957729,20.513164930602514,20.784990747249008,21.056816563897186,21.328642380547013,21.25539656752262,21.171732406956959,21.088068246393004,21.00440408583075,20.9207399252702,20.837075764711344,20.753411604154241,20.669747443598805,20.586083283045078,20.502419122493052,20.418754961942739,20.335090801394145,20.251426640847242,20.167762480302038,20.084098319758567,20.00043415921677,19.916769998676696,19.833105838138327,19.510827216251354,19.0294685277354,18.548109839221258,18.066751150708864,17.585392462198268,17.104033773689473,16.622675085182458,16.141316396677219,15.659957708173785,15.178599019672125,14.697240331172281,14.215881642674205,13.734522954177919,13.253164265683438,12.771805577190717,12.290446888699794,11.80908820021066,11.327729511723325,10.846370823237775,10.36501213475402,9.5831994121504973,8.6726166178586581,7.76203382356858,6.85145102928027,5.9408682349937108,5.0302854407089406,4.1197026464259334,3.2091198521446542,2.29853705786518,1.387954263587438,0.47737146931148217,-0.43321132496271952,-1.3437941192351415,-2.2543769135058311,-3.1649597077747185,-4.0755425020418654,-4.986125296307236,-5.8967080905708356,-6.8072908848326854,-7.7178736790927678,-8.98888346414855,-10.350004255430022,-11.711125046709606,-13.072245837987284,-14.433366629263062,-15.794487420536944,-17.155608211808953,-18.516729003079003,-19.877849794347192,-21.238970585613494,-22.600091376877874,-23.961212168140378,-25.322332959400928,-26.683453750659663,-28.044574541916425,-29.40569533317132,-30.766816124424302,-32.127936915675427,-33.4890577069246,-34.850178498171893,-36.628044802287441,-38.452220540224431,-40.27639627815951,-42.100572016092592,-43.9247477540238,-45.748923491953043,-47.573099229880313,-49.397274967805679,-51.221450705729126,-53.045626443650633,-54.869802181570186,-56.693977919487743,-58.518153657403438,-60.342329395317151,-62.166505133228974,-63.990680871138856,-65.8148566090468,-67.639032346952689,-69.463208084856859,-71.287383822758827,0,0.040020048570293759,0.10924146210551715,0.22303132578222618,0.39121490202717157,0.61475218527624964,0.89393108696883428,1.2285556477986355,1.6179003888223562,2.0605052908209749,2.3891788445183639,3.1525024189385542
DP 551,232.7623309603523,0.0012453703879864628,-19.318051055184558,-18.912325112985087,-18.506599170785005,-18.100873228584319,-17.695147286383083,-17.289421344181228,-16.88369540197878,-16.477969459775736,-16.072243517572115,-15.666517575367902,-15.260791633163096,-14.855065690957705,-14.4493397487517,-14.043613806545125,-13.63788786433795,-13.23216192213018,-12.826435979921827,-12.420710037712876,-12.014984095503346,-11.609258153293213,-11.206727129440932,-10.83295067281156,-10.459174216181585,-10.08539775955102,-9.71162130291985,-9.3378448462880836,-8.9640683896557274,-8.59029193302278,-8.2165154763892314,-7.8427390197550908,-7.4689625631203524,-7.0951861064850226,-6.7214096498490949,-6.3476331932125714,-5.9738567365754465,-5.6000802799377354,-5.2263038232994248,-4.8525273666605191,-4.4787509100210166,-4.1049744533809216,-3.7441700069361721,-3.435254214349829,-3.1263384217628825,-2.8174226291753346,-2.5085068365871814,-2.1995910439984243,-1.8906752514090648,-1.5817594588190984,-1.2728436662285312,-0.96392787363736,-0.65501208104558262,-0.34609628845320023,-0.037180495860215941,0.2717352967333731,0.58065108932756559,0.88956688192236211,1.1984826745177628,1.5073984671137657,1.8163142597103705,2.1252300523075816,2.4062583643756383,2.6222150098777948,2.8381716553805649,3.054128300883951,3.2700849463879464,3.4860415918925587,3.7019982373977873,3.9179548829036261,4.1339115284100743,4.3498681739171454,4.5658248194248179,4.7817814649331121,4.9977381104420235,5.2136947559515443,5.429651401461677,5.645608046972427,5.8615646924837908,6.0775213379957664,6.2934779835083541,6.5094346290215572,6.6787694388015169,6.7781703932777422,6.8775713477545919,6.9769723022320678,7.0763732567101529,7.1757742111888758,7.2751751656682213,7.3745761201481876,7.473977074628781,7.5733780291099944,7.672778983591833,7.772179938074296,7.8715808925573789,7.9709818470410934,8.0703828015254224,8.1697837560103785,8.2691847104959617,8.3685856649821684,8.467986619468995,8.5673875739564469,8.5275975378351134,8.4918010769089385,8.4560046159833959,8.42020815505851,8.38441169413424,8.3486152332106069,8.3128187722876064,8.27702231136523,8.2412258504435,8.205429389522406,8.1696329286019331,8.1338364676821051,8.0980400067629024,8.0622435458443391,8.0264470849264,7.9906506240091044,7.954854163092441,7.9190577021764064,7.79387631174877,7.6091035601690535,7.4243308085900006,7.2395580570115916,7.0547853054338541,6.8700125538567756,6.6852398022803561,6.5004670507045983,6.3156942991294951,6.1309215475550563,5.9461487959812933,5.7613760444081707,5.57660329283572,5.3918305412639276,5.207057789692791,5.0222850381223241,4.8375122865525046,4.652739534983354,4.4679667834148642,4.2831940318470361,3.9874665836719978,3.6441856244311959,3.3009046651910419,2.9576237059515407,2.6143427467126852,2.2710617874744941,1.9277808282369508,1.5844998690000474,1.2412189097638091,0.89793795052821124,0.55465699129327184,0.21137603205898073,-0.13190492717465355,-0.47518588640764775,-0.81846684563997729,-1.1617478048716641,-1.505028764102694,-1.8483097233330719,-2.1915906825628046,-2.5348716417918817,-3.0097021503524521,-3.5174216005336993,-4.0251410507142538,-4.53286050089411,-5.0405799510732665,-5.5482994012517262,-6.0560188514294939,-6.5637383016065565,-7.0714577517829236,-7.5791772019586174,-8.08689665213358,-8.5946161023078691,-9.1023355524814438,-9.61005500265435,-10.117774452826529,-10.625493902998027,-11.133213353168815,-11.640932803338918,-12.148652253508338,-12.656371703677026,-13.315020993861264,-13.990441851397906,-14.665862708933842,-15.341283566469048,-16.016704424003567,-16.692125281537372,-17.367546139070452,-18.042966996602818,-18.7183878541345,-19.393808711665464,-20.069229569195716,-20.744650426725268,-21.420071284254096,-22.095492141782216,-22.770912999309626,-23.446333856836308,-24.121754714362343,-24.797175571887617,-25.472596429412206,-26.148017286936017,0,0.014346323534968723,0.039661129442765161,0.081554545092307112,0.14351146018127897,0.22589026675835813,0.32880237828903286,0.45217642352691872,0.5957421856397741,0.75895574413428335,0.880174673607603,1.1615873062456112
DP 552,221.71991838702348,0.0017055285210257518,-25.659873408335454,-25.12607809231,-24.592282776283756,-24.058487460256721,-23.524692144228933,-22.990896828200345,-22.457101512170961,-21.923306196140807,-21.389510880109853,-20.85571556407816,-20.321920248045632,-19.788124932012369,-19.254329615978289,-18.720534299943427,-18.186738983907794,-17.652943667871359,-17.119148351834159,-16.585353035796192,-16.051557719757408,-15.51776240371786,-14.988123711378567,-14.495895025249846,-14.00366633912035,-13.51143765299004,-13.019208966858951,-12.526980280727075,-12.0347515945944,-11.542522908460946,-11.050294222326709,-10.55806553619168,-10.065836850055856,-9.5736081639192463,-9.0813794777818444,-8.5891507916436609,-8.0969221055046852,-7.6046934193649154,-7.1124647332243658,-6.6202360470830239,-6.1280073609408872,-5.6357786747979706,-5.1604597866012671,-4.7527808893723824,-4.3451019921426921,-3.9374230949122038,-3.5297441976809147,-3.1220653004488215,-2.7143864032159257,-2.3067075059822311,-1.8990286087477337,-1.4913497115124346,-1.0836708142763316,-0.67599191703942374,-0.26831301980171768,0.1393658774367913,0.54704477467610313,0.95472367191621543,1.3624025691571313,1.7700814663988453,2.1777603636413634,2.5854392608846792,2.9566450684297942,3.2427458508368678,3.5288466332447546,3.8149474156534597,4.1010481980629745,4.3871489804733113,4.673249762884458,4.9593505452964237,5.2454513277092056,5.5315521101228038,5.8176528925372093,6.1037536749524319,6.3898544573684672,6.6759552397853232,6.9620560222029937,7.2481568046214813,7.5342575870407771,7.8203583694608954,8.1064591518818236,8.3925599343035753,8.617424600321927,8.75043364468649,8.8834426890518774,9.0164517334181067,9.1494607777851584,9.2824698221530451,9.4154788665217541,9.5484879108912963,9.6814969552616663,9.8145059996328659,9.9475150440048949,10.080524088377752,10.213533132751454,10.346542177125965,10.479551221501314,10.612560265877493,10.745569310254503,10.878578354632349,11.011587399011011,11.144596443390517,11.097469672196883,11.052016817475284,11.006563962754523,10.96111110803461,10.915658253315534,10.870205398597301,10.824752543879921,10.77929968916337,10.733846834447684,10.688393979732822,10.642941125018808,10.597488270305634,10.552035415593304,10.50658256088183,10.461129706171187,10.41567685146139,10.370223996752436,10.32477114204433,10.160712203080742,9.9175806727941911,9.6744491425085251,9.4313176122237259,9.18818608193982,8.94505455165679,8.7019230213746361,8.4587914910933772,8.2156599608129852,7.9725284305334743,7.7293969002548639,7.4862653699771116,7.2431338397002447,7.0000023094242669,6.7568707791491622,6.5137392488749422,6.2706077186015987,6.0274761883291443,5.784344658057563,5.5412131277868744,5.1501228828949026,4.6956197624044629,4.2411166419148909,3.7866135214261907,3.3321104009383493,2.8776072804513944,2.4231041599653014,1.9686010394800633,1.5140979189957124,1.0595947985122129,0.60509167802959452,0.15058855754783931,-0.30391456293303981,-0.75841768341306481,-1.2129208038922035,-1.6674239243704865,-2.121927044847892,-2.5764301653244281,-3.0309332858001032,-3.4854364062749057,-4.1160822132524375,-4.7907657730214961,-5.4654493327896274,-6.14013289255683,-6.8148164523230967,-7.4895000120884347,-8.1641835718528544,-8.8388671316163183,-9.5135506913788674,-10.188234251140505,-10.862917810901166,-11.537601370660933,-12.21228493041974,-12.886968490177651,-13.561652049934619,-14.236335609690647,-14.911019169445737,-15.585702729199914,-16.260386288953157,-16.935069848705471,-17.812395952453446,-18.712240022660144,-19.612084092865896,-20.511928163070667,-21.411772233274515,-22.3116163034774,-23.211460373679344,-24.111304443880314,-25.011148514080382,-25.910992584279452,-26.81083665447763,-27.710680724674823,-28.61052479487109,-29.510368865066422,-30.410212935260738,-31.310057005454169,-32.2099010756466,-33.109745145838104,-34.009589216028708,-34.909433286218274,0,0.019285388464750933,0.053133670622546404,0.10904626773695172,0.19172223111564127,0.30163802049004468,0.43894037218761112,0.60353367231923927,0.79505847145423425,1.0127912924173978,1.1744954815947493,1.5499369540517962
DP 553,125.40410546690146,0.0034725173461105986,-36.062649609508085,-35.412351705855713,-34.762053802202495,-34.111755898548367,-33.461457994893351,-32.8111600912375,-32.160862187580747,-31.51056428392312,-30.860266380264594,-30.2099684766052,-29.559670572944928,-28.909372669283773,-28.259074765621737,-27.608776861958805,-26.958478958295025,-26.308181054630364,-25.657883150964775,-25.007585247298334,-24.357287343631032,-23.706989439962811,-23.061434139857592,-22.458562720117545,-21.855691300376559,-21.2528198806347,-20.649948460891906,-20.047077041148206,-19.444205621403626,-18.841334201658128,-18.238462781911743,-17.635591362164437,-17.032719942416247,-16.429848522667122,-15.826977102917112,-15.224105683166202,-14.621234263414383,-14.018362843661652,-13.415491423908048,-12.812620004153505,-12.209748584398072,-11.606877164641732,-11.023527950234289,-10.518268479871677,-10.013009009508105,-9.5077495391435569,-9.0024900687780534,-8.4972305984115746,-7.9919711280441286,-7.48671165767573,-6.9814521873063482,-6.476192716936005,-5.9709332465646963,-5.4656737761924212,-4.96041430581918,-4.4551548354449659,-3.9498953650697919,-3.4446358946936475,-2.9393764243165381,-2.4341169539384646,-1.9288574835594234,-1.4235980131794177,-0.961260638526762,-0.59907617293886062,-0.23689170734996584,0.12529275823991118,0.48747722383077269,0.84966168942262288,1.2118461550154616,1.5740306206092876,1.9362150862040985,2.2983995517998963,2.6605840173966784,3.0227684829944481,3.3849529485932095,3.747137414192951,4.109321879793681,4.4715063453953983,4.8336908109981076,5.1958752766018028,5.5580597422064777,5.9202442078121411,6.20858379434631,6.386154317271413,6.56372484019755,6.7412953631247339,6.9188658860529557,7.0964364089822158,7.27400693191251,7.4515774548438447,7.6291479777762241,7.8067185007096382,7.9842890236440853,8.1618595465795778,8.3394300695161068,8.5170005924536731,8.69457111539228,8.8721416383319269,9.0497121612726179,9.22728268421434,9.4048532071570943,9.5824237301009,9.56188167245135,9.5181503264489642,9.4744189804476466,9.430687634447402,9.38695628844823,9.3432249424501261,9.2994935964531074,9.25576225045716,9.2120309044622832,9.1682995584684868,9.1245682124757561,9.0808368664841019,9.037105520493526,8.9933741745040319,8.9496428285155947,8.9059114825282446,8.86218013654196,8.8184487905567543,8.6233825672497861,8.3274240416424,8.031465516036171,7.7355069904311,7.439548464827177,7.1435899392244062,6.8476314136228034,6.5516728880223507,6.2557143624230536,5.9597558368249093,5.6637973112279267,5.3678387856321024,5.0718802600374255,4.7759217344439167,4.4799632088515517,4.1840046832603486,3.8880461576702947,3.5920876320814012,3.2961291064936717,3.0001705809070955,2.5103472600952053,1.93743640926515,1.3645255584362332,0.791614707608468,0.21870385678183124,-0.35420699404364,-0.92711784486797288,-1.5000286956911837,-2.072939546513227,-2.6458503973341467,-3.2187612481539092,-3.791672098972533,-4.3645829497900035,-4.9374938006063545,-5.5104046514215383,-6.0833155022355925,-6.6562263530484973,-7.2291372038602564,-7.8020480546708839,-8.3749589054803515,-9.1836545264051637,-10.051299125709404,-10.918943725012381,-11.786588324314081,-12.654232923614522,-13.521877522913705,-14.389522122211604,-15.257166721508238,-16.124811320803595,-16.992455920097719,-17.860100519390539,-18.727745118682126,-19.595389717972388,-20.463034317261442,-21.330678916549196,-22.198323515835707,-23.065968115120935,-23.933612714404894,-24.801257313687593,-25.66890191296903,-26.811642341366007,-27.984951862169776,-29.15826138297226,-30.331570903773379,-31.504880424573241,-32.678189945371805,-33.851499466169,-35.024808986964878,-36.198118507759546,-37.371428028552863,-38.544737549344866,-39.718047070135569,-40.891356590924957,-42.064666111713066,-43.2379756324998,-44.411285153285306,-45.584594674069479,-46.757904194852273,-47.9312137156339,-49.104523236414025,0,0.030269685988164395,0.0771668794045288,0.15162768973349061,0.26135443048619483,0.40695565209644757,0.5885742027836427,0.80607646741376493,1.0590184950552211,1.3465051463981692,1.5597258039988744,2.0557845488251343
DP 554,109.23648508331739,0.0013520630606306586,-12.68933741600282,-12.4720497451582,-12.254762074313295,-12.037474403468131,-11.820186732622693,-11.602899061776982,-11.38561139093099,-11.16832372008472,-10.951036049238185,-10.733748378391372,-10.51646070754428,-10.299173036696923,-10.081885365849281,-9.8645976950013647,-9.64731002415319,-9.4300223533047234,-9.2127346824559861,-8.9954470116069754,-8.7781593407576928,-8.5608716699081366,-8.34516198128277,-8.1436542818350421,-7.94214658238704,-7.7406388829387467,-7.5391311834901673,-7.3376234840413055,-7.1361157845921577,-6.9346080851427319,-6.7331003856930165,-6.5315926862430134,-6.3300849867927322,-6.128577287342166,-5.9270695878913084,-5.7255618884401782,-5.5240541889887522,-5.3225464895370482,-5.1210387900850618,-4.9195310906327867,-4.7180233911802318,-4.51651569172739,-4.3215073450305077,-4.1524967165267537,-3.9834860880226906,-3.8144754595183108,-3.6454648310136224,-3.47645420250862,-3.3074435740033064,-3.1384329454976787,-2.9694223169917389,-2.8004116884854895,-2.6314010599789244,-2.4623904314720497,-2.2933798029648624,-2.1243691744573594,-1.9553585459495462,-1.7863479174414207,-1.6173372889329829,-1.4483266604242331,-1.2793160319151726,-1.1103054034057984,-0.95560235357777257,-0.83428410480213766,-0.71296585602618034,-0.59164760724990584,-0.47032935847331164,-0.34901110969639759,-0.22769286091916444,-0.10637461214161076,0.014943636636261363,0.13626188541445275,0.25758013419296277,0.37889838297179246,0.50021663175094289,0.62153488053041128,0.74285312931019964,0.864171378090309,0.98548962687073649,1.1068078756514836,1.228126124432549,1.3494443732139347,1.4461099379727176,1.5057958941388803,1.565481850305388,1.625167806472235,1.6848537626394244,1.7445397188069574,1.8042256749748311,1.8639116311430459,1.923597587311602,1.983283543480501,2.0429694996497423,2.1026554558193227,2.162341411989249,2.2220273681595155,2.28171332433012,2.34139928050107,2.4010852366723618,2.4607711928439966,2.5204571490159724,2.5801431051882866,2.5741776140133923,2.5598540863998482,2.5455305587866568,2.5312070311738228,2.5168835035613473,2.5025599759492265,2.4882364483374624,2.4739129207260517,2.459589393115,2.4452658655043047,2.4309423378939661,2.4166188102839836,2.4022952826743547,2.387971755065085,2.3736482274561697,2.3593246998476127,2.3450011722394088,2.3306776446315633,2.2656566890860832,2.1668366495762252,2.0680166100667607,1.9691965705576782,1.8703765310489857,1.7715564915406805,1.6727364520327666,1.5739164125252403,1.475096373018101,1.3762763335113515,1.2774562940049923,1.178636254499021,1.0798162149934358,0.98099617548824314,0.88217613598343547,0.78335609647901894,0.68453605697498709,0.58571601747134727,0.48689597796809625,0.38807593846523408,0.22420607175487209,0.032456829294529192,-0.15929241316543014,-0.35104165562500228,-0.54279089808419445,-0.7345401405429941,-0.9262893830014115,-1.1180386254594505,-1.3097878679170964,-1.5015371103743658,-1.6932863528312452,-1.88503559528774,-2.0767848377438485,-2.2685340801995793,-2.4602833226549148,-2.6520325651098751,-2.8437818075644445,-3.035531050018629,-3.2272802924724306,-3.41902953492585,-3.689990760312797,-3.9807559173406806,-4.2715210743681338,-4.5622862313951567,-4.8530513884217417,-5.143816545447895,-5.4345817024736256,-5.7253468594989059,-6.0161120165237589,-6.3068771735481945,-6.5976423305721807,-6.8884074875957406,-7.1791726446188564,-7.4699378016415565,-7.7607029586638117,-8.0514681156856387,-8.3422332727070341,-8.632998429728,-8.9237635867485281,-9.214528743768625,-9.5977891629085565,-9.9913278048191483,-10.384866446729301,-10.778405088638996,-11.171943730548238,-11.565482372457035,-11.959021014365391,-12.352559656273286,-12.74609829818074,-13.139636940087746,-13.53317558199431,-13.926714223900415,-14.320252865806077,-14.713791507711278,-15.107330149616049,-15.500868791520368,-15.894407433424233,-16.28794607532765,-16.681484717230624,-17.075023359133137,0,0.011045489198593062,0.027204411738395551,0.052374011355848182,0.089395474833844066,0.13847915877965705,0.19966722272181528,0.2729144761608579,0.35807730328308962,0.45486445996861385,0.52658123968630144,0.69356317893943731
DP 555,178.75205080422734,0.0027430847777506289,-36.066312257929141,-35.349371581610747,-34.63243090529128,-33.915490228970768,-33.198549552649169,-32.481608876326575,-31.76466820000287,-31.047727523678137,-30.330786847352339,-29.613846171025511,-28.896905494697588,-28.179964818368632,-27.463024142038613,-26.746083465707517,-26.0291427893754,-25.312202113042233,-24.595261436707986,-23.878320760372709,-23.161380084036367,-22.444439407698944,-21.732876263841163,-21.069711420615821,-20.40654657738942,-19.74338173416194,-19.080216890933411,-18.417052047703812,-17.753887204473134,-17.090722361241383,-16.427557518008591,-15.764392674774719,-15.101227831539765,-14.438062988303757,-13.774898145066667,-13.111733301828517,-12.448568458589305,-11.785403615349018,-11.122238772107666,-10.459073928865255,-9.7959090856217568,-9.1327442423772123,-8.4916044703055071,-7.938566023863955,-7.3855275774212927,-6.8324891309775362,-6.2794506845326854,-5.7264122380867306,-5.1733737916396745,-4.6203353451915232,-4.0672968987422706,-3.5142584522919242,-2.961220005840469,-2.4081815593879168,-1.8551431129342666,-1.3021046664795177,-0.74906622002366841,-0.19602777356672016,0.357010672891327,0.91004911935046984,1.463087565810711,2.0161260122720557,2.5211349220355337,2.9140733995470516,3.3070118770596975,3.699950354573458,4.0928888320883345,4.4858273096043328,4.8787657871214485,5.271704264639685,5.6646427421590388,6.0575812196795074,6.4505196972010985,6.8434581747238052,7.2363966522476391,7.6293351297725769,8.0222736072986436,8.4152120848258232,8.8081505623541325,9.2010890398835556,9.5940275174140943,9.9869659949457539,10.29812119757478,10.486599555258614,10.67507791294361,10.863556270629756,11.052034628317047,11.240512986005482,11.428991343695065,11.61746970138581,11.805948059077696,11.994426416770732,12.1829047744649,12.371383132160242,12.559861489856726,12.74833984755435,12.936818205253131,13.125296562953048,13.31377492065412,13.502253278356347,13.69073163605972,13.879209993764242,13.839067695804745,13.78531464716059,13.731561598517578,13.677808549875744,13.6240555012351,13.570302452595616,13.516549403957313,13.462796355320185,13.409043306684215,13.355290258049427,13.301537209415809,13.247784160783372,13.194031112152098,13.140278063522009,13.086525014893081,13.032771966265319,12.979018917638749,12.925265869013343,12.707810790475385,12.381218446414586,12.054626102355041,11.7280337582967,11.401441414239615,11.074849070183753,10.748256726129133,10.42166438207574,10.095072038023593,9.7684796939726688,9.4418873499229932,9.11529500587454,8.7887026618273278,8.4621103177813577,8.1355179737366043,7.8089256296930945,7.4823332856508129,7.1557409416097792,6.8291485975699766,6.5025562535314068,5.9685294058239036,5.3455992555319067,4.7226691052411187,4.09973895495156,3.4768088046632042,2.8538786543760919,2.2309485040901893,1.6080183538054866,0.98508820352202719,0.36215805323976641,-0.2607720970412622,-0.8837022473210796,-1.5066323975996663,-2.1295625478770583,-2.7524926981532025,-3.3754228484281481,-3.9983529987018662,-4.6212831489743582,-5.2442132992456454,-5.867143449515706,-6.7401889983151353,-7.6757663519171375,-8.61134370551782,-9.5469210591171887,-10.482498412715247,-11.418075766311983,-12.3536531199074,-13.289230473501497,-14.224807827094272,-15.160385180685752,-16.095962534275884,-17.031539887864717,-17.9671172414522,-18.902694595038426,-19.83827194862328,-20.77384930220683,-21.70942665578907,-22.645004009370002,-23.58058136294958,-24.516158716527865,-25.741905221135198,-26.999895790001588,-28.257886358866681,-29.515876927730364,-30.773867496592754,-32.031858065453754,-33.289848634313415,-34.547839203171705,-35.805829772028723,-37.063820340884355,-38.321810909738637,-39.579801478591556,-40.837792047443138,-42.095782616293405,-43.353773185142273,-44.611763753989848,-45.869754322836044,-47.127744891680848,-48.385735460524408,-49.643726029366526,0,0.028313421091303605,0.076473989218648772,0.15521865348549632,0.27155073294056364,0.42612796201818465,0.61914145571117984,0.85045444702628836,1.1195696369171226,1.4254863193063789,1.6526237848389342,2.1802953043700088
DP 556,191.46285378717766,0.0024699122149384684,-33.90630847799045,-33.221989786207182,-32.537671094422919,-31.853352402637658,-31.169033710851366,-30.484715019064062,-29.800396327275802,-29.116077635486466,-28.431758943696174,-27.747440251904827,-27.063121560112474,-26.37880286831912,-25.694484176524778,-25.010165484729409,-24.325846792933024,-23.641528101135641,-22.957209409337253,-22.272890717537805,-21.588572025737395,-20.904253333935966,-20.225118189681254,-19.592635463326474,-18.960152736970656,-18.327670010613826,-17.695187284255972,-17.062704557897096,-16.430221831537189,-15.797739105176284,-15.165256378814359,-14.532773652451382,-13.900290926087404,-13.267808199722408,-12.635325473356387,-12.002842746989337,-11.370360020621284,-10.737877294252192,-10.105394567882099,-9.4729118415109657,-8.84042911513882,-8.2079463887656541,-7.5966575177885725,-7.070145070050005,-6.54363262231038,-6.0171201745697154,-5.4906077268280038,-4.9640952790852486,-4.4375828313414454,-3.9110703835965972,-3.384557935850705,-2.8580454881037638,-2.3315330403557764,-1.805020592606738,-1.2785081448566582,-0.75199569710553038,-0.22548324935335823,0.30102919839986181,0.82754164615412618,1.3540540939094339,1.8805665416657877,2.4070789894231903,2.8875085270439906,3.2604098223891254,3.633311117735325,4.0062124130825847,4.37911370843091,4.7520150037803006,5.12491629913075,5.4978175944822709,5.87071888983485,6.2436201851885009,6.6165214805432058,6.9894227758989791,7.3623240712558244,7.7352253666137241,8.10812666197269,8.4810279573327225,8.8539292526938134,9.22683054805598,9.5997318434192049,9.9726331387834914,10.267354537934798,10.444804245325532,10.622253952717369,10.799703660110287,10.977153367504304,11.154603074899409,11.332052782295598,11.509502489692879,11.686952197091244,11.864401904490693,12.041851611891254,12.219301319292892,12.39675102669562,12.574200734099433,12.751650441504331,12.929100148910328,13.106549856317416,13.283999563725587,13.461449271134853,13.6388989785452,13.594783540677904,13.541646988143658,13.488510435610554,13.435373883078528,13.382237330547625,13.329100778017848,13.275964225489172,13.222827672961596,13.169691120435132,13.116554567909779,13.063418015385551,13.010281462862423,12.957144910340407,12.904008357819489,12.850871805299693,12.797735252780999,12.744598700263431,12.691462147746943,12.483163472893594,12.17142093876973,11.859678404647013,11.547935870525468,11.236193336405094,10.924450802285866,10.612708268167832,10.300965734050946,9.9892231999352283,9.67748066582067,9.3657381317072961,9.0539955975950779,8.7422530634840232,8.4305105293741445,8.1187679952654133,7.807025461157866,7.4952829270514663,7.1835403929462469,6.8717978588421875,6.5600553247393005,6.0524840844787056,5.4609836115671309,4.8694831386567126,4.2779826657474471,3.6864821928393159,3.0949817199323615,2.5034812470265453,1.9119807741218617,1.3204803012183532,0.72897982831597552,0.13747935541476008,-0.45402111748531065,-1.0455215903842228,-1.6370220632820032,-2.22852253617861,-2.8200230090740828,-3.4115234819683966,-4.00302395486156,-4.59452442775358,-5.1860249006444485,-6.01288712506404,-6.8985925682183709,-7.7842980113714635,-8.6700034545233144,-9.5557088976739344,-10.441414340823313,-11.327119783971458,-12.212825227118332,-13.098530670263989,-13.984236113408429,-14.869941556551595,-15.755646999693534,-16.641352442834204,-17.527057885973687,-18.412763329111883,-19.298468772248871,-20.184174215384608,-21.069879658519103,-21.95558510165236,-22.841290544784371,-23.999471210921811,-25.187929763486647,-26.376388316050214,-27.564846868612513,-28.753305421173589,-29.941763973733345,-31.130222526291845,-32.318681078849053,-33.507139631405089,-34.695598183959753,-35.88405673651318,-37.072515289065414,-38.260973841616263,-39.449432394165932,-40.637890946714322,-41.826349499261411,-43.014808051807265,-44.203266604351811,-45.391725156895184,-46.580183709437186,0,0.026283597339517416,0.071510158378205943,0.1457308799525692,0.25541436266039885,0.4011847267422059,0.58322738806323937,0.80141412593260963,1.0552731779562372,1.3438551429629682,1.5581435592118242,2.0558627238977012
DP 557,289.22960094487331,0.0010490548759993861,-18.733317183973185,-18.323353354485818,-17.913389524997875,-17.503425695509382,-17.093461866020323,-16.68349803653069,-16.273534207040502,-15.863570377549749,-15.453606548058413,-15.043642718566524,-14.633678889074069,-14.223715059581043,-13.813751230087464,-13.403787400593311,-12.993823571098581,-12.583859741603305,-12.173895912107453,-11.763932082611037,-11.353968253114056,-10.944004423616507,-10.53747967445325,-10.161906973379736,-9.7863342723056643,-9.4107615712310277,-9.03518887015581,-8.6596161690800368,-8.28404346800369,-7.9084707669267686,-7.5328980658492908,-7.1573253647712463,-6.7817526636926218,-6.40617996261344,-6.030607261533687,-5.6550345604533625,-5.27946185937248,-4.9038891582910171,-4.5283164572089953,-4.1527437561264,-3.7771710550432402,-3.4015983539595123,-3.0398315498976114,-2.7332889864106291,-2.4267464229230753,-2.1202038594349504,-1.8136612959462572,-1.5071187324569908,-1.200576168967153,-0.8940336054767426,-0.5874910419857623,-0.28094847849421029,0.025594084997914438,0.33213664849061308,0.63867921198388122,0.945221775477721,1.2517643389721325,1.5583069024671161,1.8648494659626704,2.1713920294587936,2.4779345929554908,2.7844771564527577,3.0618808125276624,3.2712927665232709,3.4807047205194563,3.6901166745162191,3.8995286285135675,4.1089405825114946,4.3183525365100026,4.5277644905090879,4.7371764445087585,4.9465883985090073,5.1560003525098352,5.365412306511244,5.574824260513231,5.7842362145157979,5.99364816851895,6.2030601225226816,6.4124720765269938,6.6218840305318842,6.8312959845373511,7.0407079385434068,7.2025813919780637,7.2931459711903956,7.3837105504033174,7.47427512961683,7.5648397088309212,7.6554042880456041,7.74596886726087,7.8365334464767233,7.927098025693164,8.0176626049101927,8.10822718412781,8.19879176334601,8.2893563425647923,8.3799209217841657,8.4704855010041289,8.5610500802246747,8.6516146594458068,8.7421792386675286,8.8327438178898312,8.9233083971127254,8.8601909023179,8.8168307353810729,8.7734705684448446,8.7301104015092044,8.6867502345741716,8.6433900676397162,8.6000299007058647,8.5566697337726065,8.513309566839931,8.4699493999078648,8.42658923297639,8.3832290660455087,8.33986889911521,8.2965087321855151,8.2531485652564083,8.2097883983279036,8.16642823139999,8.1230680644726654,7.9938766200932605,7.80746297191797,7.6210493237433026,7.43463567556924,7.248222027395804,7.061808379222974,6.8753947310507648,6.6889810828791676,6.5025674347081948,6.3161537865378268,6.1297401383680912,5.9433264901989569,5.7569128420304452,5.5704991938625534,5.3840855456952683,5.19767189752861,5.0112582493625561,4.8248446011971264,4.6384309530323158,4.4520173048681153,4.1622352583301288,3.8281510738365103,3.4940668893434919,3.1599827048510849,2.8258985203592815,2.4918143358680953,2.1577301513775122,1.8236459668875269,1.4895617823981611,1.1554775979093914,0.82139341342123628,0.48730922893368517,0.153225044446747,-0.18085914003959505,-0.51494332452531677,-0.84902750901044066,-1.1831116934949522,-1.5171958779788539,-1.8512800624621548,-2.1853642469448435,-2.6388986307752327,-3.1222969757737733,-3.6056953207716682,-4.0890936657689121,-4.5724920107655143,-5.0558903557614761,-5.5392887007567921,-6.0226870457514528,-6.5060853907454685,-6.9894837357388582,-7.4728820807315808,-7.9562804257236683,-8.4396787707151,-8.923077115705901,-9.4064754606960435,-9.8898738056855482,-10.37327215067441,-10.856670495662618,-11.340068840650183,-11.823467185637101,-12.44155878539471,-13.074617716954059,-13.707676648512757,-14.340735580070788,-14.973794511628196,-15.606853443184912,-16.239912374740982,-16.872971306296396,-17.506030237851164,-18.139089169405246,-18.772148100958709,-19.405207032511509,-20.038265964063648,-20.671324895615111,-21.304383827165939,-21.937442758716116,-22.57050169026564,-23.20356062181445,-23.836619553362709,-24.469678484910204,0,0.012994552190105304,0.036351479326939683,0.075264730932074586,0.13285254113981132,0.20945274197208993,0.30517374782381962,0.419949848053129,0.5535272088293921,0.70539490859430976,0.81819988280323763,1.0799713891219571
DP 558,293.40397049419,0.0053242571009680774,-95.997082271491763,-93.89067658844,-91.784270905385313,-89.677865222327668,-87.571459539267138,-85.465053856203724,-83.358648173137468,-81.252242490068227,-79.145836806996186,-77.039431123921261,-74.933025440843281,-72.8266197577626,-70.720214074678978,-68.613808391592414,-66.507402708503008,-64.400997025410732,-62.294591342315464,-60.188185659217382,-58.081779976116437,-55.975374293012507,-53.886725532109025,-51.957890749492471,-50.029055966873123,-48.100221184250834,-46.171386401625632,-44.242551618997538,-42.313716836366552,-40.384882053732611,-38.456047271095834,-36.527212488456144,-34.598377705813526,-32.669542923168024,-30.740708140519608,-28.811873357868283,-26.883038575214083,-24.954203792556957,-23.025369009896945,-21.096534227234027,-19.167699444568189,-17.238864661899466,-15.38124885112487,-13.808512293843242,-12.235775736558683,-10.663039179271196,-9.0903026219808076,-7.5175660646875,-5.944829507391268,-4.3720929500921137,-2.7993563927900467,-1.2266198354850597,0.34611672182285341,1.918853279133697,3.4915898364474502,5.064326393764123,6.6370629510837222,8.2097995084062347,9.78253606573167,11.355272623060012,12.928009180391271,14.500745737725461,15.923376778903192,16.995756886268108,18.068136993635974,19.140517101006807,20.2128972083806,21.28527731575738,22.357657423137088,23.430037530519797,24.502417637905445,25.574797745294092,26.647177852685651,27.719557960080216,28.791938067477741,29.864318174878214,30.936698282281679,32.009078389688064,33.081458497097437,34.153838604509822,35.226218711925114,36.298598819343368,37.126559686326367,37.587885916873105,38.049212147422907,38.510538377975664,38.971864608531448,39.43319083909018,39.894517069651947,40.355843300216691,40.817169530784433,41.278495761355188,41.739821991928942,42.201148222505651,42.662474453085395,43.123800683668129,43.58512691425382,44.046453144842538,44.507779375434275,44.969105606028975,45.430431836626667,45.891758067227357,45.558258691447,45.332592396308762,45.106926101173578,44.881259806041378,44.655593510912304,44.429927215786158,44.204260920663117,43.97859462554306,43.752928330426052,43.527262035312063,43.301595740201172,43.075929445093259,42.850263149988358,42.624596854886519,42.398930559787708,42.173264264691944,41.947597969599208,41.721931674509491,41.057090916302336,40.099460264055978,39.141829611812739,38.184198959572619,37.226568307335668,36.268937655101851,35.311307002871196,34.353676350643674,33.396045698419293,32.438415046198074,31.480784393979988,30.523153741765032,29.565523089553274,28.607892437344624,27.650261785139133,26.692631132936771,25.735000480737543,24.777369828541481,23.819739176348563,22.8621085241588,21.376896281794128,19.665570519644994,17.954244757498948,16.24291899535601,14.531593233216128,12.820267471079434,11.108941708945792,9.3976159468152058,7.6862901846877874,5.9749644225634064,4.26363866044217,2.5523128983240135,0.84098713620898469,-0.87033862590300115,-2.5816643880118217,-4.2929901501175882,-6.0043159122202292,-7.7156416743197624,-9.426967436416227,-11.138293198509569,-13.457955377741555,-15.929708848891062,-18.401462320037307,-20.873215791180247,-23.344969262319889,-25.816722733456256,-28.288476204589326,-30.760229675719078,-33.231983146845565,-35.703736617968758,-38.17549008908864,-40.647243560205261,-43.1189970313185,-45.590750502428541,-48.062503973535222,-50.534257444638676,-53.0060109157388,-55.477764386835695,-57.949517857929131,-60.4212713290194,-63.577965026834349,-66.810770387814614,-70.04357574879154,-73.276381109765111,-76.509186470735344,-79.741991831702222,-82.97479719266579,-86.20760255362589,-89.440407914582778,-92.67321327553627,-95.906018636486408,-99.138823997433235,-102.37162935837669,-105.6044347193169,-108.83724008025361,-112.07004544118702,-115.30285080211705,-118.53565616304381,-121.76846152396722,-125.00126688488726,0,0.066225552274663937,0.18537657406582383,0.38395870310711627,0.67785232630417835,1.0687828734586811,1.5573049294383137,2.1430833309634703,2.8248220336172065,3.5999120139262506,4.175639227779242,5.5116229647357606
