# 
# 07/02/2024 12:41:55
# The parameters defined in the project are:
# ,P213 - Specific Heat [J kg^-1 C^-1],P214 - Temperature Magnitude [C],P1 - Normal Stress Average [MPa],P2 - Normal Stress 2 Average [MPa],P3 - Normal Stress 3 Average [MPa],P4 - Normal Stress 4 Average [MPa],P5 - Normal Stress 5 Average [MPa],P6 - Normal Stress 6 Average [MPa],P7 - Normal Stress 7 Average [MPa],P8 - Normal Stress 8 Average [MPa],P9 - Normal Stress 9 Average [MPa],P10 - Normal Stress 10 Average [MPa],P11 - Normal Stress 11 Average [MPa],P12 - Normal Stress 12 Average [MPa],P13 - Normal Stress 13 Average [MPa],P14 - Normal Stress 14 Average [MPa],P15 - Normal Stress 15 Average [MPa],P16 - Normal Stress 16 Average [MPa],P17 - Normal Stress 17 Average [MPa],P18 - Normal Stress 18 Average [MPa],P19 - Normal Stress 19 Average [MPa],P20 - Normal Stress 20 Average [MPa],P21 - Normal Stress 21 Average [MPa],P22 - Normal Stress 22 Average [MPa],P23 - Normal Stress 23 Average [MPa],P24 - Normal Stress 24 Average [MPa],P25 - Normal Stress 25 Average [MPa],P26 - Normal Stress 26 Average [MPa],P27 - Normal Stress 27 Average [MPa],P28 - Normal Stress 28 Average [MPa],P29 - Normal Stress 29 Average [MPa],P30 - Normal Stress 30 Average [MPa],P31 - Normal Stress 31 Average [MPa],P32 - Normal Stress 32 Average [MPa],P33 - Normal Stress 33 Average [MPa],P34 - Normal Stress 34 Average [MPa],P35 - Normal Stress 35 Average [MPa],P36 - Normal Stress 36 Average [MPa],P37 - Normal Stress 37 Average [MPa],P38 - Normal Stress 38 Average [MPa],P39 - Normal Stress 39 Average [MPa],P40 - Normal Stress 40 Average [MPa],P41 - Normal Stress 41 Average [MPa],P42 - Normal Stress 42 Average [MPa],P43 - Normal Stress 43 Average [MPa],P44 - Normal Stress 44 Average [MPa],P45 - Normal Stress 45 Average [MPa],P46 - Normal Stress 46 Average [MPa],P47 - Normal Stress 47 Average [MPa],P48 - Normal Stress 48 Average [MPa],P49 - Normal Stress 49 Average [MPa],P50 - Normal Stress 50 Average [MPa],P51 - Normal Stress 51 Average [MPa],P52 - Normal Stress 52 Average [MPa],P53 - Normal Stress 53 Average [MPa],P54 - Normal Stress 54 Average [MPa],P55 - Normal Stress 55 Average [MPa],P56 - Normal Stress 56 Average [MPa],P57 - Normal Stress 57 Average [MPa],P58 - Normal Stress 58 Average [MPa],P59 - Normal Stress 59 Average [MPa],P60 - Normal Stress 60 Average [MPa],P61 - Normal Stress 61 Average [MPa],P62 - Normal Stress 62 Average [MPa],P63 - Normal Stress 63 Average [MPa],P64 - Normal Stress 64 Average [MPa],P65 - Normal Stress 65 Average [MPa],P66 - Normal Stress 66 Average [MPa],P67 - Normal Stress 67 Average [MPa],P68 - Normal Stress 68 Average [MPa],P69 - Normal Stress 69 Average [MPa],P70 - Normal Stress 70 Average [MPa],P71 - Normal Stress 71 Average [MPa],P72 - Normal Stress 72 Average [MPa],P73 - Normal Stress 73 Average [MPa],P74 - Normal Stress 74 Average [MPa],P75 - Normal Stress 75 Average [MPa],P76 - Normal Stress 76 Average [MPa],P77 - Normal Stress 77 Average [MPa],P78 - Normal Stress 78 Average [MPa],P79 - Normal Stress 79 Average [MPa],P80 - Normal Stress 80 Average [MPa],P81 - Normal Stress 81 Average [MPa],P82 - Normal Stress 82 Average [MPa],P83 - Normal Stress 83 Average [MPa],P84 - Normal Stress 84 Average [MPa],P85 - Normal Stress 85 Average [MPa],P86 - Normal Stress 86 Average [MPa],P87 - Normal Stress 87 Average [MPa],P88 - Normal Stress 88 Average [MPa],P89 - Normal Stress 89 Average [MPa],P90 - Normal Stress 90 Average [MPa],P91 - Normal Stress 91 Average [MPa],P92 - Normal Stress 92 Average [MPa],P93 - Normal Stress 93 Average [MPa],P94 - Normal Stress 94 Average [MPa],P95 - Normal Stress 95 Average [MPa],P96 - Normal Stress 96 Average [MPa],P97 - Normal Stress 97 Average [MPa],P98 - Normal Stress 98 Average [MPa],P99 - Normal Stress 99 Average [MPa],P100 - Normal Stress 100 Average [MPa],P103 - Normal Stress 103 Average [MPa],P104 - Normal Stress 104 Average [MPa],P105 - Normal Stress 105 Average [MPa],P106 - Normal Stress 106 Average [MPa],P107 - Normal Stress 107 Average [MPa],P108 - Normal Stress 108 Average [MPa],P109 - Normal Stress 109 Average [MPa],P110 - Normal Stress 110 Average [MPa],P111 - Normal Stress 111 Average [MPa],P112 - Normal Stress 112 Average [MPa],P113 - Normal Stress 113 Average [MPa],P114 - Normal Stress 114 Average [MPa],P115 - Normal Stress 115 Average [MPa],P116 - Normal Stress 116 Average [MPa],P117 - Normal Stress 117 Average [MPa],P118 - Normal Stress 118 Average [MPa],P119 - Normal Stress 119 Average [MPa],P120 - Normal Stress 120 Average [MPa],P121 - Normal Stress 121 Average [MPa],P122 - Normal Stress 122 Average [MPa],P123 - Normal Stress 123 Average [MPa],P124 - Normal Stress 124 Average [MPa],P125 - Normal Stress 125 Average [MPa],P126 - Normal Stress 126 Average [MPa],P127 - Normal Stress 127 Average [MPa],P128 - Normal Stress 128 Average [MPa],P129 - Normal Stress 129 Average [MPa],P130 - Normal Stress 130 Average [MPa],P131 - Normal Stress 131 Average [MPa],P132 - Normal Stress 132 Average [MPa],P133 - Normal Stress 133 Average [MPa],P134 - Normal Stress 134 Average [MPa],P135 - Normal Stress 135 Average [MPa],P136 - Normal Stress 136 Average [MPa],P137 - Normal Stress 137 Average [MPa],P138 - Normal Stress 138 Average [MPa],P139 - Normal Stress 139 Average [MPa],P140 - Normal Stress 140 Average [MPa],P141 - Normal Stress 141 Average [MPa],P142 - Normal Stress 142 Average [MPa],P143 - Normal Stress 143 Average [MPa],P144 - Normal Stress 144 Average [MPa],P145 - Normal Stress 145 Average [MPa],P146 - Normal Stress 146 Average [MPa],P147 - Normal Stress 147 Average [MPa],P148 - Normal Stress 148 Average [MPa],P149 - Normal Stress 149 Average [MPa],P150 - Normal Stress 150 Average [MPa],P151 - Normal Stress 151 Average [MPa],P152 - Normal Stress 152 Average [MPa],P153 - Normal Stress 153 Average [MPa],P154 - Normal Stress 154 Average [MPa],P155 - Normal Stress 155 Average [MPa],P156 - Normal Stress 156 Average [MPa],P157 - Normal Stress 157 Average [MPa],P158 - Normal Stress 158 Average [MPa],P159 - Normal Stress 159 Average [MPa],P160 - Normal Stress 160 Average [MPa],P161 - Normal Stress 161 Average [MPa],P162 - Normal Stress 162 Average [MPa],P163 - Normal Stress 163 Average [MPa],P164 - Normal Stress 164 Average [MPa],P165 - Normal Stress 165 Average [MPa],P166 - Normal Stress 166 Average [MPa],P167 - Normal Stress 167 Average [MPa],P168 - Normal Stress 168 Average [MPa],P169 - Normal Stress 169 Average [MPa],P170 - Normal Stress 170 Average [MPa],P171 - Normal Stress 171 Average [MPa],P172 - Normal Stress 172 Average [MPa],P173 - Normal Stress 173 Average [MPa],P174 - Normal Stress 174 Average [MPa],P175 - Normal Stress 175 Average [MPa],P176 - Normal Stress 176 Average [MPa],P177 - Normal Stress 177 Average [MPa],P178 - Normal Stress 178 Average [MPa],P179 - Normal Stress 179 Average [MPa],P180 - Normal Stress 180 Average [MPa],P181 - Normal Stress 181 Average [MPa],P182 - Normal Stress 182 Average [MPa],P183 - Normal Stress 183 Average [MPa],P184 - Normal Stress 184 Average [MPa],P185 - Normal Stress 185 Average [MPa],P186 - Normal Stress 186 Average [MPa],P187 - Normal Stress 187 Average [MPa],P188 - Normal Stress 188 Average [MPa],P189 - Normal Stress 189 Average [MPa],P190 - Normal Stress 190 Average [MPa],P191 - Normal Stress 191 Average [MPa],P192 - Normal Stress 192 Average [MPa],P193 - Normal Stress 193 Average [MPa],P194 - Normal Stress 194 Average [MPa],P195 - Normal Stress 195 Average [MPa],P196 - Normal Stress 196 Average [MPa],P197 - Normal Stress 197 Average [MPa],P198 - Normal Stress 198 Average [MPa],P199 - Normal Stress 199 Average [MPa],P200 - Normal Stress 200 Average [MPa],P201 - Total Deformation Average [mm],P202 - Total Deformation 2 Average [mm],P203 - Total Deformation 3 Average [mm],P204 - Total Deformation 4 Average [mm],P205 - Total Deformation 5 Average [mm],P206 - Total Deformation 6 Average [mm],P207 - Total Deformation 7 Average [mm],P208 - Total Deformation 8 Average [mm],P209 - Total Deformation 9 Average [mm],P210 - Total Deformation 10 Average [mm],P211 - Total Deformation 11 Average [mm],P212 - Total Deformation 12 Average [mm]
# 
# The following header line defines the name of the columns by reference to the parameters.
Name,P213,P214,P1,P2,P3,P4,P5,P6,P7,P8,P9,P10,P11,P12,P13,P14,P15,P16,P17,P18,P19,P20,P21,P22,P23,P24,P25,P26,P27,P28,P29,P30,P31,P32,P33,P34,P35,P36,P37,P38,P39,P40,P41,P42,P43,P44,P45,P46,P47,P48,P49,P50,P51,P52,P53,P54,P55,P56,P57,P58,P59,P60,P61,P62,P63,P64,P65,P66,P67,P68,P69,P70,P71,P72,P73,P74,P75,P76,P77,P78,P79,P80,P81,P82,P83,P84,P85,P86,P87,P88,P89,P90,P91,P92,P93,P94,P95,P96,P97,P98,P99,P100,P103,P104,P105,P106,P107,P108,P109,P110,P111,P112,P113,P114,P115,P116,P117,P118,P119,P120,P121,P122,P123,P124,P125,P126,P127,P128,P129,P130,P131,P132,P133,P134,P135,P136,P137,P138,P139,P140,P141,P142,P143,P144,P145,P146,P147,P148,P149,P150,P151,P152,P153,P154,P155,P156,P157,P158,P159,P160,P161,P162,P163,P164,P165,P166,P167,P168,P169,P170,P171,P172,P173,P174,P175,P176,P177,P178,P179,P180,P181,P182,P183,P184,P185,P186,P187,P188,P189,P190,P191,P192,P193,P194,P195,P196,P197,P198,P199,P200,P201,P202,P203,P204,P205,P206,P207,P208,P209,P210,P211,P212
DP 53,52,0.0065,-94.081063337087855,-92.132714168669892,-90.184365000249315,-88.236015831826037,-86.287666663399946,-84.3393174949712,-82.390968326539721,-80.442619158105614,-78.494269989668751,-76.545920821229146,-74.599424182208438,-72.688125952404562,-70.776827722598014,-68.865529492788639,-66.954231262976577,-65.04293303316183,-63.131634803344205,-61.22033657352388,-59.309038343700841,-57.397740113875038,-55.494167098329712,-53.660121741530979,-51.826076384729461,-49.9920310279252,-48.157985671118055,-46.323940314308132,-44.48989495749543,-42.655849600679893,-40.821804243861564,-38.987758887040414,-37.170944290858415,-35.451771757432546,-33.732599224003813,-32.013426690572153,-30.294254157137662,-28.575081623700228,-26.855909090259946,-25.136736556816775,-23.417564023370705,-21.698391489921786,-20.009457844341057,-18.441481179355918,-16.873504514367873,-15.305527849376857,-13.737551184382925,-12.169574519386023,-10.601597854386178,-9.0336211893833838,-7.4656445243776579,-5.8976678593689806,-4.3761363890368479,-2.9939422587687421,-1.6117481284976038,-0.2295539982234307,1.1526401320537831,2.5348342623340345,3.9170283926173095,5.2992225229036318,6.6814166531929784,8.0636107834853679,9.3803082510570182,10.544177592767726,11.708046934481585,12.871916276198576,14.035785617918702,15.199654959641945,16.36352430136834,17.527393643097863,18.691262984830509,19.855132326566316,20.931995370957402,21.847272942001506,22.762550513048865,23.677828084099456,24.593105655153284,25.508383226210348,26.423660797270617,27.33893836833419,28.254215939400968,29.169493510470975,29.974230508468207,30.613154034740173,31.252077561015479,31.891001087294118,32.529924613576128,33.168848139861481,33.807771666150195,34.446695192442249,35.085618718737685,35.724542245036446,36.227783917481709,36.565189363027791,36.902594808577319,37.240000254130393,37.577405699686942,37.914811145246958,38.25221659081042,38.58962203637742,38.92702748194786,39.264432927521753,39.466600820804814,39.479986276478037,39.49337173215487,39.506757187835305,39.520142643519371,39.533528099207075,39.546913554898346,39.560299010593241,39.384557502718827,39.05407250164226,38.723587500569387,38.393102499500294,38.062617498434946,37.7321324973734,37.401647496315626,37.071162495261575,36.740677494211283,36.410192493164807,35.863041000348339,35.171441766415377,34.47984253248633,33.788243298561191,33.09664406464,32.405044830722694,31.713445596809336,31.021846362899851,30.330247128994344,29.638647895092689,28.702737457430715,27.635271280416244,26.567805103405835,25.5003389263995,24.432872749397227,23.365406572399017,22.297940395404872,21.230474218414823,20.163008041428807,19.095541864446876,17.756323688037348,16.300635782155176,14.844947876277217,13.38925997040357,11.933572064534161,10.477884158669037,9.0221962528081718,7.5665083469515233,6.1108204410991833,4.6551325352510933,2.9006314893543634,1.0465222975490254,-0.80758689425191732,-2.6616960860484586,-4.5158052778405624,-6.3699144696283243,-8.2240236614116071,-10.078132853190503,-11.932242044965056,-13.786351236735136,-15.965503771962782,-18.2259209834925,-20.486338195017527,-22.746755406537776,-25.007172618053239,-27.267589829563878,-29.528007041069795,-31.788424252570923,-34.048841464067252,-36.309258675558915,-38.920519866134114,-41.593698601512195,-44.266877336885557,-46.940056072254407,-49.61323480761849,-52.286413542977961,-54.959592278332792,-57.632771013682969,-60.305949749028549,-62.9791284843695,-66.027265051458372,-69.117067537793034,-72.206870024122651,-75.2966725104469,-78.386474996766026,-81.476277483079983,-84.566079969388738,-87.655882455692165,-90.745684941990589,-93.835487428283741,-97.32378296254106,-100.83305577995824,-104.34232859737024,-107.85160141477695,-111.36087423217835,-114.87014704957453,-118.37941986696524,-121.88869268435053,-125.39796550173068,-128.90723831910546,0.74181803208598474,0.74181803208598474,0.74181803208598474,0.74181803208598474,0.74181803208598474,0.74181803208598474,0.74181803208598474,0.74181803208598474,0.74181803208598474,0.74181803208598474,0.74181803208598474,0.74181803208598474
DP 54,258.13501773360372,0.0017846937353072512,-83.112873949010307,-80.812842900521957,-78.5128118520322,-76.212780803541023,-73.912749755048381,-71.612718706554432,-69.312687658058948,-67.0126566095621,-64.712625561063888,-62.412594512564155,-60.117084497717926,-57.907474976989704,-55.697865456260047,-53.488255935528969,-51.278646414796519,-49.06903689406267,-46.859427373327371,-44.649817852590765,-42.440208331852659,-40.2305988111132,-38.039081795400755,-36.010399035077931,-33.981716274753758,-31.953033514428245,-29.924350754101368,-27.895667993773149,-25.866985233443515,-23.838302473112542,-21.809619712780233,-19.780936952446552,-17.790164900225374,-16.014222582905681,-14.2382802655846,-12.462337948262135,-10.686395630938303,-8.91045331361308,-7.1345109962864717,-5.3585686789584761,-3.5826263616291065,-1.8066840442983574,-0.091796695838222475,1.3788678916281496,2.8495324790958678,4.3201970665649521,5.7908616540353757,7.2615262415071689,8.73219082898032,10.202855416454835,11.673520003930685,13.144184591407901,14.530726086005636,15.664895121384443,16.7990641567646,17.933233192146123,19.067402227529012,20.201571262913255,21.335740298298852,22.46990933368582,23.60407836907412,24.738247404463817,25.768303960744809,26.55542729874168,27.342550636739908,28.129673974739475,28.916797312740457,29.703920650742731,30.491043988746384,31.278167326751397,32.065290664757818,32.852414002765535,33.520703266198893,33.968297467600493,34.415891669003436,34.863485870407757,35.311080071813393,35.758674273220457,36.206268474628843,36.653862676038592,37.101456877449756,37.54905107886227,37.869485378770825,37.999176821587248,38.128868264405085,38.258559707224279,38.388251150044823,38.517942592866788,38.647634035690082,38.777325478514811,38.907016921340855,39.036708364168355,39.037417673773916,38.880479444645566,38.723541215518608,38.566602986393036,38.409664757268857,38.252726528146063,38.095788299024655,37.938850069904653,37.781911840786051,37.624973611668771,36.529058172283435,36.122079169675125,35.71510016706825,35.308121164462754,34.901142161858651,34.494163159255969,34.087184156654715,33.680205154054811,33.156708106862652,32.537876111648984,31.919044116436723,31.300212121225904,30.681380126016524,30.06254813080858,29.443716135602056,28.824884140396968,28.20605214519329,27.587220149991051,26.863424864455084,26.069652398483683,25.275879932513703,24.482107466545187,23.688335000578139,22.894562534612515,22.100790068648358,21.307017602685665,20.513245136724425,19.71947267076461,18.833870994177691,17.89882148420336,16.963771974230525,16.028722464259168,15.093672954289287,14.1586234443209,13.22357393435397,12.288524424388557,11.353474914424604,10.418425404462129,9.40496105586649,8.357889024303768,7.3108169927425219,6.2637449611828409,5.21667292962465,4.1696008980679995,3.1225288665128579,2.0754568349592093,1.0283848034071057,-0.018687228143489675,-1.1315470588510872,-2.2663369850566819,-3.4011269112607381,-4.5359168374632555,-5.6707067636642048,-6.805496689863646,-7.9402866160615018,-9.07507654225782,-10.209866468452635,-11.344656394645853,-12.534127704678614,-13.737270006739635,-14.94041230879907,-16.143554610856881,-17.346696912913064,-18.549839214967591,-19.752981517020491,-20.9561238190718,-22.159266121121441,-23.362408423169512,-24.611373739648531,-25.868425979996594,-27.125478220343002,-28.382530460687907,-29.639582701031177,-30.89663494137287,-32.153687181712932,-33.410739422051428,-34.667791662388332,-35.92484390272368,-37.221275479296793,-38.522082951248933,-39.822890423199325,-41.123697895147941,-42.424505367094923,-43.725312839040086,-45.026120310983586,-46.326927782925296,-47.627735254865385,-48.928542726803705,-50.265404378279989,-51.604163976876357,-52.942923575471056,-54.281683174063971,-55.620442772655068,-56.959202371244537,-58.2979619698322,-59.636721568418,-60.975481167002172,-62.314240765584515,0.26100360677448331,0.26100360677448331,0.26100360677448331,0.26100360677448331,0.26100360677448331,0.26100360677448331,0.26100360677448331,0.26100360677448331,0.26100360677448331,0.26100360677448331,0.26100360677448331,0.26100360677448331
DP 55,180.79465669237257,0.0016677987431232722,-59.8039737390031,-58.251567382436129,-56.699161025867859,-55.146754669298211,-53.594348312727192,-52.041941956155,-50.4895355995814,-48.937129243006488,-47.384722886430218,-45.832316529852662,-44.282396971905719,-42.779727058081164,-41.277057144255274,-39.774387230428026,-38.271717316599492,-36.769047402769623,-35.266377488938438,-33.763707575105968,-32.261037661272127,-30.758367747436989,-29.265786326346131,-27.864002293546037,-26.462218260744631,-25.060434227941968,-23.658650195138037,-22.256866162332813,-20.855082129526302,-19.453298096718516,-18.051514063909476,-16.649730031099139,-15.269542796690864,-14.011738780811758,-12.753934764931371,-11.496130749049662,-10.238326733166664,-8.9805227172823461,-7.7227187013967384,-6.4649146855098154,-5.2071106696215992,-3.9493066537320769,-2.7273293910937504,-1.6486608346654328,-0.56999227823584075,0.508676278195039,1.5873448346271912,2.6660133910606345,3.744681947495355,4.82335050393136,5.9020190603686391,6.9806876168072058,8.0081236363808355,8.8818601083257356,9.7555965802719218,10.629333052219401,11.503069524168172,12.376805996118243,13.250542468069577,14.124278940022197,14.998015411976107,15.871751883931307,16.6792015619606,17.331979443525626,17.984757325091916,18.637535206659511,19.290313088228398,19.943090969798579,20.595868851370049,21.248646732942824,21.901424614516856,22.554202496092209,23.127343697970584,23.552586058302794,23.977828418636292,24.403070778971095,24.828313139307177,25.253555499644598,25.678797859983263,26.104040220323284,26.529282580664582,26.954524941007172,27.289500722297177,27.489074501974994,27.688648281654135,27.888222061334574,28.087795841016327,28.287369620699387,28.486943400383765,28.686517180069426,28.886090959756434,29.085664739444749,29.187667502991886,29.170414752909238,29.153162002827962,29.135909252747961,29.118656502669303,29.101403752592017,29.084151002515988,29.066898252441312,29.049645502367955,29.032392752295948,28.473825189318358,28.253848330911989,28.033871472506924,27.813894614103212,27.593917755700875,27.373940897299871,27.153964038900234,26.933987180501909,26.612189569888329,26.207082321236257,25.801975072585563,25.396867823936212,24.991760575288215,24.586653326641613,24.181546077996366,23.776438829352522,23.371331580709995,22.966224332068865,22.461689194608507,21.890867231591329,21.320045268575569,20.749223305561173,20.178401342548192,19.60757937953661,19.036757416526449,18.465935453517638,17.895113490510258,17.324291527504251,16.658609068780773,15.941846502156395,15.22508393553349,14.508321368911997,13.791558802291926,13.074796235673277,12.358033669056043,11.64127110244026,10.924508535825886,10.207745969212944,9.4020800049030928,8.5583110838500662,7.7145421627984652,6.8707732417483713,6.0270043206997084,5.1832353996525287,4.3394664786068065,3.495697557562528,2.6519286365197341,1.8081597154783948,0.88199382761907186,-0.071638754281360462,-1.0252713361803074,-1.9789039180777648,-2.932536499973716,-3.8861690818682089,-4.8398016637611727,-5.7934342456526569,-6.7470668275426791,-7.7006994094311745,-8.7304227158341874,-9.7791696023892367,-10.827916488942737,-11.876663375494656,-12.925410262045002,-13.974157148593765,-15.022904035140961,-16.071650921686572,-17.120397808230631,-18.16914469477312,-19.288788790125214,-20.420944946006795,-21.553101101886789,-22.685257257765297,-23.817413413642253,-24.949569569517696,-26.081725725391543,-27.21388188126387,-28.346038037134669,-29.47819419300394,-30.677596566478023,-31.884471448151267,-33.091346329822791,-34.29822121149266,-35.505096093160908,-36.7119709748274,-37.918845856492268,-39.125720738155415,-40.332595619816928,-41.539470501476785,-42.812460690618877,-44.088931290606389,-45.365401890592196,-46.641872490576283,-47.918343090558643,-49.194813690539327,-50.471284290518327,-51.7477548904955,-53.024225490471061,-54.300696090444838,0.2529690302058194,0.2529690302058194,0.2529690302058194,0.2529690302058194,0.2529690302058194,0.2529690302058194,0.2529690302058194,0.2529690302058194,0.2529690302058194,0.2529690302058194,0.2529690302058194,0.2529690302058194
DP 56,78.340167298994714,0.00429504243556063,-81.218508542262242,-79.401298233385518,-77.584087924506065,-75.766877615624125,-73.949667306739585,-72.1324569978524,-70.315246688962645,-68.498036380070346,-66.680826071175375,-64.863615762277846,-63.048357126389256,-61.2701806466713,-59.492004166950672,-57.713827687227436,-55.93565120750165,-54.15747472777327,-52.379298248042247,-50.601121768308616,-48.82294528857242,-47.044768808833595,-45.274686124247,-43.577448361091506,-41.880210597933356,-40.182972834772677,-38.48573507160939,-36.788497308443532,-35.0912595452751,-33.39402178210409,-31.696784018930494,-29.999546255754328,-28.320194007861893,-26.742194140302669,-25.164194272740794,-23.586194405176251,-22.008194537609118,-20.430194670039327,-18.852194802466908,-17.274194934891828,-15.696195067314131,-14.118195199733778,-12.571208944466601,-11.1482786041883,-9.7253482639073763,-8.3024179236238087,-6.87948758333762,-5.4565572430487794,-4.0336269027573142,-2.6106965624632039,-1.1877662221664704,0.23516411813290056,1.6111949143112541,2.8465253049144152,4.0818556955202512,5.3171860861287623,6.5525164767399495,7.7878468673538155,9.0231772579703531,10.258507648589573,11.493838039211452,12.729168429836024,13.899565344601772,14.918448258362389,15.93733117212571,16.956214085891762,17.975096999660515,18.993979913432007,20.012862827206185,21.031745740983116,22.050628654762743,23.069511568545106,24.003957227968794,24.781588563256918,25.559219898547806,26.336851233841475,27.1144825691379,27.892113904437117,28.669745239739068,29.447376575043823,30.225007910351295,31.00263924566158,31.675501673609876,32.191208264785793,32.706914855964577,33.222621447146096,33.738328038330543,34.254034629517761,34.769741220707836,35.285447811900696,35.801154403096383,36.316860994294942,36.707248848995967,36.944466726796925,37.181684604600733,37.418902482407482,37.656120360217081,37.893338238029585,38.130556115844982,38.367773993663249,38.604991871484437,38.842209749308481,38.825912256612007,38.771949133521538,38.717986010434032,38.664022887349496,38.610059764267916,38.556096641189313,38.502133518113631,38.448170395040961,38.2290188150889,37.874710204263131,37.520401593440354,37.166092982620619,36.811784371803938,36.457475760990292,36.10316715017975,35.748858539372236,35.394549928567713,35.0402413177663,34.502071972616122,33.8413259081045,33.180579843596,32.519833779090618,31.859087714588444,31.198341650089311,30.537595585593415,29.876849521100581,29.216103456610931,28.5553573921244,27.69311957861618,26.722383277899848,25.751646977186834,24.78091067647701,23.810174375770547,22.839438075067257,21.868701774367274,20.897965473670549,19.927229172977118,18.956492872286898,17.767666575736005,16.48536945699361,15.20307233825452,13.920775219518834,12.638478100786456,11.356180982057458,10.073883863331815,8.79158674460948,7.5092896258905384,6.2269925071749279,4.7108655341884873,3.1167923295262612,1.5227191248674627,-0.071354079787905408,-1.6654272844398075,-3.2595004890883263,-4.8535736937333382,-6.447646898374936,-8.0417201030131515,-9.6357933076478641,-11.478637661879413,-13.383677742780032,-15.288717823677029,-17.193757904570329,-19.098797985459989,-21.003838066345928,-22.908878147228229,-24.813918228106854,-26.718958308981794,-28.623998389853107,-30.792647259473963,-33.0078182584768,-35.222989257475966,-37.438160256471626,-39.653331255463648,-41.86850225445211,-44.083673253437,-46.298844252418263,-48.514015251395975,-50.72918625037012,-53.222257755206229,-55.746210012636894,-58.2701622700636,-60.794114527486357,-63.318066784905227,-65.842019042320089,-68.365971299731015,-70.889923557137891,-73.4138758145409,-75.93782807194,-78.754614594771056,-81.5868163609452,-84.419018127115308,-87.251219893281331,-90.083421659443331,-92.915623425601339,-95.747825191755211,-98.580026957905,-101.41222872405076,-104.24443049019246,0.58570612942509348,0.58570612942509348,0.58570612942509348,0.58570612942509348,0.58570612942509348,0.58570612942509348,0.58570612942509348,0.58570612942509348,0.58570612942509348,0.58570612942509348,0.58570612942509348,0.58570612942509348
DP 57,156.39423797850398,0.0030183248953362923,-96.632557532181423,-94.186537131462828,-91.740516730741859,-89.2944963300185,-86.848475929292718,-84.402455528564644,-81.956435127834226,-79.510414727101391,-77.0643943263662,-74.6183739256287,-72.175982176828072,-69.802535500849729,-67.429088824869069,-65.055642148886008,-62.682195472900609,-60.308748796912923,-57.935302120922728,-55.56185544493038,-53.188408768935545,-50.8149620929384,-48.456303015114571,-46.230733718618929,-44.005164422120984,-41.779595125620759,-39.554025829118238,-37.328456532613458,-35.102887236106348,-32.877317939596978,-30.651748643085337,-28.4261793465714,-26.232486098537574,-24.219425800555015,-22.206365502570133,-20.193305204582924,-18.18024490659338,-16.167184608601509,-14.154124310607308,-12.141064012610764,-10.1280037146119,-8.1149434166107088,-6.1552756906519788,-4.4091807762461421,-2.6630858618380291,-0.91699094742760989,0.829103966985089,2.5751988814000977,4.321293795817394,6.0673887102369912,7.8134836246588684,9.5595785390830432,11.228389926932509,12.665347813070012,14.102305699209824,15.539263585351929,16.976221471496359,18.413179357643092,19.850137243792126,21.287095129943484,22.724053016097116,24.161010902253061,25.496500240060453,26.595225635487278,27.693951030916427,28.792676426347906,29.891401821781702,30.990127217217811,32.08885261265624,33.18757800809697,34.286303403540032,35.385028798985417,36.359757083931669,37.104201672122912,37.848646260316457,38.593090848512361,39.337535436710581,40.081980024911132,40.826424613114021,41.57086920131924,42.315313789526812,43.059758377736692,43.660906579652227,44.04710681597841,44.433307052306958,44.81950728863788,45.20570752497111,45.591907761306786,45.978107997644756,46.364308233985149,46.750508470327794,47.136708706672842,47.364628904949612,47.399092398728413,47.433555892509666,47.468019386293292,47.50248288007927,47.536946373867735,47.571409867658481,47.60587336145165,47.640336855247206,47.674800349045142,46.936161362956881,46.633812433051951,46.331463503149394,46.029114573249281,45.726765643351584,45.424416713456289,45.12206778356348,44.819718853673045,44.343715534193507,43.725628366129911,43.107541198068759,42.489454030010087,41.871366861953916,41.25327969390014,40.635192525848872,40.0171053578001,39.399018189753782,38.780931021709925,37.988370712949639,37.07949222847072,36.17061374399433,35.261735259520435,34.352856775049069,33.443978290580212,32.535099806113877,31.626221321650032,30.717342837188795,29.808464352730027,28.727918649581095,27.554934255411002,26.381949861243523,25.208965467078595,24.035981072916272,22.862996678756506,21.690012284599344,20.517027890444776,19.34404349629278,18.171059102143353,16.831783689290486,15.421237890191778,14.010692091095631,12.600146292002218,11.1896004929114,9.77905469382326,8.36850889473775,6.9579630956548639,5.5474172965746664,4.1368714974971033,2.5667423988663738,0.94341685584965163,-0.67990868716437824,-2.3032342301757129,-3.9265597731843207,-5.549885316190279,-7.17321085919347,-8.7965364021939774,-10.419861945191846,-12.043187488186938,-13.819223360932407,-15.633438620411278,-17.447653879887358,-19.261869139360556,-21.076084398830933,-22.890299658298389,-24.704514917763035,-26.518730177224814,-28.33294543668374,-30.147160696139863,-32.108597340394162,-34.096015866146786,-36.083434391896553,-38.070852917643684,-40.058271443387845,-42.045689969129363,-44.033108494868,-46.020527020603879,-48.007945546336927,-49.995364072067233,-52.126611326574832,-54.273841061486017,-56.421070796394346,-58.568300531299535,-60.715530266201775,-62.862760001100817,-65.009989735997,-67.157219470889956,-69.30444920578,-71.451678940666923,-73.74319323424973,-76.042302887546739,-78.341412540840736,-80.64052219413152,-82.939631847419264,-85.238741500703938,-87.537851153985471,-89.836960807263765,-92.136070460539159,-94.435180113811271,0.45907184280177049,0.45907184280177049,0.45907184280177049,0.45907184280177049,0.45907184280177049,0.45907184280177049,0.45907184280177049,0.45907184280177049,0.45907184280177049,0.45907184280177049,0.45907184280177049,0.45907184280177049
DP 58,169.42585101174018,0.0034360794276239752,-117.14746611350031,-114.14068675040711,-111.13390738731137,-108.12712802421278,-105.12034866111149,-102.11356929800753,-99.106789934900831,-96.100010571791472,-93.093231208679327,-90.086451845564525,-87.084324501938028,-84.170586408078861,-81.256848314216938,-78.343110220352386,-75.429372126484992,-72.515634032615054,-69.601895938742317,-66.688157844866936,-63.774419750988841,-60.860681657108,-57.965854001993172,-55.241222083241468,-52.516590164487127,-49.791958245730214,-47.067326326970623,-44.342694408208452,-41.618062489443581,-38.893430570676145,-36.168798651906087,-33.444166733133365,-30.760148811677386,-28.306279434298951,-25.852410056917861,-23.398540679534111,-20.944671302147682,-18.490801924758578,-16.0369325473668,-13.583063169972322,-11.129193792575203,-8.6753244151754068,-6.2891306891844065,-4.1736427672425958,-2.0581548452981697,0.057333076648899021,2.1728209985985791,4.2883089205509117,6.4037968425058605,8.5192847644634551,10.634772686423663,12.750260608386501,14.768428039304494,16.494630317529573,18.220832595757269,19.947034873987619,21.673237152220604,23.399439430456251,25.125641708694548,26.851843986935474,28.578046265178997,30.304248543425242,31.903677822348413,33.207298443360109,34.510919064374505,35.814539685391516,37.118160306411184,38.42178092743351,39.7254015484585,41.029022169486119,42.332642790516424,43.636263411549358,44.786380129002495,45.651414022828675,46.516447916657555,47.381481810489134,48.246515704323365,49.111549598160252,49.976583491999804,50.841617385842021,51.706651279686938,52.5716851735345,53.26116693190027,53.687316338680105,54.113465745462626,54.539615152247819,54.965764559035769,55.391913965826319,55.818063372619605,56.2442127794156,56.6703621862143,57.096511593015691,57.331006447035108,57.331252821993708,57.331499196955043,57.331745571919008,57.331991946885807,57.332238321855286,57.332484696827407,57.332731071802414,57.33297744678012,57.33322382176047,56.327487121400758,55.925142405202486,55.522797689006993,55.120452972814277,54.718108256624369,54.31576354043721,53.913418824252858,53.51107410807122,52.904083859334861,52.129652839710268,51.355221820088495,50.5807908004695,49.806359780853406,49.031928761240039,48.257497741629564,47.483066722021888,46.708635702417048,45.934204682814979,44.957314963761476,43.845449588960186,42.733584214161759,41.621718839366252,40.509853464573617,39.397988089783816,38.286122714996935,37.174257340212883,36.062391965431765,34.950526590653467,33.642758717436251,32.229502034755889,30.816245352078521,29.402988669404071,27.989731986732586,26.57647530406404,25.163218621398414,23.749961938735808,22.336705256076087,20.923448573419325,19.323787809950161,17.644236436988773,15.964685064030327,14.285133691074986,12.6055823181226,10.926030945173276,9.2464795722269475,7.5669281992835975,5.8873768263433108,4.2078254534060262,2.352717516309919,0.4390885119842845,-1.4745404923382868,-3.388169496657786,-5.3017985009741757,-7.2154275052875629,-9.1290565095977829,-11.042685513904951,-12.95631451820911,-14.869943522510123,-16.948390614976173,-19.0680441768342,-21.187697738689039,-23.307351300540617,-25.427004862388959,-27.546658424234003,-29.666311986075822,-31.785965547914397,-33.905619109749715,-36.025272671581845,-38.300962629157624,-40.604190156422611,-42.907417683684322,-45.21064521094295,-47.513872738198309,-49.817100265450577,-52.120327792699591,-54.42355531994545,-56.726782847188169,-59.030010374427796,-61.483318204454527,-63.9533031998753,-66.423288195292784,-68.893273190706637,-71.363258186117235,-73.83324318152421,-76.303228176927732,-78.773213172327843,-81.243198167724515,-83.713183163117748,-86.332144353600313,-88.958947878707889,-91.58575140381204,-94.212554928912681,-96.839358454009769,-99.466161979103489,-102.09296550419346,-104.71976902927992,-107.34657255436314,-109.97337607944246,0.52231670066891056,0.52231670066891056,0.52231670066891056,0.52231670066891056,0.52231670066891056,0.52231670066891056,0.52231670066891056,0.52231670066891056,0.52231670066891056,0.52231670066891056,0.52231670066891056,0.52231670066891056
DP 59,198.75250594877355,0.0011997071268390416,-46.24590967837873,-45.025359267040159,-43.804808855700529,-42.584258444359961,-41.363708033018476,-40.143157621675989,-38.922607210332565,-37.70205679898821,-36.48150638764286,-35.260955976296536,-34.042465186024288,-32.863107585537158,-31.683749985049104,-30.504392384560067,-29.32503478407008,-28.145677183579171,-26.966319583087248,-25.78696198259442,-24.607604382100618,-23.428246781605896,-22.257217593162594,-21.16114490040578,-20.065072207648047,-18.968999514889394,-17.872926822129823,-16.776854129369326,-15.680781436607887,-14.584708743845544,-13.488636051082276,-12.392563358318082,-11.314230136755183,-10.336421703181172,-9.3586132696062077,-8.3808048360303182,-7.4029964024534856,-6.425187968875707,-5.4473795352969887,-4.4695711017173343,-3.4917626681367384,-2.5139542345552059,-1.5653695768253149,-0.73368140364407541,0.098006769538083266,0.9296949427211697,1.7613831159051709,2.5930712890901062,3.4247594622759583,4.2564476354627381,5.0881358086504411,5.9198239818390617,6.7100869291439773,7.3760726325654531,8.04205833598785,8.7080440394111687,9.3740297428354147,10.04001544626059,10.706001149686696,11.371986853113738,12.037972556541687,12.703958259970561,13.316906342944673,13.806097889358679,14.29528943577362,14.784480982189478,15.273672528606291,15.762864075024019,16.252055621442683,16.741247167862266,17.230438714282784,17.719630260704239,18.145875234909326,18.455217732196488,18.764560229484569,19.073902726773579,19.383245224063543,19.692587721354428,20.001930218646244,20.311272715939008,20.620615213232707,20.929957710527329,21.168927242597778,21.302335663892318,21.435744085187785,21.569152506484208,21.702560927781544,21.83596934907985,21.96937777037909,22.102786191679275,22.236194612980402,22.36960303428247,22.428099769233988,22.395036202920625,22.361972636608254,22.328909070296824,22.295845503986321,22.262781937676795,22.229718371368207,22.196654805060579,22.163591238753895,22.130527672448171,21.6487136897496,21.462600520606195,21.276487351463729,21.09037418232225,20.904261013181728,20.718147844042175,20.532034674903596,20.345921505765972,20.084332515600632,19.760989283852137,19.4376460521046,19.114302820358034,18.790959588612452,18.467616356867872,18.144273125124254,17.820929893381617,17.497586661639996,17.174243429899331,16.778647029515287,16.334880711790479,15.89111439406668,15.447348076343872,15.003581758622078,14.559815440901268,14.116049123181465,13.672282805462665,13.228516487744869,12.78475017002806,12.273513873492611,11.725946607230908,11.17837934097024,10.630812074710574,10.083244808451942,9.5356775421943389,8.988110275937748,8.44054300968219,7.892975743427642,7.3454084771741286,6.7360521333469965,6.1002137133452283,5.4643752933444727,4.828536873344798,4.1926984533461482,3.5568600333485647,2.9210216133520226,2.2851831933565125,1.6493447733620661,1.0135063533686632,0.32179325696424133,-0.38854543575629658,-1.0988841284757711,-1.8092228211941817,-2.519561513911512,-3.2299002066277955,-3.9402388993429849,-4.6505775920571155,-5.3609162847702,-6.0712549774821909,-6.8318860382978812,-7.6050907853513374,-8.378295532403687,-9.1515002794549147,-9.9247050265050021,-10.697909773553956,-11.471114520601809,-12.244319267648521,-13.017524014694102,-13.79072876173859,-14.609628404594766,-15.436592360727575,-16.26355631685923,-17.090520272989842,-17.917484229119317,-18.744448185247705,-19.571412141374989,-20.398376097501171,-21.225340053626258,-22.052304009750255,-22.92164476654289,-23.795694501798859,-24.669744237053628,-25.543793972307196,-26.417843707559598,-27.291893442810782,-28.165943178060793,-29.039992913309536,-29.914042648557146,-30.788092383803541,-31.703156463122408,-32.620379600204942,-33.537602737286235,-34.454825874366321,-35.372049011445171,-36.289272148522848,-37.206495285599253,-38.123718422674429,-39.040941559748433,-39.958164696821157,0.18091612754558584,0.18091612754558584,0.18091612754558584,0.18091612754558584,0.18091612754558584,0.18091612754558584,0.18091612754558584,0.18091612754558584,0.18091612754558584,0.18091612754558584,0.18091612754558584,0.18091612754558584
DP 60,95.829109254552989,0.0015090618572699025,-32.98025998698801,-32.214725516881913,-31.449191046774779,-30.68365657666666,-29.918122106557462,-29.152587636447254,-28.387053166336024,-27.621518696223774,-26.855984226110472,-26.090449755996175,-25.325810001005085,-24.578170002514682,-23.830530004023288,-23.082890005530832,-22.335250007037388,-21.587610008542896,-20.839970010047406,-20.09233001155086,-19.344690013053334,-18.59705001455475,-17.853104500962868,-17.142409700748519,-16.431714900533155,-15.721020100316789,-15.010325300099439,-14.299630499881067,-13.588935699661695,-12.878240899441312,-12.167546099219946,-11.456851298997565,-10.754270258130628,-10.09766769823373,-9.4410651383357962,-8.784462578436834,-8.12786001853685,-7.4712574586358418,-6.8146548987338038,-6.15805233883074,-5.5014497789266539,-4.8448472190215464,-4.202194381527061,-3.6153410929532823,-3.0284878043784857,-2.4416345158026722,-1.8547812272258437,-1.2679279386479936,-0.68107465006912871,-0.0942213614892427,0.4926319270916576,1.0794852156735764,1.6454691373520935,2.1488441692764866,2.6522192012019072,3.1555942331283564,3.6589692650558376,4.1623442969843483,4.6657193289138865,5.1690943608444551,5.6724693927760521,6.1758444247086786,6.6506995074913622,7.0590069190297573,7.4673143305691925,7.8756217421096606,8.28392915365118,8.6922365651937312,9.100543976737324,9.5088513882819612,9.9171587998276447,10.32546621137436,10.697245586215905,11.001186192122841,11.305126798030834,11.609067403939871,11.913008009849966,12.216948615761117,12.520889221673322,12.824829827586585,13.128770433500906,13.432711039416278,13.692107044626324,13.884685096172502,14.07726314771973,14.269841199268049,14.462419250817426,14.654997302367882,14.847575353919405,15.040153405472003,15.232731457025684,15.425309508580435,15.565617757033015,15.64203959266743,15.718461428302923,15.794883263939541,15.871305099577233,15.947726935216021,16.024148770855906,16.1005706064969,16.176992442138953,16.253414277782113,16.185342985218277,16.14282987622996,16.100316767242749,16.057803658256663,16.0152905492717,15.972777440287823,15.930264331305091,15.887751222323464,15.779256189881345,15.616774813388725,15.454293436897219,15.29181206040686,15.12933068391766,14.966849307429579,14.804367930942673,14.6418865544569,14.479405177972255,14.316923801488786,14.082695022027384,13.800633510303239,13.518571998580247,13.236510486858441,12.954448975137803,12.672387463418341,12.390325951700051,12.108264439982932,11.826202928267008,11.544141416552229,11.185300824703694,10.785116534742473,10.384932244782481,9.9847479548236873,9.5845636648661063,9.18437937490973,8.78419508495455,8.3840107950006111,7.983826505047861,7.5836422150963143,7.1022888465606844,6.5861473600197291,6.0700058734799924,5.5538643869415321,5.0377229004042912,4.521581413868315,4.0054399273335788,3.4892984408000736,2.973156954267826,2.4570154677368246,1.8557834911360254,1.2261869454639869,0.59659039979321926,-0.033006145876275733,-0.6626026915444857,-1.2921992372114435,-1.9217957828770975,-2.5513923285414886,-3.1809888742046226,-3.8105854198664568,-4.5288776429420929,-5.2693448333243635,-6.0098120237053019,-6.75027921408488,-7.4907464044630929,-8.2312135948399519,-8.971680785215451,-9.7121479755895912,-10.45261516596238,-11.193082356333832,-12.025915783614478,-12.875050162181251,-13.72418454074667,-14.573318919310816,-15.422453297873597,-16.271587676435065,-17.120722054995213,-17.969856433554032,-18.818990812111515,-19.668125190667695,-20.613345339190669,-21.569242693503398,-22.525140047814695,-23.481037402124532,-24.43693475643294,-25.392832110739867,-26.3487294650454,-27.304626819349359,-28.260524173651945,-29.216421527953067,-30.272726955459405,-31.334318017417537,-32.395909079374206,-33.457500141329355,-34.519091203283033,-35.580682265235268,-36.64227332718599,-37.7038643891352,-38.765455451082943,-39.827046513029167,0.21738555173104032,0.21738555173104032,0.21738555173104032,0.21738555173104032,0.21738555173104032,0.21738555173104032,0.21738555173104032,0.21738555173104032,0.21738555173104032,0.21738555173104032,0.21738555173104032,0.21738555173104032
DP 61,265.94840236492905,0.0034134659515180415,-162.23981461248502,-157.72474946479682,-153.2096843171058,-148.69461916941202,-144.1795540217158,-139.66448887401668,-135.14942372631492,-130.63435857861037,-126.11929343090327,-121.60422828319324,-117.09820206914269,-112.76391730342611,-108.42963253770685,-104.09534777198496,-99.761063006260329,-95.426778240533139,-91.09249347480322,-86.758208709070644,-82.423923943335382,-78.089639177597348,-73.791478774506771,-69.818441049801379,-65.845403325093443,-61.872365600382849,-57.8993278756697,-53.926290150953932,-49.953252426235586,-45.980214701514626,-42.007176976791108,-38.034139252064953,-34.136634759641723,-30.667156676635795,-27.1976785936273,-23.728200510616126,-20.258722427602343,-16.789244344585924,-13.319766261566823,-9.8502881785451049,-6.38081009552075,-2.9113320124937756,0.43686070749178307,3.2999062432595254,6.1629517790298438,9.0259973148027637,11.889042850578239,14.752088386356348,17.615133922136977,20.478179457920252,23.3412249937061,26.2042705294945,28.900820431568079,31.097877137522381,33.294933843479249,35.491990549438725,37.689047255400794,39.886103961365464,42.083160667332677,44.280217373302541,46.477274079274942,48.674330785249964,50.666233107745427,52.179433788992128,53.692634470241416,55.20583515149324,56.71903583274775,58.232236514004846,59.745437195264493,61.258637876526791,62.77183855779171,64.285039239059088,65.5652519628262,66.412766473413356,67.260280984003217,68.107795494595621,68.955310005190682,69.802824515788316,70.650339026388536,71.497853536991386,72.345368047596878,73.192882558204929,73.792483295463811,74.020207514403481,74.247931733345823,74.47565595229068,74.703380171238237,74.931104390188381,75.158828609141125,75.386552828096569,75.614277047054586,75.842001266015217,75.819800220066512,75.492129711827118,75.164459203590241,74.836788695356148,74.5091181871246,74.181447678895751,73.853777170669545,73.526106662445983,73.198436154225021,72.8707656460068,70.684546634964391,69.875592222370912,69.06663780978019,68.257683397192039,67.448728984606689,66.639774572023924,65.830820159443832,65.02186574686651,63.990223531795571,62.77637837854418,61.562533225295567,60.348688072049661,59.134842918806463,57.92099776556605,56.707152612328279,55.49330745909333,54.279462305861045,53.065617152631475,51.65268196802613,50.107016959458562,48.56135195089378,47.015686942331747,45.470021933772536,43.924356925216024,42.378691916662341,40.833026908111393,39.28736189956323,37.741696891017831,36.023250611868271,34.211765751389848,32.400280890914296,30.588796030441511,28.777311169971522,26.965826309504383,25.154341449040007,23.342856588578488,21.531371728119719,19.7198868676638,17.762121757949814,15.741662643796021,13.721203529645008,11.700744415496988,9.6802853013518035,7.6598261872095526,5.639367073070173,3.6189079589336433,1.5984488448000558,-0.422010269330663,-2.5640720718449166,-4.7466696363580834,-6.9292672008683125,-9.111864765375616,-11.294462329879934,-13.477059894381375,-15.659657458879808,-17.842255023375312,-20.024852587867944,-22.207450152357541,-24.490129898568597,-26.797831372695249,-29.105532846818928,-31.413234320939402,-33.720935795056796,-36.028637269171128,-38.336338743282312,-40.644040217390426,-42.95174169149545,-45.259443165597425,-47.650161107493126,-50.055529937447091,-52.460898767397886,-54.866267597345875,-57.271636427290673,-59.677005257232523,-62.082374087171246,-64.487742917106985,-66.893111747039768,-69.298480576969482,-71.774480740354591,-74.25832957147253,-76.742178402587257,-79.226027233698645,-81.709876064806863,-84.193724895911643,-86.677573727013268,-89.161422558111482,-91.645271389206513,-94.129120220298276,-96.677149147127523,-99.228556612296117,-101.77996407746159,-104.33137154262353,-106.88277900778236,-109.43418647293767,-111.98559393808979,-114.53700140323824,-117.08840886838384,-119.63981633352562,0.49684624325822668,0.49684624325822668,0.49684624325822668,0.49684624325822668,0.49684624325822668,0.49684624325822668,0.49684624325822668,0.49684624325822668,0.49684624325822668,0.49684624325822668,0.49684624325822668,0.49684624325822668
DP 62,283.67979125885182,0.002269242355964189,-112.62217764403222,-109.44898458177111,-106.27579151950815,-103.10259845724362,-99.929405394977223,-96.756212332709,-93.58301927043901,-90.409826208167132,-87.236633145893592,-84.063440083618289,-80.89686077935437,-77.85594412763615,-74.815027475916054,-71.774110824194267,-68.7331941724707,-65.692277520745321,-62.651360869018227,-59.610444217289356,-56.569527565558722,-53.528610913826306,-50.514047000558456,-47.736660224392587,-44.959273448225069,-42.181886672055839,-39.404499895884868,-36.627113119712213,-33.849726343537839,-31.07233956736172,-28.294952791183935,-25.517566015004405,-22.795013882891745,-20.38319485587698,-17.971375828860481,-15.559556801842223,-13.147737774822255,-10.735918747800529,-8.32409972077706,-5.9122806937518417,-3.5004616667248967,-1.0886426396962146,1.2357140292018634,3.2102171320306145,5.1847202348610617,7.1592233376932182,9.13372644052707,11.108229543362654,13.082732646199915,15.057235749038904,17.0317388518796,19.006241954721983,20.861678412402668,22.359910432849624,23.8581424532983,25.356374473748687,26.854606494200777,28.352838514654586,29.851070535110107,31.349302555567306,32.847534576026241,34.345766596486882,35.698735098894296,36.712749671455,37.726764244017438,38.740778816581539,39.754793389147395,40.76880796171497,41.782822534284186,42.796837106855186,43.810851679427884,44.82486625200228,45.675771115951264,46.223753544630981,46.771735973312381,47.319718401995509,47.867700830680342,48.415683259366915,48.963665688055151,49.511648116745135,50.059630545436917,50.607612974130319,50.984218311738744,51.103753963014753,51.223289614292533,51.342825265572053,51.462360916853271,51.581896568136159,51.701432219420852,51.820967870707335,51.94050352199546,52.060039173285269,52.009181330390021,51.7500611933026,51.490941056217004,51.231820919133106,50.972700782050985,50.713580644970548,50.4544605078919,50.195340370814975,49.936220233739817,49.677100096666379,48.091558022615089,47.509164609292711,46.926771195972087,46.344377782653169,45.761984369336083,45.179590956020711,44.597197542707157,44.014804129395351,43.285196579768566,42.43513857044929,41.585080561131846,40.735022551816193,39.884964542502324,39.034906533190224,38.184848523879943,37.334790514571431,36.484732505264738,35.634674495959828,34.655207432128762,33.589465626625994,32.523723821125046,31.457982015625912,30.392240210128605,29.3264984046331,28.260756599139466,27.195014793647609,26.12927298815762,25.063531182669394,23.887475329591481,22.652018000575236,21.41656067156087,20.181103342548333,18.945646013537633,17.710188684528802,16.474731355521804,15.239274026516687,14.003816697513386,12.768359368511943,11.441269273687384,10.074906446853531,8.7085436200215156,7.3421807931914733,5.9758179663632891,4.609455139537042,3.2430923127126867,1.8767294858901977,0.510366659069649,-0.855996167749011,-2.296999934204488,-3.76288495455906,-5.2287699749117,-6.6946549952624048,-8.1605400156111578,-9.6264250359580181,-11.092310056302891,-12.558195076645836,-14.024080096986895,-15.489965117325966,-17.015954516115912,-18.556970719660246,-20.097986923202569,-21.63900312674286,-23.180019330281105,-24.721035533817286,-26.262051737351477,-27.803067940883583,-29.344084144413664,-30.885100347941776,-32.474850642049724,-34.073201611718382,-35.671552581385015,-37.269903551049744,-38.868254520712377,-40.466605490373091,-42.064956460031787,-43.663307429688473,-45.261658399343162,-46.860009368995918,-48.498896586840104,-50.14228825798574,-51.785679929129273,-53.429071600270611,-55.072463271409873,-56.715854942546883,-58.3592466136818,-60.002638284814516,-61.646029955945117,-63.28942162707353,-64.969016026029763,-66.6505161919148,-68.3320163577976,-70.013516523678263,-71.695016689556667,-73.376516855432939,-75.058017021306981,-76.739517187178791,-78.421017353048555,-80.102517518915931,0.32667400956477388,0.32667400956477388,0.32667400956477388,0.32667400956477388,0.32667400956477388,0.32667400956477388,0.32667400956477388,0.32667400956477388,0.32667400956477388,0.32667400956477388,0.32667400956477388,0.32667400956477388
DP 63,307.11490098582777,0.0020102815723736234,-105.03841480483717,-102.03243180623521,-99.026448807631866,-96.020465809026831,-93.014482810420219,-90.00849981181203,-87.002516813202377,-83.9965338145911,-80.99055081597821,-77.984567817363782,-74.985176859352322,-72.111035919013347,-69.236894978672836,-66.362754038330792,-63.488613097987233,-60.614472157642041,-57.740331217295335,-54.866190276947137,-51.992049336597333,-49.117908396245966,-46.269929161233648,-43.657407747134833,-41.04488633303454,-38.432364918932748,-35.8198435048295,-33.207322090724645,-30.594800676618359,-27.982279262510527,-25.369757848401221,-22.757236434290437,-20.198804016993634,-17.946879323374468,-15.694954629753759,-13.443029936131532,-11.191105242507794,-8.9391805488825273,-6.6872558552557226,-4.4353311616273974,-2.1834064679975502,0.0685182256338172,2.2349246508769776,4.0592539609002909,5.883583270925091,7.7079125809513984,9.5322418909791846,11.356571201008485,13.180900511039267,15.005229821071556,16.829559131105341,18.653888441140609,20.363070229260583,21.72680509806321,23.090539966867329,24.45427483567294,25.818009704480083,27.181744573288686,28.545479442098781,29.909214310910407,31.272949179723504,32.636684048538122,33.861753971062882,34.763266891066571,35.664779811071753,36.566292731078462,37.467805651086678,38.369318571096379,39.27083149110755,40.17234441112025,41.073857331134413,41.975370251150139,42.723480952254285,43.186697675434068,43.649914398615337,44.113131121798091,44.5763478449824,45.039564568168188,45.502781291355454,45.965998014544269,46.429214737734547,46.89243146092636,47.197112742161231,47.263987114208788,47.33086148625781,47.397735858308394,47.4646102303605,47.531484602414032,47.598358974469186,47.6652333465258,47.732107718583947,47.798982090643563,47.711046343418126,47.433894976425904,47.156743609435281,46.87959224244608,46.6024408754585,46.325289508472473,46.04813814148784,45.770986774504834,45.493835407523328,45.216684040543335,43.665047439353565,43.09982252769862,42.5345976160453,41.969372704393493,41.404147792743196,40.838922881094476,40.273697969447305,39.70847305780169,39.014739553378242,38.215860446351819,37.416981339326938,36.618102232303663,35.819223125281887,35.020344018261738,34.221464911243139,33.4225858042261,32.623706697210586,31.824827590196698,30.915417625822979,29.932318681954026,28.949219738086711,27.966120794220938,26.983021850356767,25.999922906494195,25.016823962633218,24.033725018773815,23.05062607491605,22.067527131059826,20.992348309659128,19.867586676731968,18.742825043806473,17.618063410882584,16.493301777960315,15.368540145039685,14.243778512120645,13.119016879203283,11.994255246287508,10.869493613373377,9.670083145505334,8.43867905981257,7.2072749741214128,5.9758708884319818,4.7444668027441672,3.5130627170580473,2.2816586313735781,1.0502545456907431,-0.18114953999039821,-1.4125536256698896,-2.7032110906394609,-4.0136204287990216,-5.324029766956893,-6.6344391051130813,-7.944848443267559,-9.2552577814203865,-10.565667119571462,-11.876076457720888,-13.186485795868638,-14.49689513401465,-15.8537103312176,-17.222127541476365,-18.590544751733397,-19.958961961988603,-21.327379172242075,-22.695796382493743,-24.064213592743638,-25.432630802991721,-26.801048013238077,-28.169465223482664,-29.574429684339929,-30.985844066420853,-32.3972584485,-33.808672830577493,-35.220087212653141,-36.631501594727169,-38.042915976799343,-39.454330358869811,-40.865744740938574,-42.277159123005575,-43.718088305275216,-45.162297219763296,-46.606506134249436,-48.05071504873365,-49.494923963216117,-50.93913287769653,-52.38334179217518,-53.82755070665187,-55.271759621126783,-56.715968535599735,-58.185938429307065,-59.657264420336652,-61.128590411364264,-62.599916402389979,-64.07124239341384,-65.5425683844358,-67.0138943754558,-68.485220366473811,-69.956546357490012,-71.427872348504266,0.28509263100750709,0.28509263100750709,0.28509263100750709,0.28509263100750709,0.28509263100750709,0.28509263100750709,0.28509263100750709,0.28509263100750709,0.28509263100750709,0.28509263100750709,0.28509263100750709,0.28509263100750709
DP 64,174.1227531817936,0.0059390123199394773,-206.84423590761054,-201.50996053952193,-196.17568517142877,-190.84140980333092,-185.50713443522852,-180.17285906712132,-174.83858369900932,-169.50430833089283,-164.17003296277133,-158.8357575946454,-153.50985594898071,-148.34305661317518,-143.17625727736498,-138.0094579415501,-132.84265860573055,-127.67585926990631,-122.50905993407746,-117.34226059824395,-112.17546126240561,-107.00866192656275,-101.87587519236695,-97.04920508796387,-92.222534983556272,-87.395864879144114,-82.569194774727421,-77.74252467030621,-72.915854565880409,-68.0891844614501,-63.262514357015206,-58.4358442525758,-53.682122701985605,-49.341780886712158,-45.001439071434064,-40.661097256151365,-36.320755440864033,-31.980413625572059,-27.640071810275444,-23.299729994974189,-18.959388179668306,-14.619046364357816,-10.400037812635976,-6.6663680495906812,-2.9326982865408606,0.8009714765135354,4.5346412395724531,8.26831100263597,12.001980765704007,15.735650528776626,19.469320291853773,23.202990054935466,26.762584571059016,29.79994676475479,32.837308958455147,35.87467115216004,38.912033345869538,41.9493955395836,44.986757733302234,48.024119927025481,51.06148212075319,54.098844314485547,56.91008497054905,59.193699799821673,61.477314629098792,63.760929458380559,66.044544287666881,68.328159116957863,70.611773946253408,72.895388775553471,75.179003604858238,77.462618434167553,79.473323291169208,80.977187972208,82.481052653251439,83.984917334299453,85.4887820153521,86.992646696409381,88.496511377471279,90.00037605853781,91.504240739608917,93.008105420684686,94.201014724413284,94.9274836141282,95.653952503847762,96.380421393571865,97.106890283300771,97.833359173034268,98.559828062772411,99.286296952515329,100.01276584226275,100.73923473201496,101.1276260986899,101.10280450258391,101.0779829064826,101.05316131038596,101.02833971429406,101.00351811820693,100.97869652212454,100.95387492604671,100.92905332997367,100.90423173390538,99.0624450477661,98.330693356143158,97.598941664524929,96.867189972911589,96.135438281302982,95.403686589699234,94.671934898100176,93.940183206505992,92.850871525358926,91.469004616926185,90.087137708498332,88.705270800075368,87.32340389165725,85.941536983244092,84.559670074835623,83.177803166432184,81.79593625803362,80.414069349639874,78.680381045102834,76.712139600694826,74.743898156291721,72.775656711893632,70.807415267500488,68.839173823112262,66.87093237872908,64.9026909343508,62.934449489977638,60.966208045609285,58.659533850549522,56.170621714481925,53.681709578419479,51.192797442362156,48.703885306309871,46.214973170262653,43.726061034220486,41.237148898183463,38.748236762151443,36.259324626124545,33.450415097334812,30.504358427600614,27.558301757871476,24.612245088147688,21.666188418429009,18.720131748715623,15.774075079007433,12.828018409304374,9.88196173960662,6.9359050699140452,3.6904764154533796,0.34525332646851764,-2.9999697625110486,-6.3451928514853106,-9.6904159404541979,-13.0356390294179,-16.380862118376132,-19.726085207329092,-23.071308296276854,-26.416531385219152,-30.04089826787337,-33.735054397081704,-37.429210526284542,-41.123366655481718,-44.817522784673336,-48.511678913859271,-52.205835043039585,-55.899991172214371,-59.5941473013835,-63.28830343054711,-67.24499754102925,-71.248024802967137,-75.251052064899426,-79.254079326826329,-83.257106588747661,-87.260133850663621,-91.263161112573954,-95.266188374478887,-99.269215636378334,-103.27224289827232,-107.52634378519147,-111.80834437842003,-116.09034497164272,-120.37234556485939,-124.65434615807027,-128.93634675127498,-133.21834734447381,-137.50034793766659,-141.78234853085365,-146.06434912403449,-150.59460171716333,-155.13792267503155,-159.68124363289368,-164.22456459074962,-168.76788554859968,-173.31120650644348,-177.85452746428132,-182.39784842211287,-186.94116937993832,-191.48449033775756,0.9021237952669664,0.9021237952669664,0.9021237952669664,0.9021237952669664,0.9021237952669664,0.9021237952669664,0.9021237952669664,0.9021237952669664,0.9021237952669664,0.9021237952669664,0.9021237952669664,0.9021237952669664
DP 65,64.939538953087478,0.00461902523848246,-77.021053458310035,-75.356493568258131,-73.69193367820381,-72.027373788147017,-70.36281389808785,-68.698254008026282,-67.033694117962185,-65.369134227895771,-63.704574337826941,-62.040014447755674,-60.377129224646239,-58.7460629904409,-57.114996756233175,-55.48393052202298,-53.85286428781032,-52.221798053595229,-50.590731819377716,-48.959665585157779,-47.328599350935377,-45.697533116710545,-44.073433074437069,-42.51202941820204,-40.950625761964552,-39.389222105724642,-37.827818449482294,-36.2664147932375,-34.705011136990258,-33.14360748074057,-31.58220382448847,-30.020800168233922,-28.474865563528663,-27.016589892388449,-25.558314221245755,-24.100038550100571,-22.641762878952868,-21.183487207802667,-19.725211536649965,-18.266935865494759,-16.808660194337044,-15.350384523176832,-13.919107419138813,-12.595825859571162,-11.272544300000991,-9.9492627404282921,-8.6259811808530937,-7.3026996212753534,-5.9794180616951031,-4.6561365021123278,-3.3328549425270468,-2.0095733829392435,-0.72746009502780673,0.43114682133410676,1.5897537376985873,2.7483606540656393,3.9069675704352638,5.065574486807459,6.2241814031822242,7.3827883195595607,8.54139523593946,9.7000021523219377,10.801043701107311,11.767763791684251,12.734483882263811,13.701203972846013,14.667924063430839,15.634644154018279,16.601364244608352,17.568084335201057,18.534804425796377,19.50152451639434,20.39252181507808,21.142889026652959,21.893256238230531,22.643623449810789,23.393990661393754,24.144357872979381,24.89472508456771,25.645092296158722,26.395459507752424,27.145826719348833,27.801020546724466,28.313452048785354,28.825883550849031,29.338315052915455,29.850746554984635,30.363178057056579,30.875609559131302,31.388041061208781,31.900472563288968,32.412904065371961,32.809875271605215,33.065725913248741,33.321576554895117,33.577427196544321,33.833277838196338,34.08912847985124,34.344979121508956,34.600829763169514,34.856680404832915,35.112531046499164,35.199177377454021,35.182665266629812,35.166153155808523,35.14964104499019,35.133128934174742,35.116616823362278,35.100104712552714,35.083592601746062,34.910106841818674,34.608185398542858,34.306263955270076,34.004342512000321,33.702421068733585,33.400499625469877,33.098578182209145,32.796656738951476,32.494735295696842,32.192813852445219,31.713326636228754,31.115459440741667,30.517592245257728,29.919725049776851,29.32185785429915,28.723990658824533,28.126123463353064,27.528256267884714,26.930389072419512,26.332521876957404,25.536901581930273,24.634795972999726,23.732690364072425,22.830584755148319,21.92847914622747,21.026373537309837,20.124267928395437,19.222162319484294,18.320056710576342,17.417951101671633,16.298445890089074,15.085765750760995,13.873085611436236,12.660405472114913,11.447725332796892,10.235045193482268,9.0223650541710025,7.8096849148630643,6.5970047755585206,5.38432463625733,3.9351546909168227,2.4071518297880914,0.87914896866280934,-0.64885389245901826,-2.1768567535773609,-3.7048596146922961,-5.2328624758037119,-6.760865336911678,-8.2888681980162371,-9.8168710591172879,-11.599732186655025,-13.446310891992045,-15.292889597325393,-17.139468302655025,-18.986047007980954,-20.832625713303131,-22.679204418621612,-24.525783123936392,-26.372361829247428,-28.218940534554804,-30.338486051628134,-32.506205217972493,-34.673924384313125,-36.84164355065024,-39.009362716983688,-41.177081883313519,-43.3448010496397,-45.51252021596229,-47.680239382281272,-49.847958548596608,-52.305766197357009,-54.795808946334873,-57.285851695308743,-59.775894444278535,-62.26593719324444,-64.755979942206181,-67.246022691164,-69.736065440117684,-72.226108189067475,-74.716150938013186,-77.51339860367365,-80.326818005727,-83.140237407776254,-85.953656809821325,-88.767076211862346,-91.580495613899217,-94.393915015932066,-97.207334417960681,-100.02075381998516,-102.83417322200548,0.5873084634025163,0.5873084634025163,0.5873084634025163,0.5873084634025163,0.5873084634025163,0.5873084634025163,0.5873084634025163,0.5873084634025163,0.5873084634025163,0.5873084634025163,0.5873084634025163,0.5873084634025163
DP 66,125.7189939597349,0.0020983082028198144,-56.512710157077727,-55.135722157330612,-53.758734157581905,-52.381746157831586,-51.004758158079746,-49.627770158326335,-48.25078215857134,-46.873794158814746,-45.496806159056604,-44.119818159296891,-42.744659428793462,-41.404257160001208,-40.063854891207342,-38.723452622411969,-37.383050353614991,-36.04264808481647,-34.702245816016386,-33.361843547214733,-32.02144127841148,-30.681039009606682,-29.348138393455184,-28.082753360265169,-26.817368327073634,-25.551983293880564,-24.286598260685974,-23.021213227489842,-21.755828194292192,-20.490443161093022,-19.225058127892321,-17.959673094690096,-16.710605139200855,-15.554001652304674,-14.397398165406941,-13.240794678507642,-12.0841911916068,-10.9275877047044,-9.77098421780043,-8.6143807308949025,-7.4577772439878283,-6.3011737570791881,-5.1722503045511985,-4.1540482977312161,-3.1358462909097096,-2.1176442840866532,-1.09944227726207,-0.081240270435936943,0.93696173639172908,1.9551637432209394,2.9733657500516819,3.9915677568839611,4.9690584956407635,5.8244138909313046,6.6797692862233982,7.53512468151703,8.3904800768122278,9.2458354721089755,10.101190867407258,10.956546262707111,11.811901658008493,12.667257053311438,13.468116049401857,14.141814634379488,14.815513219358662,15.489211804339414,16.162910389321727,16.836608974305587,17.510307559291011,18.184006144278008,18.857704729266562,19.531403314256664,20.136977641133843,20.616033648883825,21.095089656635377,21.574145664388492,22.053201672143182,22.532257679899466,23.0113136876573,23.490369695416764,23.969425703177759,24.448481710940332,24.846741386104142,25.123804653121706,25.4008679201409,25.677931187161676,25.954994454184057,26.232057721208037,26.509120988233615,26.786184255260736,27.0632475222895,27.340310789319833,27.525486784209157,27.598354183076736,27.671221581945964,27.744088980816823,27.816956379689291,27.889823778563375,27.962691177439059,28.03555857631639,28.108425975195338,28.1812933740759,27.894971619128071,27.765869055569194,27.636766492011972,27.507663928456388,27.378561364902467,27.249458801350197,27.120356237799569,26.991253674250579,26.754246522397978,26.428951943879476,26.103657365362654,25.77836278684752,25.453068208334042,25.127773629822286,24.802479051312211,24.47718447280382,24.151889894297085,23.826595315792023,23.38860938415425,22.875494108470473,22.362378832788433,21.849263557108106,21.336148281429505,20.823033005752613,20.309917730077451,19.796802454404009,19.283687178732293,18.770571903062276,18.1418696878935,17.450926670619697,16.759983653347689,16.06904063607745,15.378097618808971,14.68715460154227,13.996211584277313,13.305268567014172,12.614325549752765,11.923382532493134,11.11544193367982,10.257357539415869,9.3992731451536979,8.5411887508933741,7.6831043566348471,6.8250199623781516,5.9669355681232608,5.1088511738701667,4.2507667796189086,3.3926823853694543,2.4171198839616221,1.4023965329439882,0.38767318192820283,-0.62705016908573319,-1.6417735200977999,-2.6564968711080486,-3.6712202221164,-4.6859435731229162,-5.7006669241276144,-6.7153902751304182,-7.8476807941414721,-9.0093644942287838,-10.171048194314178,-11.332731894397583,-12.494415594479038,-13.656099294558507,-14.817782994636016,-15.97946669471157,-17.141150394785143,-18.3028340948568,-19.582635985141362,-20.883283575424976,-22.183931165706625,-23.484578755986416,-24.785226346264242,-26.085873936540185,-27.386521526814178,-28.687169117086267,-29.987816707356448,-31.2884642976247,-32.708537298854566,-34.141881044439053,-35.575224790021437,-37.008568535601739,-38.441912281179981,-39.875256026756027,-41.308599772330084,-42.741943517901994,-44.1752872634718,-45.608631009039534,-47.164522289816993,-48.726864660166981,-50.289207030514866,-51.851549400860655,-53.41389177120427,-54.976234141545788,-56.53857651188514,-58.100918882222281,-59.663261252557376,-61.225603622890254,0.31555328476278766,0.31555328476278766,0.31555328476278766,0.31555328476278766,0.31555328476278766,0.31555328476278766,0.31555328476278766,0.31555328476278766,0.31555328476278766,0.31555328476278766,0.31555328476278766,0.31555328476278766
DP 67,84.95997544421698,0.0025132991727731696,-50.314802759504389,-49.17219649330967,-48.029590227113331,-46.886983960915352,-45.744377694715844,-44.601771428514688,-43.459165162311969,-42.316558896107651,-41.173952629901684,-40.031346363694134,-38.8900082339319,-37.772764936393415,-36.655521638853294,-35.538278341311631,-34.421035043768313,-33.303791746223432,-32.186548448676938,-31.069305151128862,-29.952061853579171,-28.834818556027866,-27.722823654398066,-26.658064812162202,-25.593305969924696,-24.528547127685655,-23.46378828544503,-22.399029443202817,-21.33427060095902,-20.269511758713666,-19.204752916466724,-18.139994074218219,-17.086807024840191,-16.099194197593004,-15.111581370344233,-14.123968543093826,-13.136355715841823,-12.1487428885882,-11.161130061332949,-10.173517234076087,-9.1859044068176079,-8.1982915795575284,-7.2306781657632024,-6.3430633510252266,-5.455448536285652,-4.56783372154446,-3.680218906801668,-2.7926040920572626,-1.90498927731125,-1.0173744625636261,-0.12975964781440041,0.75785516693643384,1.6153510129209459,2.3824888138467366,3.1496266147741565,3.9167644157032058,4.6839022166338831,5.4510400175661955,6.2181778185001315,6.9853156194356982,7.7524534203728885,8.5195912213117122,9.2452359748178559,9.87406198348874,10.502887992161263,11.131714000835446,11.760540009511267,12.389366018188745,13.018192026867881,13.647018035548673,14.275844044231118,14.904670052915195,15.479850118309232,15.955400554536231,16.430950990764892,16.906501426995241,17.382051863227257,17.857602299460943,18.333152735696338,18.808703171933402,19.284253608172122,19.759804044412551,20.169229551547406,20.479466102466553,20.789702653387433,21.099939204310033,21.410175755234313,21.7204123061603,22.030648857088021,22.340885408017453,22.651121958948579,22.961358509881425,23.193070099463874,23.328805086885488,23.464540074308854,23.600275061733953,23.736010049160804,23.871745036589413,24.007480024019777,24.143215011451865,24.278949998885707,24.414684986321273,24.369338232979864,24.324052191954845,24.278766150931641,24.233480109910236,24.188194068890596,24.142908027872775,24.097621986856723,24.05233594584243,23.905209476872265,23.674757271192238,23.444305065514033,23.213852859837655,22.983400654163137,22.75294844849045,22.522496242819592,22.292044037150571,22.061591831483387,21.831139625818054,21.488311782427012,21.070565076901723,20.652818371378366,20.235071665856864,19.817324960337277,19.399578254819538,18.981831549303749,18.564084843789789,18.146338138277777,17.728591432767583,17.188766025947597,16.583204158568936,15.977642291192248,15.372080423817488,14.766518556444691,14.160956689073844,13.555394821704944,12.949832954337996,12.344271086972986,11.738709219609936,11.002143816283887,10.209431829213335,9.4167198421447473,8.6240078550782222,7.831295868013683,7.03858388095117,6.2458718938906621,5.4531599068321368,4.6604479197756481,3.8677359327211618,2.9357022404437085,1.9572262239102767,0.97875020737890062,0.00027419084958146594,-0.97820182567766212,-1.9566778422028794,-2.9351538587259922,-3.9136298752470635,-4.8921058917661009,-5.8705819082830448,-6.996200052071619,-8.1586054661852021,-9.3210108802966314,-10.483416294405846,-11.645821708512873,-12.808227122617694,-13.970632536720313,-15.133037950820746,-16.295443364918981,-17.457848779015045,-18.775212409977328,-20.119923331779372,-21.464634253579195,-22.809345175376965,-24.154056097172521,-25.498767018965957,-26.843477940757214,-28.188188862546383,-29.53289978433337,-30.877610706118244,-32.384916880812845,-33.910290902352706,-35.435664923890251,-36.961038945425393,-38.486412966958248,-40.01178698848863,-41.537161010016774,-43.062535031542417,-44.587909053065808,-46.113283074586832,-47.809487762673307,-49.514685238170244,-51.219882713664894,-52.925080189156986,-54.630277664646741,-56.335475140134122,-58.040672615619052,-59.745870091101459,-61.451067566581607,-63.156265042059182,0.351245739505146,0.351245739505146,0.351245739505146,0.351245739505146,0.351245739505146,0.351245739505146,0.351245739505146,0.351245739505146,0.351245739505146,0.351245739505146,0.351245739505146,0.351245739505146
DP 68,61.017190531640495,0.0034753172351894633,-55.66495129631798,-54.475926953164844,-53.286902610010031,-52.097878266853471,-50.908853923695212,-49.719829580535226,-48.530805237373556,-47.341780894210146,-46.15275655104503,-44.963732207878181,-43.775882542028491,-42.610351967301121,-41.44482139257201,-40.279290817841193,-39.113760243108615,-37.948229668374317,-36.7826990936383,-35.6171685189005,-34.451637944161014,-33.286107369419767,-32.125467182834413,-31.008840951914273,-29.892214720992371,-28.775588490068714,-27.65896225914333,-26.542336028216209,-25.425709797287322,-24.309083566356712,-23.192457335424329,-22.075831104490206,-20.97007871465475,-19.925945442929535,-18.881812171202533,-17.837678899473705,-16.793545627743118,-15.749412356010705,-14.705279084276517,-13.661145812540555,-12.617012540802781,-11.572879269063227,-10.547760773010651,-9.5987022783650247,-8.6496437837176039,-7.7005852890683713,-6.7515267944173329,-5.8024682997644712,-4.8534098051098136,-3.9043513104533352,-2.9552928157950618,-2.006234321134972,-1.0862344154539216,-0.25341137537862984,0.57941166469851035,1.412234704777501,2.2450577448583449,3.077880784941037,3.9107038250255797,4.7435268651119769,5.5763499052002121,6.40917294529031,7.2012491025004666,7.8982475948866595,8.5952460872747487,9.2922445796647359,9.9892430720566132,10.686241564450377,11.383240056846047,12.080238549243624,12.777237041643074,13.474235534044439,14.117463888697749,14.660831963979264,15.204200039262744,15.747568114548152,16.290936189835506,16.834304265124796,17.377672340416041,17.921040415709228,18.464408491004374,19.007776566301441,19.483329095003352,19.85715670130509,20.230984307608832,20.604811913914574,20.978639520222313,21.352467126532066,21.72629473284379,22.100122339157544,22.4739499454733,22.847777551791033,23.13901409863016,23.329304282410902,23.519594466193666,23.709884649978548,23.900174833765451,24.090465017554422,24.280755201345475,24.47104538513857,24.661335568933751,24.851625752730953,24.933474048754956,24.928154960626543,24.922835872500293,24.917516784376161,24.912197696254164,24.906878608134292,24.901559520016551,24.896240431900949,24.777709577997229,24.566548970096441,24.355388362197836,24.144227754301461,23.933067146407282,23.721906538515292,23.510745930625532,23.299585322737958,23.088424714852579,22.877264106969413,22.5374993412183,22.111996444247779,21.686493547279554,21.260990650313584,20.835487753349913,20.409984856388515,19.984481959429395,19.558979062472567,19.133476165518037,18.707973268565748,18.138649839411052,17.491882493822086,16.845115148235472,16.198347802651238,15.551580457069367,14.904813111489851,14.258045765912698,13.611278420337925,12.964511074765493,12.317743729195445,11.512244493737294,10.638714626258473,9.7651847587820715,8.8916548913081819,8.0181250238367188,7.1445951563677363,6.2710652889012195,5.39753542143714,4.5240055539755462,3.650475686516411,2.6036419563241466,1.4990380877676774,0.3944342192137435,-0.71016964933766091,-1.8147735178865085,-2.919377386432858,-4.0239812549766212,-5.1285851235178637,-6.2331889920566095,-7.3377928605927716,-8.6297521009085134,-9.9685523978020463,-11.307352694692892,-12.646152991581001,-13.984953288466373,-15.323753585349005,-16.662553882228913,-18.001354179106109,-19.340154475980558,-20.678954772852329,-22.218953456828487,-23.794459975883751,-25.369966494936328,-26.945473013986305,-28.520979533033582,-30.096486052078234,-31.671992571120178,-33.247499090159486,-34.823005609196109,-36.398512128230117,-38.188252236470944,-40.001798326803318,-41.815344417132671,-43.628890507459083,-45.442436597782589,-47.255982688103046,-49.069528778420612,-50.883074868735164,-52.696620959046818,-54.510167049355466,-56.550861769596096,-58.603513940923584,-60.656166112248115,-62.708818283569521,-64.761470454887885,-66.814122626203314,-68.866774797515674,-70.919426968824951,-72.972079140131157,-75.0247313114344,0.42990976383662255,0.42990976383662255,0.42990976383662255,0.42990976383662255,0.42990976383662255,0.42990976383662255,0.42990976383662255,0.42990976383662255,0.42990976383662255,0.42990976383662255,0.42990976383662255,0.42990976383662255
DP 69,60.43560718029083,0.0012545683049325351,-19.971837554792536,-19.546002998811822,-19.120168442830465,-18.694333886848533,-18.268499330865954,-17.842664774882774,-17.416830218898976,-16.990995662914596,-16.565161106929587,-16.139326550943963,-15.713911647036241,-15.29647021195275,-14.879028776868644,-14.461587341783922,-14.044145906698564,-13.6267044716126,-13.209263036526009,-12.791821601438789,-12.374380166350969,-11.956938731262508,-11.541244264809608,-11.141272681208212,-10.741301097606161,-10.341329514003517,-9.9413579304002333,-9.54138634679633,-9.1414147631917881,-8.74144317958664,-8.3414715959808561,-7.9415000123744512,-7.545413778822434,-7.1713447737482392,-6.7972757686734031,-6.4232067635979258,-6.0491377585218178,-5.6750687534450588,-5.3009997483676674,-4.9269307432896294,-4.5528617382109493,-4.1787927331316332,-3.8115196717716509,-3.4714307064727037,-3.13134174117311,-2.7912527758728665,-2.4511638105719786,-2.1110748452704389,-1.77098587996825,-1.4308969146654136,-1.0908079493619314,-0.75071898405780013,-0.42101906732305422,-0.12248668909331079,0.176045689137095,0.47457806736816532,0.77311044559989794,1.0716428238322955,1.3701752020653541,1.6687075802990781,1.9672399585334601,2.2657723367685119,2.549730966006905,2.7996836069488564,3.0496362478914842,3.2995888888347946,3.5495415297787813,3.7994941707234493,4.0494468116687994,4.29939945261483,4.5493520935615406,4.7993047345089224,5.0300173810730522,5.2249980898983051,5.4199787987242525,5.6149595075509016,5.8099402163782434,6.004920925206287,6.1999016340350259,6.394882342864463,6.5898630516945929,6.78484376052543,6.9555451851039134,7.0898271095750856,7.2241090340469825,7.3583909585195926,7.4926728829929159,7.6269548074669666,7.7612367319417261,7.8955186564171989,8.0298005808933972,8.1640825053703185,8.26878007340785,8.337318362162236,8.4058566509173449,8.4743949396732052,8.542933228429801,8.611471517187141,8.6800098059452271,8.7485480947040433,8.8170863834636073,8.8856246722239085,8.9159679353437049,8.9143974503063852,8.9128269652698275,8.9112564802340426,8.9096859951990162,8.9081155101647571,8.9065450251312637,8.9049745400985323,8.8628033968159219,8.7874128353957577,8.71202227397639,8.6366317125578114,8.5612411511400168,8.4858505897230216,8.4104600283068116,8.3350694668914,8.25967890547677,8.1842883440629386,8.0627488083232386,7.91044256268871,7.758136317055,7.6058300714220994,7.4535238257900343,7.3012175801587773,7.1489113345283473,6.9966050888987334,6.8442988432699412,6.6919925976419723,6.4880474744309842,6.2562960508325833,6.0245446272350289,5.7927932036383236,5.561041780042463,5.3292903564474523,5.0975389328532881,4.8657875092599756,4.63403608566751,4.4022846620758846,4.11350722453731,3.80028910420232,3.4870709838682061,3.1738528635349863,2.8606347432026431,2.5474166228711956,2.2341985025406297,1.9209803822109404,1.6077622618821452,1.2945441415542329,0.91903486317767746,0.52276108040644487,0.12648729763612274,-0.2697864851332889,-0.66606026790178163,-1.0623340506693768,-1.4586078334360419,-1.8548816162018014,-2.2511553989666608,-2.6474291817305944,-3.1110760360069007,-3.5915669541846325,-4.0720578723613956,-4.5525487905371724,-5.0330397087119669,-5.5135306268857747,-5.994021545058609,-6.4745124632304565,-6.955003381401319,-7.435494299571217,-7.988363020114134,-8.5540050988685135,-9.1196471776219123,-9.6852892563743929,-10.250931335125886,-10.816573413876442,-11.382215492626024,-11.947857571374655,-12.513499650122318,-13.079141728869057,-13.721870788088633,-14.373165876955687,-15.024460965821662,-15.675756054686554,-16.327051143550417,-16.978346232413198,-17.629641321274917,-18.280936410135556,-18.932231498995161,-19.583526587853665,-20.316570973653928,-21.053918767402806,-21.791266561150611,-22.528614354897289,-23.265962148642874,-24.003309942387382,-24.740657736130796,-25.478005529873073,-26.215353323614295,-26.952701117354405,0.15451098061593918,0.15451098061593918,0.15451098061593918,0.15451098061593918,0.15451098061593918,0.15451098061593918,0.15451098061593918,0.15451098061593918,0.15451098061593918,0.15451098061593918,0.15451098061593918,0.15451098061593918
DP 70,128.78512757145046,0.001183326651081991,-32.482073873412112,-31.687253587096038,-30.89243330077899,-30.097613014461096,-29.302792728142304,-28.50797244182262,-27.713152155502041,-26.918331869180598,-26.123511582858217,-25.328691296534977,-24.534939517836342,-23.761489586017408,-22.988039654197589,-22.214589722376896,-21.441139790555283,-20.66768985873281,-19.894239926909432,-19.120789995085172,-18.347340063260031,-17.573890131433991,-16.804819126405686,-16.07515887646797,-15.34549862652937,-14.615838376589931,-13.886178126649611,-13.156517876708444,-12.426857626766392,-11.697197376823475,-10.967537126879698,-10.237876876935051,-9.517732787688022,-8.85151420872094,-8.1852956297529751,-7.51907705078412,-6.8528584718143932,-6.1866398928437754,-5.5204213138722746,-4.8542027348998866,-4.1879841559266184,-3.5217655769524692,-2.8716686218107781,-2.2860589239225604,-1.7004492260334714,-1.1148395281435077,-0.52922983025267623,0.056379867639033188,0.64198956553161191,1.2275992634250654,1.8132089613193894,2.3988186592145846,2.960755936765572,3.4516750582607347,3.9425941797567736,4.43351330125369,4.9244324227514884,5.4153515442501652,5.9062706657497213,6.3971897872501566,6.8881089087514571,7.3790280302536493,7.8383224685309587,8.2238247337784856,8.609326999026889,8.9948292642761842,9.3803315295263641,9.7658337947774285,10.151336060029374,10.536838325282202,10.92234059053593,11.307842855790518,11.653905493101465,11.92672204197558,12.199538590850608,12.472355139726531,12.745171688603341,13.017988237481047,13.290804786359638,13.563621335239128,13.83643788411951,14.109254433000784,14.335420387272311,14.491609347257976,14.647798307244523,14.803987267231994,14.96017622722036,15.116365187209617,15.272554147199799,15.428743107190884,15.584932067182859,15.74112102717574,15.844417547008671,15.883066640096692,15.921715733185618,15.960364826275489,15.999013919366265,16.037663012457958,16.076312105550571,16.114961198644082,16.15361029173852,16.192259384833896,16.01853726142285,15.941318374402734,15.86409948738355,15.7868806003653,15.709661713347977,15.632442826331591,15.555223939316139,15.478005052301627,15.339112194138188,15.14975775421436,14.960403314291471,14.77104887436955,14.581694434448579,14.392339994528561,14.202985554609491,14.013631114691371,13.824276674774213,13.634922234858003,13.381415936524109,13.085140721957835,12.788865507392549,12.492590292828215,12.196315078264867,11.900039863702474,11.603764649141075,11.30748943458064,11.011214220021184,10.714939005462696,10.353145091267848,9.9560709245122236,9.55899675775762,9.161922591004009,8.7648484242514026,8.3677742574998,7.9707000907491876,7.573625923999586,7.1765517572509818,6.7794775905033822,6.3163814186197307,5.8249889873021639,5.3335965559856007,4.8422041246700873,4.35081169335559,3.8594192620421253,3.3680268307296806,2.8766343994182542,2.3852419681078629,1.8938495367984924,1.3364647211334186,0.75708161232542326,0.17769850351847311,-0.40168460528743211,-0.98106771409227966,-1.5604508228960998,-2.1398339316988504,-2.7192170405005585,-3.29860014930124,-3.87798325810085,-4.5231182658349542,-5.1846920251714863,-5.8462657845069295,-6.5078395438412562,-7.16941330317447,-7.8309870625065692,-8.4925608218375626,-9.1541345811674386,-9.81570834049622,-10.477282099823892,-11.204653358143162,-11.943636671491308,-12.682619984838347,-13.421603298184362,-14.160586611529254,-14.89956992487306,-15.638553238215781,-16.377536551557409,-17.116519864897967,-17.855503178237445,-18.660797088168287,-19.473459538582063,-20.286121988994648,-21.09878443940605,-21.911446889816286,-22.724109340225326,-23.536771790633185,-24.349434241039841,-25.162096691445367,-25.974759141849656,-26.855322866035429,-27.739461017063061,-28.623599168089459,-29.507737319114657,-30.391875470138675,-31.276013621161475,-32.160151772183077,-33.044289923203429,-33.928428074222616,-34.812566225240559,0.17834938378743295,0.17834938378743295,0.17834938378743295,0.17834938378743295,0.17834938378743295,0.17834938378743295,0.17834938378743295,0.17834938378743295,0.17834938378743295,0.17834938378743295,0.17834938378743295,0.17834938378743295
DP 71,182.82871258242645,0.0019580663483373165,-70.8208725100215,-68.978895657543546,-67.136918805064042,-65.294941952582974,-63.452965100100371,-61.610988247616156,-59.769011395130413,-57.927034542643128,-56.0850576901543,-54.243080837663896,-52.404072577092393,-50.621468124204554,-48.838863671315096,-47.056259218424131,-45.273654765531617,-43.491050312637569,-41.708445859741914,-39.925841406844768,-38.143236953946037,-36.360632501045778,-34.5900667339132,-32.927850276619772,-31.26563381932479,-29.603417362028345,-27.941200904730405,-26.278984447430961,-24.616767990129983,-22.954551532827519,-21.29233507552356,-19.630118618218088,-17.993658992771515,-16.503156370919587,-15.01265374906612,-13.522151127211135,-12.0316485053546,-10.541145883496547,-9.05064326163695,-7.5601406397758195,-6.0696380179131646,-4.5791353960489838,-3.1313269041332896,-1.8542969497752213,-0.57726699541565341,0.69976295894542673,1.9767929133079991,3.2538228676720875,4.53085282203768,5.8078827764047789,7.084912730773377,8.3619426851434788,9.577981244441844,10.6110433125217,11.644105380603085,12.677167448685962,13.710229516770344,14.743291584856266,15.776353652943673,16.809415721032607,17.842477789123045,18.875539857214996,19.829782546283443,20.600110246743597,21.370437947205275,22.140765647668474,22.911093348133182,23.681421048599422,24.451748749067143,25.2220764495364,25.992404150007179,26.762731850479451,27.438499034296921,27.938651276325313,28.438803518355204,28.938955760386669,29.439108002419609,29.9392602444541,30.439412486490088,30.939564728527657,31.439716970566678,31.93986921260727,32.333007313097262,32.56562167247683,32.798236031857911,33.03085039124052,33.263464750624678,33.496079110010371,33.728693469397641,33.9613078287864,34.193922188176735,34.426536547568595,34.543679981348731,34.519689858384822,34.495699735422448,34.471709612461659,34.447719489502425,34.4237293665447,34.399739243588584,34.375749120634019,34.351758997680996,34.327768874729536,33.657174539849173,33.393734377830825,33.130294215814061,32.866854053798875,32.603413891785273,32.339973729773234,32.076533567762773,31.813093405753897,31.429639348967633,30.94799004302072,30.466340737075388,29.984691431131694,29.503042125189587,29.02139281924908,28.539743513310171,28.058094207372925,27.576444901437217,27.094795595503157,26.496221616820623,25.819696014325014,25.143170411831044,24.466644809338714,23.790119206848033,23.113593604358972,22.43706800187157,21.76054239938577,21.084016796901658,20.407491194419144,19.619688233677966,18.771965077245341,17.924241920814406,17.076518764385124,16.228795607957512,15.381072451531571,14.533349295107302,13.68562613868472,12.837902982263795,11.990179825844553,11.038445325441334,10.042132779167043,9.045820232894398,8.0495076866235387,7.0531951403543642,6.0568825940869182,5.060570047821189,4.06425750155715,3.067944955294851,2.0716324090342657,0.97919318130145627,-0.14528948505715106,-1.2697721514140157,-2.3942548177691321,-3.518737484122481,-4.6432201504741188,-5.7677028168239586,-6.8921854831720628,-8.0166681495184537,-9.1411508158630532,-10.354142851418938,-11.589263275029188,-12.824383698637623,-14.059504122244201,-15.294624545848952,-16.529744969451816,-17.764865393052869,-18.999985816652053,-20.235106240249408,-21.470226663844944,-22.787580484387338,-24.119446995308117,-25.451313506227045,-26.78318001714425,-28.115046528059587,-29.446913038973136,-30.77877954988487,-32.110646060794792,-33.442512571702956,-34.774379082609272,-36.184047342422616,-37.602361058104236,-39.020674773783959,-40.438988489461607,-41.857302205137451,-43.275615920811205,-44.693929636483112,-46.112243352152895,-47.530557067820837,-48.948870783486768,-50.44354446228774,-51.942237846266984,-53.440931230244175,-54.939624614219376,-56.438317998192623,-57.937011382163881,-59.435704766133064,-60.934398150100208,-62.433091534065447,-63.93178491802859,0.29684004735397,0.29684004735397,0.29684004735397,0.29684004735397,0.29684004735397,0.29684004735397,0.29684004735397,0.29684004735397,0.29684004735397,0.29684004735397,0.29684004735397,0.29684004735397
DP 72,200.90243676066197,0.0012044015340604926,-46.804767437905674,-45.567119844418549,-44.3294722509304,-43.091824657441343,-41.854177063951262,-40.616529470460243,-39.378881876968244,-38.14123428347532,-36.903586689981395,-35.665939096486539,-34.430392592070234,-33.234767177364667,-32.039141762658048,-30.843516347950526,-29.647890933242035,-28.452265518532624,-27.256640103822203,-26.061014689110863,-24.86538927439857,-23.6697638596853,-22.482631042393937,-21.371932404642479,-20.261233766890108,-19.1505351291368,-18.039836491382559,-16.929137853627402,-15.818439215871313,-14.707740578114279,-13.597041940356345,-12.486343302597479,-11.393723464353728,-10.403551295926526,-9.4133791274983878,-8.4232069590693,-7.4330347906392769,-6.4428626222082981,-5.4526904537763814,-4.4625182853435152,-3.4723461169097094,-2.482173948474963,-1.5217597586418907,-0.68037888960446646,0.1610019794338815,1.0023828484731598,1.8437637175133603,2.6851445865544963,3.5265254555965497,4.3679063246395362,5.2092871936834513,6.0506680627282821,6.8499106685952951,7.5227368917375541,8.19556311488073,8.8683893380248424,9.54121556116989,10.214041784315858,10.886868007462766,11.559694230610591,12.232520453759363,12.905346676909049,13.524289551802115,14.01750249195605,14.510715432110928,15.003928372266724,15.49714131242346,15.990354252581129,16.483567192739734,16.976780132899265,17.469993073059722,17.963206013221132,18.392560860236511,18.703320381133612,19.014079902031654,19.324839422930641,19.635598943830541,19.946358464731397,20.257117985633176,20.567877506535915,20.878637027439577,21.189396548344174,21.428880024297261,21.561447748543277,21.694015472790245,21.826583197038143,21.959150921287,22.091718645536819,22.224286369787549,22.356854094039242,22.489421818291877,22.62198954254546,22.678821351906215,22.6430854522488,22.607349552592346,22.571613652936833,22.535877753282293,22.500141853628694,22.464405953976069,22.428670054324378,22.392934154673657,22.357198255023874,21.863921141445918,21.673757184013692,21.483593226582467,21.2934292691522,21.103265311722886,20.913101354294554,20.722937396867195,20.532773439440788,20.266617127522128,19.93828394685411,19.609950766187065,19.281617585520998,18.953284404855914,18.624951224191829,18.296618043528728,17.968284862866618,17.639951682205492,17.311618501545343,16.910706578389071,16.461407683527895,16.012108788667746,15.562809893808579,15.113510998950453,14.66421210409329,14.214913209237171,13.765614314382024,13.316315419527903,12.867016524674767,12.350113283791817,11.796806719653414,11.243500155516079,10.690193591379748,10.136887027244446,9.5835804631101755,9.0302738989769278,8.4769673348447157,7.9236607707135223,7.3703542065833547,6.7553024663554746,6.113787465612214,5.472272464869981,4.8307574641288245,4.1892424633886964,3.5477274626496307,2.9062124619116223,2.2646974611746438,1.6231824604387322,0.98166745970386893,0.28447822273743112,-0.43126979462585657,-1.147017811988077,-1.8627658293492286,-2.5785138467092983,-3.2942618640683228,-4.0100098814262415,-4.7257578987831019,-5.4415059161389134,-6.1572539334936245,-6.9229623941001233,-7.7011615558096551,-8.4793607175180927,-9.2575598792253828,-10.035759040931552,-10.813958202636586,-11.59215736434049,-12.370356526043253,-13.148555687744906,-13.926754849445437,-14.750211297466928,-15.581654828694518,-16.413098359920948,-17.244541891146348,-18.075985422370575,-18.907428953593723,-19.738872484815769,-20.57031601603672,-21.401759547256557,-22.2332030784753,-23.106503290167247,-23.98445468372714,-24.862406077285868,-25.740357470843389,-26.618308864399719,-27.49626025795482,-28.374211651508791,-29.252163045061469,-30.130114438613028,-31.008065832163339,-31.926450294690728,-32.846963215772206,-33.767476136852515,-34.687989057931553,-35.60850197900939,-36.529014900086047,-37.449527821161432,-38.370040742235609,-39.2905536633086,-40.211066584380269,0.18146986973128582,0.18146986973128582,0.18146986973128582,0.18146986973128582,0.18146986973128582,0.18146986973128582,0.18146986973128582,0.18146986973128582,0.18146986973128582,0.18146986973128582,0.18146986973128582,0.18146986973128582
DP 73,243.97260239440442,0.0031037580700054323,-138.9726273158895,-135.16692140413147,-131.3612154923708,-127.55550958060786,-123.74980366884228,-119.94409775707423,-116.13839184530379,-112.33268593353087,-108.52698002175538,-104.72127410997749,-100.92279761265075,-97.261681356621622,-93.6005651005902,-89.939448844556381,-86.2783325885199,-82.617216332481121,-78.956100076439881,-75.294983820396126,-71.633867564349984,-67.972751308301383,-64.3406377098326,-60.969550770984256,-57.598463832133554,-54.227376893280422,-50.85628995442498,-47.485203015567109,-44.114116076706885,-40.743029137844289,-37.371942198979319,-34.000855260112,-30.690777275527246,-27.726420543003698,-24.762063810477731,-21.797707077949347,-18.833350345418562,-15.868993612885351,-12.904636880349713,-9.9402801478116647,-6.97592341527121,-4.0115666827283478,-1.145991525148915,1.3244526640724965,3.7948968532962675,6.2653410425224134,8.7357852317509188,11.206229420981815,13.676673610215062,16.147117799450687,18.617561988688685,21.088006177929032,23.421428592642059,25.343780503164592,27.266132413689448,29.188484324216738,31.110836234746372,33.033188145278423,34.955540055812818,36.877891966349615,38.800243876888736,40.722595787430294,42.4740048449806,43.826540513141005,45.179076181303856,46.531611849469023,47.884147517636592,49.236683185806548,50.5892188539789,51.941754522153566,53.294290190330678,54.646825858510148,55.802448513034641,56.592370252909014,57.382291992785781,58.17221373266495,58.9621354725465,59.752057212430387,60.541978952316768,61.331900692205473,62.12182243209655,62.911744171990073,63.488784267805663,63.746496867031404,64.004209466259482,64.261922065489912,64.519634664722787,64.77734726395812,65.035059863195883,65.292772462435934,65.550485061678415,65.808197660923355,65.847533279617949,65.619959112903,65.392384946190447,65.1648107794803,64.937236612772637,64.709662446067384,64.482088279364547,64.254514112664168,64.026939945966191,63.799365779270595,62.045328177088585,61.389227159466827,60.733126141847549,60.07702512423073,59.42092410661644,58.764823089004537,58.108722071395128,57.452621053788157,56.594200975005968,55.570243641900831,54.546286308798159,53.522328975698,52.498371642600368,51.474414309505214,50.450456976412511,49.426499643322416,48.402542310234743,47.3785849771496,46.169812487008372,44.837826980665163,43.505841474324413,42.173855967986221,40.841870461650643,39.509884955317538,38.177899448987006,36.845913942658974,35.513928436333572,34.181942930010649,32.685846197061039,31.101379494078763,29.516912791099109,27.932446088122017,26.347979385147543,24.763512682175673,23.179045979206379,21.594579276239688,20.010112573275595,18.425645870314092,16.698796088706366,14.910922584415403,13.123049080127025,11.335175575841385,9.54730207155835,7.759428567278019,5.9715550630003333,4.1836815587252616,2.3958080544529015,0.60793455018317966,-1.3014458227682792,-3.2513300166106043,-5.2012142104502272,-7.1510984042871621,-9.1009825981213464,-11.050866791952899,-13.000750985781654,-14.950635179607724,-16.900519373431166,-18.8504035672518,-20.90313971653573,-22.981590069896288,-25.060040423254037,-27.138490776608904,-29.216941129960933,-31.295391483310077,-33.373841836656396,-35.452292189999866,-37.530742543340466,-39.609192896678316,-41.775469208149268,-43.957245194750293,-46.139021181348447,-48.320797167943923,-50.502573154536471,-52.684349141126383,-54.866125127713346,-57.047901114297652,-59.229677100879108,-61.411453087457836,-63.670091928537516,-65.93727189402324,-68.204451859506051,-70.471631824985749,-72.7388117904625,-75.005991755936066,-77.2731717214068,-79.5403516868744,-81.807531652338952,-84.074711617800645,-86.413228086291582,-88.755499817341217,-91.097771548387755,-93.4400432794312,-95.782315010471621,-98.124586741508978,-100.46685847254322,-102.80913020357423,-105.15140193460238,-107.4936736656273,0.45769616485547843,0.45769616485547843,0.45769616485547843,0.45769616485547843,0.45769616485547843,0.45769616485547843,0.45769616485547843,0.45769616485547843,0.45769616485547843,0.45769616485547843,0.45769616485547843,0.45769616485547843
DP 74,137.37080612624422,0.0017770269187506642,-51.336985487989807,-50.066511210327029,-48.796036932662894,-47.525562654997316,-46.255088377330438,-44.984614099662217,-43.714139821992632,-42.443665544321654,-41.173191266649326,-39.902716988975619,-38.634006456430882,-37.398807414787278,-36.163608373142296,-34.92840933149597,-33.693210289848281,-32.458011248199263,-31.22281220654888,-29.987613164897137,-28.752414123244058,-27.51721508158959,-26.289231786286059,-25.126190890196629,-23.963149994105891,-22.800109098013827,-21.637068201920435,-20.474027305825725,-19.310986409729704,-18.147945513632372,-16.984904617533704,-15.821863721433736,-14.6744628015973,-13.615689399472378,-12.556915997346119,-11.498142595218507,-10.439369193089561,-9.38059579095926,-8.3218223888276217,-7.2630489866946331,-6.2042755845602935,-5.1455021824246261,-4.1131304509000737,-3.1863666495883285,-2.25960284827526,-1.3328390469608604,-0.40607524564514436,0.5206885556719083,1.4474523569902824,2.374216158309987,3.3009799596310132,4.2277437609533646,5.1159172189296909,5.888318187817795,6.660719156707235,7.4331201255979975,8.2055210944901074,8.97792206338354,9.75032303227832,10.522724001174439,11.295124970071871,12.067525938970658,12.788655933528954,13.390151635372366,13.99164733721711,14.593143039063188,15.194638740910603,15.796134442759366,16.397630144609479,16.999125846460952,17.600621548313736,18.20211725016787,18.740084699602573,19.160069393175736,19.580054086750263,20.000038780326143,20.420023473903363,20.840008167481937,21.259992861061878,21.679977554643166,22.099962248225818,22.519946941809831,22.865345352352172,23.098862575829916,23.332379799309042,23.565897022789546,23.799414246271414,24.032931469754644,24.26644869323923,24.499965916725195,24.733483140212535,24.967000363701239,25.116654086099519,25.163806212297676,25.210958338497203,25.258110464698138,25.305262590900462,25.352414717104161,25.399566843309263,25.446718969515764,25.493871095723605,25.5410232219329,25.22744520956353,25.092583235294725,24.957721261027306,24.822859286761318,24.687997312496737,24.553135338233577,24.418273363971817,24.283411389711482,24.052649776674723,23.743423174717087,23.434196572760886,23.124969970806127,22.81574336885279,22.506516766900909,22.197290164950473,21.888063563001495,21.578836961053931,21.269610359107809,20.861730436325015,20.388080078842705,19.914429721361905,19.440779363882545,18.967129006404654,18.493478648928246,18.019828291453312,17.546177933979852,17.072527576507859,16.59887721903733,16.0256600455993,15.398828523379919,14.771997001162045,14.14516547894568,13.518333956730817,12.891502434517454,12.264670912305624,11.637839390095296,11.011007867886454,10.384176345679144,9.6582559961329064,8.8898673337929051,8.1214786714544172,7.3530900091175155,6.5847013467821336,5.8163126844483219,5.0479240221160593,4.2795353597853207,3.5111466974561583,2.7427580351285279,1.8765780880252556,0.97779981354953072,0.079021539075381689,-0.81975673539718952,-1.7185350098681638,-2.617313284337587,-3.5160915588053929,-4.4148698332716254,-5.3136481077363111,-6.2124263821993786,-7.2074321324415793,-8.2264958885709536,-9.2455596446986963,-10.264623400824744,-11.283687156949131,-12.302750913071819,-13.321814669192845,-14.340878425312189,-15.359942181429865,-16.379005937545884,-17.49327720839117,-18.62435086408604,-19.755424519779208,-20.886498175470809,-22.017571831160726,-23.148645486849041,-24.279719142535697,-25.410792798220722,-26.541866453904138,-27.672940109585909,-28.899073482234932,-30.135770044008677,-31.372466605780652,-32.60916316755079,-33.84585972931923,-35.0825562910858,-36.319252852850674,-37.555949414613657,-38.792645976374935,-40.0293425381344,-41.36278825186961,-42.701326988849893,-44.039865725828413,-45.378404462805058,-46.716943199779905,-48.055481936752969,-49.394020673724185,-50.732559410693526,-52.071098147661125,-53.409636884626757,0.2691006308396563,0.2691006308396563,0.2691006308396563,0.2691006308396563,0.2691006308396563,0.2691006308396563,0.2691006308396563,0.2691006308396563,0.2691006308396563,0.2691006308396563,0.2691006308396563,0.2691006308396563
DP 75,68.501653429296582,0.0031978177809962572,-55.223437865434157,-54.018043301649726,-52.812648737863469,-51.607254174075507,-50.401859610285754,-49.196465046494211,-47.991070482700941,-46.78567591890593,-45.580281355109179,-44.374886791310665,-43.170725849972293,-41.990003968618709,-40.809282087263334,-39.628560205906233,-38.447838324547348,-37.267116443186708,-36.086394561824314,-34.905672680460164,-33.724950799094209,-32.544228917726507,-31.368634488206364,-30.239187609983905,-29.109740731759686,-27.980293853533759,-26.850846975306006,-25.721400097076536,-24.591953218845283,-23.462506340612268,-22.333059462377538,-21.203612584141013,-20.085536647043273,-19.031896759607548,-17.978256872170022,-16.92461698473069,-15.870977097289565,-14.81733720984664,-13.763697322401912,-12.710057434955374,-11.656417547507049,-10.602777660056917,-9.5689506185409741,-8.614375897138304,-7.6598011757338327,-6.70522645432754,-5.7506517329194544,-4.7960770115095448,-3.8415022900978326,-2.8869275686843081,-1.9323528472689822,-0.97777812585184509,-0.053348385541668104,0.78064527170399389,1.6146389289514984,2.4486325862008496,3.2826262434520461,4.1166199007050892,4.9506135579599784,5.7846072152167123,6.618600872475275,7.4525945297357019,8.2445442085540641,8.9383896151515625,9.63223502175093,10.326080428352173,11.019925834955302,11.713771241560298,12.407616648167178,13.101462054775926,13.795307461386583,14.489152867999085,15.127857610969091,15.664156775179256,16.200455939391333,16.736755103605333,17.273054267821244,17.8093534320391,18.345652596258869,18.88195176048055,19.418250924704161,19.954550088929683,20.421775221571785,20.785387674592869,21.149000127615917,21.512612580640955,21.876225033667939,22.239837486696914,22.603449939727838,22.967062392760749,23.330674845795617,23.694287298832435,23.974403901682653,24.152468267159737,24.330532632638842,24.508596998119984,24.686661363603136,24.864725729088295,25.042790094575494,25.220854460064711,25.398918825555938,25.576983191049191,25.620676893723065,25.602541130798382,25.584405367875778,25.566269604955277,25.548133842036812,25.529998079120457,25.511862316206187,25.493726553293971,25.362962896804241,25.140047209978416,24.917131523154772,24.694215836333278,24.4713001495139,24.248384462696709,24.025468775881631,23.802553089068706,23.57963740225793,23.356721715449297,23.006920415449319,22.572526707754168,22.138133000061245,21.703739292370532,21.269345584682039,20.834951876995735,20.400558169311694,19.966164461629827,19.531770753950209,19.097377046272769,18.522238310083921,17.871311742632944,17.22038517518429,16.569458607737879,15.918532040293755,15.2676054728519,14.616678905412323,13.965752337975031,13.31482577053999,12.663899203107226,11.858839751455319,10.987720747837049,10.116601744221118,9.245482740607617,8.3743637369964521,7.5032447333876942,6.6321257297813041,5.7610067261772686,4.8898877225756392,4.0187687189763759,2.9805756112609769,1.8866890298996517,0.792802448540765,-0.30108413281567969,-1.3949707141696615,-2.4888572955212345,-3.5827438768703161,-4.6766304582169687,-5.7705170395612146,-6.8644036209029711,-8.1377759924190922,-9.45602193213137,-10.774267871841078,-12.092513811548134,-13.410759751252591,-14.729005690954423,-16.047251630653619,-17.365497570350218,-18.6837435100442,-20.001989449735589,-21.511978731488778,-23.055807205819178,-24.599635680146982,-26.143464154472294,-27.687292628794975,-29.231121103115154,-30.77494957743275,-32.3187780517478,-33.862606526060269,-35.406435000370251,-37.153638759840256,-38.923441909136557,-40.693245058430072,-42.463048207720682,-44.23285135700857,-46.002654506293482,-47.772457655575671,-49.542260804854962,-51.312063954131474,-53.081867103405138,-55.066787185802461,-57.063031352375589,-59.059275518945945,-61.05551968551331,-63.051763852077727,-65.048008018639379,-67.04425218519809,-69.040496351753688,-71.036740518306658,-73.032984684856459,0.4155837176570934,0.4155837176570934,0.4155837176570934,0.4155837176570934,0.4155837176570934,0.4155837176570934,0.4155837176570934,0.4155837176570934,0.4155837176570934,0.4155837176570934,0.4155837176570934,0.4155837176570934
DP 76,196.948745521866,0.001355260772161838,-51.88350830124633,-50.516364590594037,-49.149220879940742,-47.78207716928631,-46.41493345863077,-45.047789747974178,-43.680646037316492,-42.313502326657741,-40.946358615997852,-39.579214905336947,-38.214366555477866,-36.893130494799642,-35.571894434120374,-34.250658373440039,-32.929422312758604,-31.608186252076091,-30.286950191392513,-28.965714130707852,-27.644478070022107,-26.323242009335328,-25.011290184785221,-23.782897363036437,-22.554504541286573,-21.326111719535682,-20.097718897783746,-18.86932607603076,-17.640933254276757,-16.4125404325217,-15.184147610765583,-13.955754789008441,-12.747147942081568,-11.650662866001049,-10.554177789919475,-9.4576927138368418,-8.3612076377531483,-7.2647225616683953,-6.1682374855825817,-5.0717524094956881,-3.9752673334077482,-2.8787822573187491,-1.8149145815844543,-0.88151804879687612,0.05187848399174113,0.98527501678140683,1.9186715495721083,2.8520680823638589,3.7854646151566502,4.7188611479504905,5.6522576807453673,6.58565421354129,7.4727743993738489,8.221063794669579,8.9693531899663643,9.7176425852641888,10.465931980563068,11.214221375862987,11.962510771163966,12.710800166465983,13.45908956176905,14.207378957073148,14.896357760381617,15.446942846480191,15.997527932579811,16.548113018680478,17.098698104782212,17.649283190884958,18.1998682769888,18.750453363093666,19.301038449199588,19.851623535306558,20.331731286298378,20.680950654468973,21.030170022640643,21.379389390813362,21.728608758987122,22.077828127161947,22.42704749533781,22.776266863514774,23.125486231692751,23.474705599871797,23.745024933555531,23.896992351058763,24.048959768563048,24.200927186068412,24.352894603574843,24.504862021082342,24.656829438590897,24.8087968561005,24.960764273611193,25.112731691122921,25.180582692590942,25.14562297427031,25.110663255950733,25.075703537632243,25.040743819314816,25.005784100998458,24.97082438268319,24.935864664369,24.900904946055871,24.865945227743843,24.330712755358149,24.123611384649543,23.916510013942034,23.709408643235573,23.502307272530235,23.295205901825959,23.088104531122802,22.88100316042074,22.588856962610997,22.227127171975116,21.865397381340351,21.5036675907067,21.14193780007415,20.78020800944272,20.41847821881241,20.056748428183191,19.695018637555084,19.3332888469281,18.889986338628702,18.392300733486397,17.894615128345222,17.396929523205166,16.899243918066251,16.401558312928454,15.903872707791805,15.406187102656276,14.908501497521879,14.41081589238861,13.836796103798203,13.2216721833136,12.606548262830172,11.991424342347889,11.376300421866771,10.761176501386808,10.146052580907982,9.5309286604303356,8.91580473995383,8.3006808194784778,7.6154910535684337,6.9002718855552461,6.185052717543206,5.4698335495323853,4.7546143815227273,4.0393952135142666,3.3241760455069955,2.6089568775008818,1.8937377094959775,1.1785185414922499,0.39978582267851143,-0.40011888018911906,-1.2000235830555472,-1.9999282859207712,-2.7998329887847775,-3.5997376916476034,-4.3996423945091863,-5.1995470973695772,-5.9994518002287851,-6.7993565030867513,-7.6565749377598484,-8.5281224825570341,-9.399670027352963,-10.271217572147627,-11.142765116941018,-12.014312661733122,-12.885860206523978,-13.757407751313528,-14.628955296101818,-15.500502840888863,-16.424256373819581,-17.357223308725054,-18.290190243629226,-19.223157178532233,-20.156124113433936,-21.089091048334438,-22.022057983233662,-22.955024918131645,-23.887991853028371,-24.820958787923878,-25.802451327308251,-26.789336110157247,-27.776220893004933,-28.763105675851225,-29.749990458696235,-30.736875241539817,-31.723760024382102,-32.710644807222977,-33.697529590062558,-34.684414372900761,-35.718340273778665,-36.754742491014028,-37.791144708248027,-38.827546925480618,-39.86394914271186,-40.900351359941709,-41.936753577170208,-42.97315579439725,-44.009558011622964,-45.045960228847278,0.20451470671681646,0.20451470671681646,0.20451470671681646,0.20451470671681646,0.20451470671681646,0.20451470671681646,0.20451470671681646,0.20451470671681646,0.20451470671681646,0.20451470671681646,0.20451470671681646,0.20451470671681646
DP 77,192.1912568046971,0.0016529627480059345,-62.116897614259059,-60.487121981016486,-58.85734634777257,-57.227570714527246,-55.597795081280665,-53.9680194480328,-52.3382438147836,-50.708468181533064,-49.078692548281161,-47.448916915028015,-45.821840754221945,-44.246055080254919,-42.670269406286657,-41.094483732317066,-39.518698058346189,-37.942912384374,-36.367126710400477,-34.791341036425663,-33.215555362449507,-31.6397696884721,-30.074912283329652,-28.608410330672275,-27.141908378013596,-25.675406425353657,-24.208904472692435,-22.742402520029966,-21.275900567366204,-19.80939861470117,-18.342896662034867,-16.876394709367297,-15.433212928248974,-14.122180255424597,-12.811147582598917,-11.500114909771955,-10.189082236943696,-8.8780495641141446,-7.5670168912832887,-6.25598421845114,-4.9449515456177027,-3.63391887278297,-2.3614010582407094,-1.2429444971155283,-0.12448793598908302,0.99396862513864048,2.112425186267628,3.2308817473978935,4.3493383085294282,5.4677948696622423,6.5862514307963211,7.7047079919316728,8.7683945296259633,9.6677689262157056,10.567143322806734,11.466517719399029,12.365892115992608,13.265266512587459,14.164640909183582,15.064015305781009,15.963389702379683,16.862764098979618,17.691746978079426,18.356480210714544,19.021213443350945,19.685946675988632,20.35067990862759,21.015413141267842,21.680146373909356,22.344879606552176,23.009612839196258,23.674346071841637,24.255166076221748,24.680144961935845,25.105123847651214,25.530102733367848,25.955081619085821,26.380060504805048,26.805039390525558,27.230018276247364,27.654997161970485,28.079976047694881,28.410671695184782,28.599940257374556,28.789208819565648,28.978477381758037,29.167745943951715,29.357014506146715,29.546283068342991,29.735551630540574,29.924820192739446,30.114088754939644,30.2024350508751,30.167429790415277,30.132424529956761,30.097419269499543,30.062414009043689,30.027408748589128,29.992403488135871,29.957398227683935,29.922392967233339,29.88738770678405,29.263755241911781,29.021302915894616,28.778850589878825,28.536398263864342,28.29394593785117,28.051493611839362,27.809041285828854,27.566588959819693,27.221155864855376,26.791464007311387,26.361772149768729,25.932080292227429,25.502388434687504,25.072696577148918,24.643004719611667,24.213312862075817,23.783621004541288,23.353929147008106,22.824945503205075,22.229765771022208,21.634586038840734,21.039406306660617,20.444226574481895,19.84904684230456,19.253867110128592,18.658687377954013,18.063507645780842,17.468327913609009,16.779709907523216,16.040777625958459,15.301845344395133,14.562913062833211,13.823980781272704,13.08504849971361,12.346116218155915,11.607183936599656,10.868251655044778,10.129319373491331,9.30410102217264,8.4419014702589124,7.5797019183466112,6.7175023664357889,5.8553028145263815,4.9931032626184457,4.1309037107119506,3.2687041588068788,2.4065046069032792,1.5443050550011173,0.603382055009101,-0.36378308648453822,-1.3309482279767093,-2.2981133694674085,-3.2652785109566227,-4.2324436524443927,-5.1996087939306435,-6.1667739354154376,-7.1339390768987911,-8.1011042183806321,-9.1397892394380058,-10.196355075407373,-11.252920911375222,-12.309486747341506,-13.36605258330624,-14.422618419269385,-15.479184255231004,-16.535750091191087,-17.592315927149563,-18.648881763106541,-19.771029187512667,-20.904750562685948,-22.038471937857665,-23.172193313027929,-24.305914688196637,-25.439636063363846,-26.573357438529481,-27.707078813693645,-28.840800188856264,-29.9745215640174,-31.169567954590857,-32.371428879822147,-33.573289805051772,-34.775150730279712,-35.977011655506104,-37.178872580730733,-38.380733505953792,-39.582594431175139,-40.784455356394886,-41.986316281612986,-43.247877102009056,-44.512580616140554,-45.777284130270381,-47.041987644398489,-48.306691158524949,-49.571394672649774,-50.83609818677288,-52.100801700894245,-53.365505215013933,-54.630208729131986,0.24986730366609,0.24986730366609,0.24986730366609,0.24986730366609,0.24986730366609,0.24986730366609,0.24986730366609,0.24986730366609,0.24986730366609,0.24986730366609,0.24986730366609,0.24986730366609
DP 78,179.81603763487612,0.0053593202099222453,-191.37049854079476,-186.40754858077153,-181.44459862074393,-176.48164866071215,-171.518698700676,-166.55574874063566,-161.5927987805911,-156.62984882054215,-151.66689886048911,-146.70394890043181,-141.74892623100453,-136.94452358223509,-132.14012093346133,-127.33571828468355,-122.53131563590144,-117.72691298711507,-112.9225103383245,-108.11810768952962,-103.3137050407307,-98.509302391927363,-93.737062859919845,-89.254294419221964,-84.771525978519975,-80.288757537813808,-75.805989097103563,-71.323220656389267,-66.840452215670837,-62.357683774948335,-57.874915334221626,-53.392146893490796,-48.978250979843196,-44.954637059653912,-40.931023139460414,-36.907409219262746,-32.883795299060878,-28.860181378854794,-24.836567458644549,-20.812953538430094,-16.789339618211478,-12.765725697988684,-8.856407580241429,-5.4042780741209766,-1.9521485679964212,1.4999809381322662,4.9521104442650445,8.4042399504019674,11.856369456542993,15.308498962688139,18.760628468837407,22.212757974990794,25.501364848502252,28.299397641515327,31.097430434532534,33.895463227553876,36.693496020579367,39.491528813608966,42.289561606642707,45.08759439968059,47.885627192722581,50.683659985768706,53.269998291441553,55.362374455873777,57.454750620310158,59.547126784750695,61.639502949195311,63.7318791136442,65.824255278097084,67.916631442554234,70.0090076070155,72.101383771480968,73.939260053779279,75.304486824704412,76.669713595633809,78.0349403665673,79.400167137504951,80.765393908446782,82.130620679392862,83.495847450343092,84.861074221297457,86.226300992256,87.302837869262959,87.946333083491567,88.589828297724381,89.233323511961245,89.876818726202487,90.520313940447849,91.163809154697432,91.8073043689513,92.450799583209331,93.094294797471548,93.425474533294661,93.374928790909308,93.3243830485281,93.273837306151236,93.223291563778631,93.172745821410189,93.122200079046081,93.071654336686251,93.021108594330684,92.970562851979267,91.195159415813208,90.4951059619874,89.7950525081658,89.094999054348634,88.394945600535735,87.694892146727213,86.994838692922926,86.294785239123073,85.268176711350478,83.974381147336047,82.680585583326078,81.386790019320372,80.092994455319086,78.799198891322277,77.505403327329788,76.211607763341789,74.917812199358181,73.624016635378851,72.01098623878741,70.185127591366964,68.359268943951079,66.533410296539614,64.707551649132611,62.881693001730106,61.055834354332156,59.229975706938582,57.404117059549641,55.578258412164978,53.447464633910634,51.1524705816665,48.857476529427025,46.562482477192141,44.267488424961826,41.972494372736122,39.677500320514937,37.382506268298386,35.087512216086395,32.792518163879009,30.211370747235243,27.507581344464032,24.803791941697426,22.100002538935602,19.396213136178428,16.69242373342599,13.98863433067825,11.284844927935142,8.581055525196815,5.8772661224631593,2.9079015893629196,-0.14999133419154567,-3.2078842577412359,-6.265777181286146,-9.32367010482621,-12.381563028361592,-15.439455951892041,-18.49734887541775,-21.555241798938763,-24.613134722454873,-27.916622985139842,-31.281512984363019,-34.646402983581268,-38.011292982794373,-41.3761829820025,-44.741072981205477,-48.105962980403476,-51.470852979596351,-54.835742978784175,-58.200632977967054,-61.794670449944029,-65.429148259388569,-69.063626068828185,-72.698103878263,-76.332581687692766,-79.967059497117617,-83.601537306537452,-87.236015115952327,-90.870492925362328,-94.50497073476744,-98.357059025342451,-102.23332854369025,-106.10959806203279,-109.98586758036988,-113.8621370987016,-117.73840661702792,-121.61467613534909,-125.49094565366443,-129.36721517197478,-133.24348469027959,-137.33388396222909,-141.43555535171532,-145.53722674119606,-149.63889813067121,-153.74056952014092,-157.84224090960538,-161.9439122990641,-166.04558368851721,-170.14725507796496,-174.2489264674071,0.81308789416281435,0.81308789416281435,0.81308789416281435,0.81308789416281435,0.81308789416281435,0.81308789416281435,0.81308789416281435,0.81308789416281435,0.81308789416281435,0.81308789416281435,0.81308789416281435,0.81308789416281435
DP 79,216.19958572880142,0.0033790441488469728,-138.68510284367926,-134.96972797420281,-131.25435310472366,-127.53897823524184,-123.82360336575735,-120.10822849626999,-116.39285362678014,-112.67747875728764,-108.96210388779224,-105.24672901829422,-101.53792963585667,-97.954065750676321,-94.370201865493343,-90.786337980307621,-87.202474095119285,-83.61861020992832,-80.0347463247345,-76.450882439538134,-72.86701855433904,-69.283154669137232,-65.725795691500409,-62.406983387259245,-59.088171083015368,-55.769358778768961,-52.450546474519989,-49.131734170268366,-45.812921866014172,-42.494109561757362,-39.175297257497938,-35.856484953235991,-32.593858033924469,-29.649618503172057,-26.705378972416998,-23.761139441659257,-20.816899910898915,-17.872660380135933,-14.928420849370276,-11.984181318601978,-9.0399417878310384,-6.0957022570574591,-3.2434012212821473,-0.758858510595378,1.7256842000939743,4.2102269107859414,6.6947696214804777,9.1793123321776342,11.66385504287739,14.148397753579744,16.632940464284683,19.117483174992213,21.472793152478392,23.440400044184425,25.408006935893049,27.375613827604298,29.343220719318143,31.310827611034636,33.278434502753669,35.246041394475363,37.213648286199593,39.181255177926509,40.985062599408792,42.406664805912378,43.828267012418571,45.249869218927344,46.671471425438746,48.093073631952805,49.514675838469408,50.93627804498864,52.357880251510487,53.779482458034913,55.008930667109667,55.881516263009274,56.754101858911433,57.626687454816285,58.499273050723687,59.371858646633761,60.244444242546471,61.117029838461811,61.989615434379786,62.862201030300312,63.522760892086005,63.865277142421583,64.207793392759669,64.550309643100462,64.892825893443984,65.23534214379,65.5778583941387,65.920374644490138,66.262890894844162,66.605407145200843,66.725472735550881,66.573649513366888,66.421826291185539,66.270003069006918,66.118179846830984,65.966356624657664,65.814533402487015,65.662710180319067,65.510886958153748,65.359063735991128,63.785261061094175,63.186103789926911,62.586946518762375,61.987789247600553,61.388631976441495,60.789474705285045,60.190317434131416,59.591160162980394,58.775160644257269,57.781741014567757,56.788321384880959,55.79490175519706,54.80148212551574,53.80806249583727,52.814642866161492,51.821223236488521,50.827803606818279,49.834383977150836,48.63719676399225,47.304161285106588,45.971125806223725,44.638090327343647,43.305054848466447,41.972019369591976,40.638983890720333,39.305948411851482,37.972912932985452,36.639877454122185,35.12032911249009,33.5003480556051,31.880366998722998,30.260385941843786,28.640404884967388,27.020423828093879,25.400442771223229,23.780461714355472,22.160480657490542,20.540499600628486,18.753345409493324,16.894542767692958,15.035740125895439,13.176937484100963,11.318134842309332,9.4593322005206968,7.6005295587349773,5.7417269169521328,3.8829242751722819,2.024121633395342,0.017588900590980398,-2.0381890577064685,-4.0939670160009438,-6.1497449742924335,-8.2055229325809087,-10.261300890866469,-12.317078849148951,-14.372856807428468,-16.428634765705066,-18.48441272397859,-20.669973681122052,-22.887981921388338,-25.105990161651505,-27.323998401911521,-29.542006642168392,-31.760014882422094,-33.978023122672639,-36.19603136292006,-38.414039603164305,-40.632047843405488,-42.96514986320647,-45.318563829846624,-47.671977796483652,-50.025391763117767,-52.378805729748684,-54.732219696376539,-57.08563366300131,-59.439047629622991,-61.792461596241587,-64.145875562857171,-66.603678140784623,-69.073080549626923,-71.542482958465911,-74.011885367301488,-76.4812877761339,-78.950690184962681,-81.4200925937884,-83.889495002610659,-86.358897411429552,-88.828299820245121,-91.397146808076485,-93.971228710550946,-96.5453106130221,-99.119392515489778,-101.69347441795394,-104.26755632041497,-106.84163822287248,-109.41572012532646,-111.98980202777724,-114.56388393022445,0.50568788734601167,0.50568788734601167,0.50568788734601167,0.50568788734601167,0.50568788734601167,0.50568788734601167,0.50568788734601167,0.50568788734601167,0.50568788734601167,0.50568788734601167,0.50568788734601167,0.50568788734601167
DP 80,84.855991874868351,0.0034890079959414939,-69.786934844754953,-68.202492193252269,-66.618049541747325,-65.033606890240151,-63.449164238730788,-61.864721587219307,-60.280278935705461,-58.69583628418939,-57.111393632671195,-55.52695098115079,-53.944265459913879,-52.394965746281024,-50.845666032645873,-49.296366319008577,-47.747066605368978,-46.197766891727213,-44.648467178083244,-43.099167464437,-41.549867750788586,-40.000568037137917,-38.458543422608813,-36.981995387846347,-35.505447353081728,-34.028899318314892,-32.552351283545853,-31.075803248774722,-29.599255214001278,-28.122707179225714,-26.646159144447957,-25.169611109667994,-23.709101974070624,-22.339480944534728,-20.969859914996594,-19.600238885456196,-18.230617855913589,-16.860996826368723,-15.491375796821606,-14.121754767272252,-12.752133737720664,-11.382512708166846,-10.040613864226685,-8.8096050729208653,-7.5785962816128079,-6.3475874903025247,-5.1165786989900193,-3.885569907675265,-2.6545611163582885,-1.423552325039078,-0.19254353371764221,1.0384652576060258,2.2277206589388037,3.2917143116565439,4.3557079643765411,5.4197016170987995,6.4836952698233246,7.5476889225501127,8.61168257527915,9.67567622801046,10.73966988074401,11.803663533479842,12.810134581261899,13.682383952019233,14.554633322778859,15.426882693540781,16.299132064304978,17.171381435071492,18.0436308058403,18.915880176611385,19.788129547384774,20.660378918160447,21.458249532395332,22.117986161512352,22.777722790631689,23.437459419753363,24.097196048877365,24.756932678003668,25.416669307132356,26.076405936263331,26.736142565396666,27.39587919453232,27.963925444636864,28.394433959516018,28.82494247439762,29.255450989281567,29.685959504167876,30.116468019056555,30.546976533947646,30.977485048841068,31.407993563736873,31.838502078635077,32.160115000828604,32.348631022388879,32.537147043951613,32.725663065516748,32.914179087084342,33.102695108654309,33.291211130226756,33.479727151801619,33.668243173378841,33.856759194958535,33.794638797446225,33.732086959507832,33.669535121571911,33.606983283638506,33.5444314457076,33.481879607779135,33.419327769853169,33.356775931929718,33.152956863284828,32.83355308718064,32.514149311078988,32.194745534979873,31.875341758883295,31.555937982789303,31.236534206697794,30.917130430608875,30.597726654522507,30.278322878438683,29.803019157787958,29.2237796847791,28.6445402117729,28.06530073876927,27.486061265768285,26.906821792769922,26.327582319774173,25.748342846781032,25.169103373790552,24.589863900802673,23.841238099641124,23.001401812443223,22.161565525248054,21.321729238055532,20.481892950865735,19.642056663678652,18.802220376494226,17.962384089312547,17.122547802133518,16.282711514957217,15.261079099160186,14.161530988301475,13.061982877445489,11.962434766592361,10.862886655741979,9.7633385448944132,8.66379043404963,7.5642423232076119,6.4646942123684132,5.365146101531991,4.07223550985794,2.7148683209894213,1.3575011321237589,0.00013394326095239695,-1.3572332455989726,-2.7146004344560897,-4.0719676233102824,-5.4293348121616365,-6.78670200101018,-8.1440691898558057,-9.7056793705646562,-11.318352712402023,-12.931026054236375,-14.543699396067669,-16.156372737895918,-17.769046079721086,-19.381719421543245,-20.994392763362349,-22.607066105178379,-24.219739446991422,-26.047526304018845,-27.91327676170642,-29.779027219390962,-31.644777677072636,-33.51052813475124,-35.376278592426956,-37.242029050099575,-39.107779507769308,-40.973529965436015,-42.839280423099808,-44.930761431898887,-47.047325983748749,-49.163890535595407,-51.280455087438696,-53.397019639278838,-55.51358419111552,-57.630148742949089,-59.746713294779269,-61.863277846606216,-63.979842398429874,-66.333584845018237,-68.699812698524255,-71.06604055202699,-73.43226840552633,-75.79849625902223,-78.164724112514989,-80.530951966004352,-82.897179819490177,-85.263407672972718,-87.629635526451963,0.48743739926939783,0.48743739926939783,0.48743739926939783,0.48743739926939783,0.48743739926939783,0.48743739926939783,0.48743739926939783,0.48743739926939783,0.48743739926939783,0.48743739926939783,0.48743739926939783,0.48743739926939783
DP 81,170.84393973199536,0.0050921772128755859,-174.74314792752449,-170.25158692517093,-165.760025922813,-161.26846492045124,-156.7769039180854,-152.28534291571549,-147.79378191334138,-143.30222091096354,-138.8106599085815,-134.31909890619556,-129.83451752425202,-125.4825502502481,-121.13058297624006,-116.778615702228,-112.4266484282121,-108.07468115419205,-103.72271388016804,-99.370746606140017,-95.01877933210811,-90.66681205807204,-86.3432123103996,-82.274922981379632,-78.206633652355578,-74.138344323327857,-70.070054994296129,-66.001765665260521,-61.933476336221034,-57.865187007177717,-53.796897678130371,-49.7286083490793,-45.721217485065033,-42.058921760431375,-38.3966260357937,-34.734330311152071,-31.072034586506486,-27.409738861856958,-23.747443137203412,-20.085147412545933,-16.422851687884489,-12.760555963219083,-9.1996784023436771,-6.0444782897445055,-2.8892781771414504,0.26592193546552206,3.4211220480763695,6.5763221606911433,9.7315222733098015,12.886722385932377,16.041922498558851,19.197122611189208,22.206578865187488,24.7787980329081,27.351017200632594,29.923236368361053,32.495455536093424,35.067674703829688,37.639893871569882,40.212113039313984,42.784332207062015,45.356551374813975,47.7390839551198,49.679007027440917,51.618930099766004,53.558853172094921,55.498776244427852,57.438699316764769,59.378622389105537,61.318545461450285,63.258468533798919,65.198391606151546,66.908854888317464,68.1931723633103,69.47748983830698,70.7618073133077,72.046124788312255,73.3304422633209,74.6147597383335,75.899077213349983,77.183394688370512,78.467712163394978,79.489907470915512,80.1189133331345,80.747919195357539,81.376925057584572,82.005930919815555,82.634936782050531,83.263942644289457,83.892948506532491,84.521954368779461,85.1509602310305,85.494157511234263,85.488027187813316,85.481896864396333,85.475766540983429,85.4696362175746,85.463505894169771,85.457375570768917,85.451245247372242,85.445114923979574,85.438984600590928,83.921755713154354,83.316089089493943,82.710422465837567,82.104755842185426,81.499089218537293,80.893422594893266,80.287755971253347,79.682089347617577,78.7721246963327,77.613183701937629,76.454242707546626,75.295301713159944,74.13636071877734,72.977419724398942,71.818478730024651,70.659537735654681,69.500596741288845,68.341655746927117,66.882164582300433,65.222301902759611,63.562439223223166,61.902576543690827,60.242713864162916,58.582851184639175,56.922988505119712,55.263125825604462,53.603263146093553,51.943400466586858,49.99323812199971,47.886756351673192,45.780274581351108,43.673792811033366,41.567311040719979,39.460829270410969,37.354347500106329,35.24786572980608,33.141383959510186,31.034902189218666,28.652724387573329,26.152386490486673,23.652048593404345,21.151710696326642,18.6513727992533,16.151034902184488,13.650697005120151,11.150359108060211,8.65002121100481,6.1496833139538545,3.3902169640020028,0.54437119733079464,-2.3014745693358725,-5.1473203359979935,-7.9931661026555041,-10.839011869308557,-13.684857635956911,-16.530703402600775,-19.37654916924016,-22.222394935874885,-25.311016055402686,-28.460333881581377,-31.609651707755358,-34.758969533924471,-37.908287360088778,-41.0576051862482,-44.206923012402896,-47.356240838552736,-50.505558664697787,-53.654876490838049,-57.033578815215293,-60.452763307715493,-63.871947800210918,-67.291132292701775,-70.710316785187828,-74.129501277669192,-77.5486857701459,-80.967870262617822,-84.387054755085046,-87.8062392475476,-91.445672078590036,-95.109579260376989,-98.773486442158813,-102.43739362393549,-106.10130080570717,-109.7652079874736,-113.42911516923509,-117.09302235099129,-120.7569295327424,-124.42083671448847,-128.30311457867461,-132.19688780937196,-136.09066104006419,-139.98443427075108,-143.87820750143285,-147.77198073210954,-151.66575396278108,-155.559527193447,-159.45330042410805,-163.3470736547637,0.77390832549814326,0.77390832549814326,0.77390832549814326,0.77390832549814326,0.77390832549814326,0.77390832549814326,0.77390832549814326,0.77390832549814326,0.77390832549814326,0.77390832549814326,0.77390832549814326,0.77390832549814326
DP 82,56.482809914232959,0.0020056100645435607,-30.583375181965515,-29.939659561205371,-29.295943940444356,-28.6522283196824,-28.008512698919557,-27.364797078155728,-26.721081457391072,-26.077365836625464,-25.433650215858954,-24.789934595091538,-24.146842413832307,-23.515595701103972,-22.884348988374686,-22.2531022756445,-21.62185556291335,-20.9906088501813,-20.359362137448318,-19.728115424714385,-19.096868711979546,-18.465621999243776,-17.836972584587024,-17.231699098150056,-16.626425611712147,-16.021152125273314,-15.415878638833528,-14.810605152392785,-14.205331665951128,-13.600058179508521,-12.994784693064981,-12.38951120662049,-11.790022308636592,-11.223313109779991,-10.656603910922422,-10.089894712063881,-9.5231855132044,-8.9564763143439468,-8.3897671154825186,-7.8230579166201313,-7.25634871775678,-6.68963951889247,-6.1330649610151085,-5.61702944605973,-5.1009939311033738,-4.5849584161460371,-4.0689229011877233,-3.5528873862284258,-3.0368518712681456,-2.5208163563068893,-2.0047808413446528,-1.4887453263814359,-0.98823834134916666,-0.5343175332239174,-0.080396725097663824,0.37352408302959572,0.82744489115786157,1.2813656992871334,1.7352865074174095,2.1892073155486944,2.643128123680976,3.0970489318142715,3.5291307838195185,3.9102542114231182,4.2913776390277469,4.6725010666334157,5.053624494240113,5.4347479218478414,5.8158713494566063,6.1969947770664033,6.5781182046772422,6.9592416322891095,7.3114461790599243,7.6099434518520361,7.9084407246452,8.2069379974394483,8.5054352702347469,8.80393254303111,9.1024298158285415,9.40092708862703,9.6994243614265923,9.9979216342272181,10.25980349194141,10.466761361789638,10.673719231638973,10.880677101489397,11.08763497134092,11.294592841193552,11.501550711047273,11.708508580902098,11.915466450758007,12.122424320615025,12.284607308959563,12.392064501635796,12.499521694313138,12.606978886991644,12.714436079671271,12.821893272352034,12.929350465033931,13.03680765771697,13.144264850401145,13.251722043086447,13.307818303097163,13.308765167217954,13.309712031339918,13.310658895463078,13.311605759587403,13.312552623712904,13.313499487839584,13.314446351967431,13.253471305807311,13.141831814330306,13.030192322854502,12.918552831379936,12.806913339906567,12.695273848434427,12.5836343569635,12.471994865493802,12.360355374025316,12.248715882558058,12.066419515302437,11.837017451090132,11.607615386879106,11.378213322669344,11.148811258460842,10.91940919425361,10.690007130047647,10.460605065842941,10.231203001639519,10.001800937437354,9.69303432766016,9.341531808473972,8.9900292892890938,8.6385267701055284,8.2870242509232668,7.9355217317423028,7.58401921256264,7.2325166933842873,6.8810141742072295,6.5295116550314809,6.0900509186129357,5.6128923187426105,5.1357337188736452,4.6585751190060707,4.1814165191398542,3.7042579192750229,3.227099319411554,2.7499407195494467,2.2727821196887277,1.7956235198293715,1.2220668548151437,0.61637628652714116,0.010685718240549497,-0.59500485004462933,-1.2006954183283838,-1.8063859866107439,-2.4120765548916627,-3.0177671231711769,-3.6234576914492949,-4.2291482597259789,-4.9393991989556794,-5.67579146632071,-6.4121837336842278,-7.1485760010462212,-7.8849682684066913,-8.6213605357656089,-9.3577528031230166,-10.094145070478895,-10.830537337833242,-11.566929605186091,-12.41591472409953,-13.284770421807558,-14.153626119514088,-15.022481817219177,-15.891337514922725,-16.760193212624813,-17.629048910325405,-18.497904608024502,-19.366760305722114,-20.235616003418254,-21.224598572452329,-22.226929833250182,-23.229261094046411,-24.231592354840945,-25.233923615633863,-26.236254876425086,-27.238586137214682,-28.240917398002573,-29.243248658788872,-30.245579919573451,-31.375440314638791,-32.512014038266848,-33.648587761893239,-34.7851614855179,-35.921735209140849,-37.058308932762124,-38.194882656381687,-39.3314563799995,-40.468030103615632,-41.604603827229994,0.23906977685468556,0.23906977685468556,0.23906977685468556,0.23906977685468556,0.23906977685468556,0.23906977685468556,0.23906977685468556,0.23906977685468556,0.23906977685468556,0.23906977685468556,0.23906977685468556,0.23906977685468556
DP 83,66.516097991611232,0.00317690903253273,-53.810467483386525,-52.642318762199,-51.474170041009828,-50.306021319818882,-49.1378725986263,-47.96972387743201,-46.80157515623597,-45.633426435038245,-44.465277713838795,-43.297128992637667,-42.130164181576951,-40.985693887026081,-39.8412235924735,-38.696753297919237,-37.552283003363229,-36.407812708805523,-35.263342414246083,-34.118872119684958,-32.974401825122136,-31.829931530557591,-30.690385084607705,-29.595153741614418,-28.499922398619354,-27.404691055622653,-26.309459712624164,-25.214228369624045,-24.118997026622171,-23.02376568361862,-21.928534340613336,-20.833302997606353,-19.748999299603273,-18.726619611896936,-17.704239924188848,-16.681860236479004,-15.65948054876741,-14.637100861054067,-13.61472117333896,-12.592341485622118,-11.569961797903519,-10.54758211018318,-9.5442610728033177,-8.6171755375178964,-7.6900900022307157,-6.7630044669417746,-5.8359189316510776,-4.90883339635861,-3.9817478610643895,-3.0546623257684002,-2.1275767904706555,-1.2004912551711495,-0.302437806362505,0.50851828530701415,1.3194743769783286,2.1304304686514417,2.9413865603263516,3.75234265200306,4.563298743681564,5.3742548353618682,6.1852109270439586,6.99616701872785,7.7665735211317362,8.4423627182145768,9.11815191529926,9.7939411123857756,10.469730309474121,11.145519506564314,11.821308703656319,12.497097900750171,13.172887097845857,13.848676294943377,14.471193246431424,14.994774588822658,15.518355931215783,16.04193727361077,16.565518616007648,17.089099958406393,17.612681300807012,18.1362626432095,18.659843985613875,19.18342532802011,19.640151091737991,19.996591907600347,20.353032723464615,20.709473539330826,21.065914355198924,21.422355171068983,21.778795986940942,22.135236802814841,22.491677618690645,22.848118434568367,23.123579854045111,23.300064754744241,23.476549655445311,23.653034556148384,23.829519456853411,24.006004357560453,24.182489258269463,24.358974158980452,24.535459059693391,24.711943960408338,24.764647045554572,24.750430938970034,24.736214832387549,24.721998725807072,24.707782619228638,24.693566512652222,24.679350406077884,24.665134299505603,24.54119990950305,24.327494129288784,24.113788349076668,23.900082568866587,23.686376788658634,23.472671008452789,23.258965228249036,23.045259448047403,22.83155366784786,22.617847887650431,22.280252350864163,21.860061691313163,21.439871031764369,21.019680372217721,20.599489712673257,20.179299053130961,19.759108393590871,19.338917734052913,18.918727074517157,18.498536414983555,17.940610709573754,17.308517976552778,16.67642524353408,16.044332510517606,15.412239777503403,14.780147044491429,14.148054311481696,13.51596157847424,12.88386884546901,12.251776112466027,11.468520005392472,10.620477043681943,9.7724340819737066,8.9243911202678525,8.076348158564306,7.2283051968631025,6.3802622351642455,5.532219273467696,4.6841763117735,3.8361333500816377,2.8239049329102266,1.75694596137692,0.68998698984600737,-0.37697198168250723,-1.4439309532086022,-2.5108899247323326,-3.5778488962536148,-4.6448078677725091,-5.7117668392890373,-6.7787258108031265,-8.0223821362966437,-9.310214887991771,-10.598047639684374,-11.88588039137437,-13.173713143061811,-14.46154589474666,-15.749378646428944,-17.03721139810866,-18.325044149785779,-19.612876901460371,-21.0897488403891,-22.599982738034868,-24.110216635678064,-25.620450533318852,-27.130684430957022,-28.640918328592754,-30.151152226225928,-31.661386123856577,-33.171620021484742,-34.681853919110409,-36.392816003927678,-38.126083328773952,-39.859350653617447,-41.5926179784581,-43.325885303296047,-45.059152628131173,-46.792419952963506,-48.525687277793025,-50.258954602619795,-51.992221927443786,-53.937952386264165,-55.894867229217873,-57.851782072168746,-59.808696915116677,-61.765611758061766,-63.7225266010041,-65.679441443943517,-67.636356286879945,-69.593271129813715,-71.550185972744487,0.4080061892843162,0.4080061892843162,0.4080061892843162,0.4080061892843162,0.4080061892843162,0.4080061892843162,0.4080061892843162,0.4080061892843162,0.4080061892843162,0.4080061892843162,0.4080061892843162,0.4080061892843162
DP 84,206.78736327200821,0.0031240373547658982,-124.05934995675022,-120.76206823711819,-117.46478651748365,-114.16750479784663,-110.87022307820709,-107.57294135856513,-104.27565963892044,-100.97837791927357,-97.681096199624037,-94.383814479971932,-91.0922217789029,-87.908721506435114,-84.72522123396476,-81.541720961491961,-78.358220689016633,-75.174720416538833,-71.9912201440586,-68.807719871575983,-65.624219599090722,-62.440719326603052,-59.280191415981619,-56.3264169335644,-53.372642451144756,-50.418867968722743,-47.465093486298287,-44.511319003871456,-41.557544521442196,-38.60377003901052,-35.649995556576492,-32.696221074140013,-29.7912686157169,-27.162977369875978,-24.534686124032682,-21.906394878186894,-19.278103632338684,-16.649812386488012,-14.021521140634883,-11.393229894779306,-8.7649386489212944,-6.1366474030608327,-3.588536413739134,-1.3611502399635027,0.8662359338145208,3.0936221075949608,5.3210082813777824,7.54839445516303,9.7757806289506739,12.003166802740735,14.230552976533181,16.457939150328034,18.572109456633594,20.346627879931138,22.121146303231114,23.895664726533465,25.670183149838273,27.444701573145466,29.219219996455074,30.99373841976708,32.768256843081531,34.542775266398372,36.173015462684063,37.466600780313513,38.760186097945358,40.053771415579611,41.3473567332163,42.640942050855415,43.934527368496923,45.228112686140875,46.521698003787229,47.815283321436,48.938552416617142,49.745515356201182,50.552478295787644,51.359441235376565,52.166404174967887,52.973367114561611,53.780330054157851,54.587292993756442,55.394255933357513,56.201218872961007,56.818923658400244,57.15273674035172,57.486549822305641,57.820362904262019,58.154175986220878,58.487989068182181,58.821802150145871,59.155615232112034,59.489428314080641,59.82324139605177,59.956939560977261,59.8460486239227,59.735157686870679,59.624266749821018,59.513375812773944,59.402484875729286,59.291593938687136,59.180703001647451,59.06981206461024,58.958921127575486,57.611619835789845,57.094876739259085,56.578133642730812,56.061390546205118,55.544647449681818,55.027904353161084,54.511161256642914,53.994418160127253,53.279121021471276,52.401367163316472,51.523613305164233,50.645859447014587,49.768105588867407,48.890351730722863,48.012597872580841,47.13484401444137,46.257090156304479,45.379336298170095,44.313139912034714,43.121312205256523,41.929484498480925,40.7376567917079,39.545829084937516,38.3540013781697,37.162173671404524,35.970345964641886,34.7785182578819,33.586690551124477,32.220524054305152,30.760480289184386,29.300436524066274,27.840392758950863,26.380348993838066,24.920305228727955,23.460261463620466,22.000217698515694,20.540173933413527,19.080130168314032,17.462018624173176,15.776161078154523,14.090303532138558,12.404445986125381,10.718588440114875,9.0327308941071216,7.3468733481020871,5.6610158020997252,3.9751582561001317,2.2893007101032432,0.46202834111870744,-1.4123840844221305,-3.286796509960205,-5.1612089354955142,-7.0356213610280216,-8.9100337865578219,-10.784446212084772,-12.65885863760896,-14.533271063130455,-16.407683488649095,-18.407957044801467,-20.439697370680296,-22.471437696556233,-24.503178022429232,-26.534918348299321,-28.566658674166444,-30.598399000030675,-32.630139325891953,-34.661879651750354,-36.693619977605877,-38.838441695575625,-41.003220210810461,-43.167998726042363,-45.332777241271479,-47.497555756497661,-49.662334271721093,-51.827112786941548,-53.991891302159225,-56.156669817374016,-58.321448332585945,-60.590031904880206,-62.87015046260192,-65.150269020320565,-67.430387578036076,-69.710506135748588,-71.9906246934579,-74.270743251164134,-76.5508618088672,-78.830980366567317,-81.111098924264184,-83.490960793126121,-85.876073302348317,-88.261185811567529,-90.646298320783274,-93.031410829996119,-95.416523339205767,-97.8016358484122,-100.18674835761539,-102.57186086681556,-104.95697337601243,0.46954734185019659,0.46954734185019659,0.46954734185019659,0.46954734185019659,0.46954734185019659,0.46954734185019659,0.46954734185019659,0.46954734185019659,0.46954734185019659,0.46954734185019659,0.46954734185019659,0.46954734185019659
DP 85,53.044139079635478,0.0058019340917689595,-85.034970998728753,-83.266988638437937,-81.499006278144535,-79.731023917848674,-77.96304155755044,-76.195059197249691,-74.42707683694654,-72.659094476640888,-70.8911121163328,-69.123129756022266,-67.35683546716534,-65.622614855094724,-63.888394243021573,-62.154173630945856,-60.419953018867638,-58.68573240678699,-56.951511794703741,-55.217291182618006,-53.483070570529826,-51.748849958439116,-50.021666854002518,-48.357821983670831,-46.693977113336587,-45.030132242999791,-43.36628737266043,-41.702442502318526,-40.038597631974056,-38.374752761627036,-36.710907891277479,-35.047063020925343,-33.398909777645926,-31.839676743257247,-30.280443708865928,-28.721210674471987,-27.161977640075417,-25.602744605676246,-24.043511571274436,-22.484278536869979,-20.925045502462915,-19.365812468053242,-17.834107497266164,-16.4125160819759,-14.990924666682965,-13.569333251387341,-12.147741836089061,-10.72615042078807,-9.3045590054844052,-7.8829675901780707,-6.4613761748690557,-5.0397847595573628,-3.660450906175464,-2.4078913362882539,-1.1553317663982849,0.097227803494441434,1.3497873733899286,2.602346943288175,3.8549065131891753,5.1074660830929437,6.360025652999445,7.6125852229087254,8.8055870528704272,9.8596184773396764,10.913649901811757,11.967681326286705,13.021712750764486,14.075744175245097,15.129775599728591,16.183807024214893,17.237838448704025,18.291869873196024,19.266845267310174,20.095000184293461,20.923155101279686,21.751310018268853,22.579464935260944,23.407619852255984,24.235774769253965,25.063929686254859,25.892084603258702,26.720239520265451,27.448028864323561,28.025267477281542,28.602506090242567,29.17974470320663,29.756983316173748,30.334221929143869,30.911460542117059,31.488699155093286,32.065937768072544,32.643176381054843,33.097323257310073,33.401022092051178,33.704720926795439,34.008419761542847,34.312118596293367,34.615817431047077,34.919516265803914,35.223215100563934,35.526913935327073,35.830612770093381,36.0074811289619,36.017488150362979,36.027495171767377,36.037502193175008,36.047509214585915,36.057516236000076,36.067523257417562,36.077530278838282,35.916263611802655,35.6148609834786,35.313458355157884,35.0120557268406,34.710653098526677,34.409250470216165,34.107847841909063,33.806445213605365,33.505042585305041,33.203639957008164,32.70619484948827,32.078051667451639,31.449908485418529,30.821765303388911,30.193622121362878,29.565478939340341,28.937335757321357,28.309192575305907,27.681049393294032,27.052906211285649,26.203900992401739,25.235966849633606,24.268032706869178,23.300098564108445,22.332164421351383,21.364230278598015,20.396296135848338,19.428361993102349,18.460427850360023,17.492493707621389,16.2790839546072,14.960466225272318,13.641848495941209,12.323230766614012,11.004613037290627,9.6859953079711136,8.3673775786554359,7.0487598493435693,5.7301421200355858,4.4115243907314392,2.8231827173358353,1.1449296632903185,-0.53332339075123347,-2.2115764447888191,-3.8898294988224058,-5.5680825528520783,-7.246335606877703,-8.9245886608993814,-10.602841714917146,-12.281094768930865,-14.252562538151889,-16.297337450552241,-18.342112362948342,-20.386887275340129,-22.431662187727625,-24.476437100110775,-26.521212012489666,-28.565986924864237,-30.610761837234513,-32.65553674960055,-35.016634543851907,-37.433557540697507,-39.850480537538843,-42.267403534376136,-44.684326531209166,-47.101249528038004,-49.518172524862635,-51.935095521683131,-54.352018518499449,-56.768941515311518,-59.523806647139686,-62.316224454269104,-65.108642261393925,-67.901060068514013,-70.693477875629512,-73.4858956827403,-76.278313489846454,-79.070731296947756,-81.8631491040446,-84.655566911136589,-87.807049235057974,-90.977433263991941,-94.147817292921218,-97.318201321845663,-100.48858535076525,-103.65896937968009,-106.82935340859009,-109.99973743749521,-113.17012146639556,-116.34050549529098,0.66935573721110353,0.66935573721110353,0.66935573721110353,0.66935573721110353,0.66935573721110353,0.66935573721110353,0.66935573721110353,0.66935573721110353,0.66935573721110353,0.66935573721110353,0.66935573721110353,0.66935573721110353
DP 86,287.23950557884973,0.0032591623957445295,-163.08544907272284,-158.47929704141424,-153.87314501010314,-149.26699297878938,-144.66084094747308,-140.05468891615416,-135.44853688483281,-130.84238485350889,-126.2362328221822,-121.63008079085314,-117.03360537350343,-112.6209874511211,-108.20836952873633,-103.79575160634894,-99.383133683959116,-94.970515761566773,-90.557897839171844,-86.145279916774371,-81.732661994374425,-77.32004407197195,-72.945959023635908,-68.9186734841144,-64.891387944590363,-60.864102405063868,-56.836816865534864,-52.809531326003523,-48.782245786469609,-44.754960246933294,-40.727674707394542,-36.700389167853324,-32.753204578366777,-29.259930420056325,-25.766656261743385,-22.273382103427934,-18.780107945110032,-15.2868337867896,-11.793559628466671,-8.300285470141251,-4.807011311813346,-1.3137371534829456,2.0519441945379806,4.907248271174252,7.7625523478129477,10.617856424454112,13.473160501097706,16.328464577743762,19.183768654392246,22.039072731043216,24.894376807696588,27.749680884352422,30.431578887042424,32.5932521115864,34.754925336132786,36.916598560681656,39.078271785232921,41.23994500978668,43.401618234342905,45.563291458901539,47.72496468346263,49.8866379080262,51.837170511126587,53.295033348587687,54.7528961860512,56.210759023517149,57.668621860985589,59.126484698456487,60.584347535929815,62.042210373405624,63.500073210883869,64.957936048364573,66.179256306851642,66.961276816246624,67.7432973256441,68.525317835043964,69.307338344446322,70.089358853851138,70.87137936325837,71.653399872668132,72.435420382080423,73.217440891495016,73.751556440455587,73.913808690647713,74.076060940842325,74.238313191039381,74.400565441238982,74.562817691441,74.725069941645543,74.887322191852519,75.049574442062053,75.211826692273988,75.128274934900631,74.744290894087712,74.360306853277251,73.976322812469263,73.592338771663776,73.208354730860876,72.82437069006042,72.440386649262479,72.056402608466982,71.672418567674015,69.358062297434131,68.50911571853041,67.660169139629247,66.811222560730641,65.962275981834523,65.113329402940977,64.264382824049918,63.415436245161345,62.355420600689087,61.122708457002574,59.889996313318619,58.657284169637265,57.424572025958426,56.191859882282223,54.959147738608522,53.726435594937435,52.493723451268927,51.261011307602949,49.843378329843581,48.302461882859134,46.761545435877224,45.220628988897921,43.67971254192129,42.138796094947189,40.59787964797578,39.056963201006916,37.516046754040751,35.97513030707713,34.277136307480696,32.494559803053392,30.7119832986288,28.929406794206848,27.146830289787509,25.364253785370838,23.581677280956793,21.799100776545451,20.016524272136717,18.233947767730676,16.321382748367835,14.353106171394199,12.384829594423215,10.416553017455055,8.4482764404895487,6.4799998635268183,4.5117232865667951,2.543446709609456,0.57517013265489381,-1.3931064442969607,-3.4668442139446909,-5.5757370436001414,-7.6846298732528329,-9.7935227029027541,-11.902415532549853,-14.011308362194274,-16.1202011918358,-18.229094021474612,-20.337986851110706,-22.446879680743919,-24.640330725014657,-26.854922322011891,-29.06951391900628,-31.284105515997705,-33.498697112986221,-35.713288709971778,-37.927880306954435,-40.142471903934194,-42.357063500910996,-44.571655097884943,-46.854501101398711,-49.149392759181374,-51.444284416961139,-53.73917607473814,-56.034067732512213,-58.328959390283437,-60.623851048051769,-62.918742705817259,-65.213634363579942,-67.508526021339776,-69.8599349278459,-72.217624122219263,-74.575313316589657,-76.933002510956811,-79.290691705321,-81.648380899682081,-84.006070094040012,-86.3637592883948,-88.7214484827466,-91.079137677095318,-93.487126542959643,-95.89776326041553,-98.308399977868334,-100.71903669531774,-103.12967341276428,-105.54031013020763,-107.95094684764786,-110.36158356508473,-112.77222028251867,-115.18285699994922,0.46812455779906731,0.46812455779906731,0.46812455779906731,0.46812455779906731,0.46812455779906731,0.46812455779906731,0.46812455779906731,0.46812455779906731,0.46812455779906731,0.46812455779906731,0.46812455779906731,0.46812455779906731
DP 87,95.437673057783485,0.0041255406451714428,-89.889158218953739,-87.804207391539634,-85.719256564122659,-83.634305736702927,-81.549354909280467,-79.464404081855136,-77.379453254427048,-75.294502426996146,-73.2095515995625,-71.124600772125973,-69.042082267357685,-67.005778353151143,-64.969474438941816,-62.933170524729775,-60.896866610514934,-58.860562696297336,-56.82425878207691,-54.787954867853649,-52.751650953627646,-50.715347039398843,-48.689087658435142,-46.753230026306518,-44.817372394175145,-42.881514762041057,-40.94565712990422,-39.009799497764611,-37.073941865622295,-35.138084233477251,-33.202226601329471,-31.266368969178945,-29.352573196815257,-27.563796020140131,-25.775018843462185,-23.986241666781449,-22.197464490097929,-20.408687313411587,-18.619910136722464,-16.831132960030526,-15.042355783335825,-13.253578606638305,-11.502741772977856,-9.9036681045653054,-8.3045944361499888,-6.7055207677318993,-5.1064470993110378,-3.5073734308873767,-1.9082997624609526,-0.309226094031741,1.2898475744002382,2.888921242834996,4.43122370470129,5.80321040041587,7.17519709613326,8.54718379185345,9.9191704875764639,11.291157183302282,12.6631438790309,14.03513057476235,15.407117270496574,16.779103966233642,18.073485461868369,19.186785100866373,20.300084739867213,21.413384378870894,22.526684017877418,23.639983656886802,24.753283295899006,25.86658293491406,26.979882573931942,28.09318221295268,29.107053409274741,29.936269098261356,30.765484787250831,31.594700476243197,32.423916165238445,33.253131854236571,34.082347543237567,34.911563232241413,35.740778921248207,36.569994610257844,37.277911280441785,37.803876556045033,38.32984183165123,38.85580710726034,39.381772382872377,39.907737658487349,40.433702934105241,40.959668209726075,41.485633485349823,42.011598760976526,42.395171753786215,42.604706743346043,42.814241732908862,43.023776722474658,43.233311712043452,43.442846701615238,43.65238169118998,43.861916680767727,44.071451670348473,44.280986659932182,44.099201826458604,43.984580282368178,43.869958738280815,43.755337194196514,43.64071565011524,43.526094106037036,43.411472561961887,43.296851017889765,43.002305567046669,42.560546554906452,42.118787542769368,41.677028530635404,41.235269518504552,40.793510506376826,40.351751494252241,39.909992482130789,39.468233470012414,39.02647445789723,38.388965898491655,37.62095455713898,36.852943215789537,36.084931874443228,35.316920533100195,34.54890919176033,33.780897850423678,33.012886509090229,32.244875167759993,31.476863826432947,30.499259173015606,29.408793534465293,28.318327895918259,27.22786225737455,26.137396618834128,25.046930980296995,23.956465341763177,22.86599970323266,21.775534064705429,20.6850684261815,19.3729032992792,17.965720363896569,16.558537428517297,15.151354493141477,13.744171557769031,12.3369886224,10.929805687034362,9.5226227516720972,8.115439816313275,6.7082568809578369,5.0685390559531491,3.3513066704667955,1.6340742849839163,-0.08315810049548919,-1.8003904859713842,-3.5176228714438587,-5.23485525691277,-6.9520876423782365,-8.6693200278402625,-10.386552413298753,-12.346292362898579,-14.366662068798222,-16.387031774694222,-18.407401480586479,-20.427771186475074,-22.448140892359913,-24.46851059824106,-26.488880304118496,-28.509250009992229,-30.529619715862314,-32.802638182267181,-35.120244533550611,-37.437850884830389,-39.755457236106693,-42.073063587379224,-44.390669938648244,-46.70827628991357,-49.025882641175308,-51.343488992433414,-53.661095343688004,-56.241612211367688,-58.851344119829669,-61.461076028287778,-64.07080793674173,-66.68053984519193,-69.290271753638,-71.900003662080181,-74.50973557051833,-77.119467478952558,-79.729199387382778,-82.613725174142459,-85.512716530692188,-88.411707887237966,-91.310699243779482,-94.209690600317188,-97.108681956850774,-100.0076733133802,-102.90666466990569,-105.80565602642697,-108.70464738294426,0.59375612423752666,0.59375612423752666,0.59375612423752666,0.59375612423752666,0.59375612423752666,0.59375612423752666,0.59375612423752666,0.59375612423752666,0.59375612423752666,0.59375612423752666,0.59375612423752666,0.59375612423752666
DP 88,216.81822523252782,0.0036675120028764308,-150.841192454107,-146.79808814882421,-142.75498384353841,-138.7118795382498,-134.66877523295815,-130.62567092766372,-126.58256662236624,-122.53946231706604,-118.49635801176268,-114.45325370645648,-110.41731651831857,-106.51755591133691,-102.61779530435226,-98.718034697364715,-94.8182740903742,-90.918513483380849,-87.018752876384539,-83.118992269385387,-79.219231662383308,-75.3194710553783,-71.448598131963237,-67.837717091395277,-64.226836050824488,-60.615955010250879,-57.005073969674555,-53.394192929095325,-49.783311888513239,-46.172430847928361,-42.561549807340683,-38.950668766750169,-35.401011321090586,-32.198291438027262,-28.995571554961103,-25.792851671892034,-22.590131788820106,-19.387411905745328,-16.18469202266764,-12.981972139587086,-9.7792522565036748,-6.5765323734173942,-3.473973920513751,-0.77206592205938041,1.9298420763977919,4.631750074857802,7.3336580733206,10.035566071786246,12.737474070254704,15.439382068725974,18.141290067200067,20.843198065676972,23.404357200433378,25.543264422502713,27.682171644574868,29.821078866649874,31.95998608872771,34.098893310808371,36.237800532891846,38.376707754978163,40.515614977067308,42.654522199159281,44.615097436902978,46.159557687744659,47.704017938589168,49.248478189436547,50.792938440286754,52.337398691139761,53.881858941995631,55.426319192854315,56.970779443715848,58.51523969458016,59.850583155606515,60.797561216636879,61.74453927767,62.691517338705978,63.638495399744848,64.585473460786531,65.532451521831064,66.479429582878467,67.4264076439287,68.3733857049818,69.0897280062434,69.460111217808233,69.830494429375946,70.200877640946487,70.571260852519941,70.941644064096252,71.312027275675391,71.682410487257343,72.052793698842336,72.423176910430072,72.551705842682452,72.384630020097035,72.217554197514474,72.050478374934826,71.883402552358021,71.716326729784214,71.549250907213278,71.38217508464524,71.215099262080074,71.0480234395178,69.331597736554855,68.678441700995364,68.025285665438815,67.372129629885166,66.718973594334471,66.065817558786762,65.412661523241923,64.759505487700054,63.870865221236365,62.789551991598962,61.708238761964552,60.626925532333082,59.545612302704612,58.464299073079168,57.382985843456687,56.301672613837212,55.22035938422075,54.139046154607222,52.836590932190248,51.386704230795608,49.936817529404,48.486930828015431,47.037044126629944,45.587157425247533,44.137270723868106,42.6873840224917,41.237497321118354,39.787610619748044,38.135447763358322,36.374364035893485,34.613280308431754,32.852196580973128,31.091112853517643,29.330029126065241,27.56894539861592,25.807861671169782,24.046777943726692,22.28569421628675,20.343444715471414,18.323549682481634,16.303654649494959,14.28375961651154,12.263864583531266,10.243969550554203,8.2240745175803216,6.2041794846095568,4.1842844516420392,2.1643894186776822,-0.015473166674995481,-2.24866028553437,-4.4818474043905177,-6.71503452324343,-8.9482216420930616,-11.181408760939533,-13.414595879782667,-15.647782998622583,-17.880970117459341,-20.114157236292765,-22.48775896426201,-24.896466003534616,-27.305173042803847,-29.713880082069629,-32.122587121332018,-34.531294160590932,-36.940001199846492,-39.348708239098592,-41.757415278347288,-44.166122317592652,-46.699245167527863,-49.254325132281515,-51.809405097031778,-54.364485061778851,-56.91956502652242,-59.474644991262828,-62.029724955999733,-64.58480492073339,-67.139884885463616,-69.69496485019063,-72.362799100842508,-75.043162789669765,-77.72352647849354,-80.403890167313534,-83.084253856130047,-85.7646175449429,-88.444981233752088,-91.125344922557588,-93.805708611359563,-96.486072300157872,-99.273788550000617,-102.06715600274792,-104.86052345549169,-107.65389090823162,-110.44725836096794,-113.24062581370066,-116.0339932664297,-118.82736071915481,-121.62072817187649,-124.41409562459424,0.548694694868129,0.548694694868129,0.548694694868129,0.548694694868129,0.548694694868129,0.548694694868129,0.548694694868129,0.548694694868129,0.548694694868129,0.548694694868129,0.548694694868129,0.548694694868129
DP 89,69.2485623917926,0.0016329989045980957,-28.40368102985698,-27.782450277638841,-27.161219525419806,-26.539988773199862,-25.91875802097902,-25.297527268757275,-24.676296516534631,-24.055065764311049,-23.43383501208659,-22.812604259861217,-22.192011604877422,-21.583542918128682,-20.975074231379015,-20.366605544628452,-19.75813685787698,-19.149668171124596,-18.541199484371312,-17.932730797617115,-17.324262110861998,-16.715793424106,-16.10997623818103,-15.528022810367069,-14.946069382552222,-14.364115954736478,-13.78216252691983,-13.200209099102253,-12.618255671283798,-12.036302243464414,-11.454348815644147,-10.872395387822966,-10.296321132205115,-9.7535625562167745,-9.2108039802275261,-8.6680454042373274,-8.12528682824622,-7.582528252254181,-7.0397696762612121,-6.4970111002673132,-5.9542525242724977,-5.4114939482767523,-4.8789752553265764,-4.3874165785065919,-3.8958579016856802,-3.4042992248638404,-2.91274054804107,-2.4211818712173638,-1.9296231943927349,-1.4380645175671698,-0.94650584074067745,-0.454947163913255,0.021038793672088649,0.45030600474637128,0.87957321582160064,1.3088404268977785,1.7381076379749056,2.16737484905298,2.5966420601320022,3.0259092712119724,3.4551764822928868,3.8844436933747533,4.2920032169201239,4.6489106146134951,5.0058180123078344,5.3627254100031418,5.7196328076994147,6.0765402053966531,6.4334476030948542,6.7903550007940279,7.1472623984941634,7.5041697961952689,7.8326250892725344,8.108239991094651,8.383854892917757,8.6594697947418453,8.9350846965669231,9.2106995983929885,9.48631450022004,9.7619294020480734,10.037544303877089,10.313159205707107,10.553158754424119,10.739734431867177,10.926310109311235,11.112885786756319,11.299461464202411,11.486037141649506,11.67261281909761,11.859188496546736,12.045764173996872,12.232339851448016,12.375896785875742,12.466874353009128,12.557851920143522,12.648829487278967,12.739807054415458,12.830784621552974,12.921762188691536,13.012739755831126,13.103717322971773,13.194694890113444,13.21512115465632,13.205095956110082,13.195070757564926,13.185045559020839,13.175020360477809,13.16499516193584,13.154969963394953,13.144944764855138,13.076989264390688,12.96163524859613,12.846281232802671,12.730927217010306,12.615573201219027,12.500219185428884,12.384865169639836,12.269511153851878,12.15415713806502,12.038803122279274,11.858242753513956,11.634210455529653,11.410178157546479,11.186145859564443,10.962113561583546,10.738081263603783,10.514048965625168,10.290016667647683,10.065984369671336,9.8419520716961149,9.5456542381204148,9.2104431422001856,8.8752320462811429,8.5400209503632674,8.2048098544465748,7.8695987585310414,7.5343876626166866,7.1991765667035192,6.8639654707915048,6.5287543748806751,6.1144691146266963,5.6662935921161344,5.2181180696067706,4.7699425470986547,4.3217670245917343,3.8735915020860476,3.4254159795815791,2.97724045707832,2.5290649345762897,2.0808894120754773,1.5470674803554363,0.9846956661748385,0.42232385199549111,-0.14004796218260546,-0.70241977635943931,-1.2647915905350389,-1.8271634047093601,-2.3895352188824379,-2.9519070330542787,-3.5142788472248467,-4.1685975364065921,-4.8459040307077776,-5.5232105250076371,-6.20051701930615,-6.8778235136033272,-7.5551300078991437,-8.23243650219364,-8.90974299648678,-9.5870494907785879,-10.264355985069066,-11.039831588837112,-11.832632244755725,-12.625432900672994,-13.418233556588993,-14.211034212503662,-15.003834868417025,-15.796635524329055,-16.5894361802398,-17.382236836149225,-18.175037492057342,-19.071919215540973,-19.9803665951849,-20.888813974827407,-21.797261354468432,-22.705708734108054,-23.614156113746176,-24.522603493382874,-25.431050873018076,-26.339498252651889,-27.247945632284225,-28.2664543441823,-29.29075685284463,-30.315059361505529,-31.339361870164911,-32.363664378822826,-33.387966887479251,-34.412269396134214,-35.436571904787613,-36.4608744134396,-37.485176922090012,0.21312545418396464,0.21312545418396464,0.21312545418396464,0.21312545418396464,0.21312545418396464,0.21312545418396464,0.21312545418396464,0.21312545418396464,0.21312545418396464,0.21312545418396464,0.21312545418396464,0.21312545418396464
DP 90,52.079236593375853,0.0053952325871893317,-78.16554597511491,-76.546300735135517,-74.9270554951538,-73.307810255169912,-71.688565015183741,-70.0693197751953,-68.450074535204593,-66.830829295211686,-65.211584055216477,-63.592338815219073,-61.974633940257661,-60.3861962922195,-58.797758644178977,-57.209320996136235,-55.6208833480912,-54.032445700043866,-52.444008051994281,-50.85557040394243,-49.267132755888262,-47.678695107831786,-46.096679411361578,-44.57246188620023,-43.048244361036481,-41.524026835870437,-39.999809310702048,-38.475591785531329,-36.951374260358229,-35.427156735182876,-33.902939210005172,-32.378721684825067,-30.868827914043496,-29.440102987468485,-28.011378060891047,-26.582653134311233,-25.15392820772902,-23.72520328114442,-22.296478354557394,-20.867753427967994,-19.439028501376203,-18.010303574782004,-16.606716466745421,-15.303681820980021,-14.00064717521219,-12.697612529441887,-11.394577883669163,-10.091543237893966,-8.7885085921163277,-7.4854739463362376,-6.1824393005537024,-4.879404654768722,-3.6149765895571262,-2.466369725731961,-1.3177628619042758,-0.16915599807406709,0.9794508657586678,2.128057729593928,3.2766645934317085,4.4252714572720118,5.5738783211148277,6.72248518496018,7.8166483593368365,8.783774114082938,9.7508998688316471,10.718025623582955,11.685151378336876,12.652277133093394,13.619402887852509,14.586528642614249,15.553654397378585,16.52078015214552,17.415591661878079,18.176103335044562,18.936615008213735,19.697126681385626,20.4576383545602,21.218150027737433,21.978661700917407,22.739173374100044,23.499685047285375,24.260196720473395,24.928835059582095,25.459661226569686,25.990487393560056,26.5213135605532,27.052139727549147,27.582965894547868,28.113792061549361,28.644618228553682,29.175444395560753,29.706270562570612,30.1243347232427,30.404576285405618,30.68481784757137,30.965059409740029,31.245300971911604,31.525542534086032,31.805784096263412,32.086025658443624,32.366267220626781,32.646508782812774,32.814070077350308,32.825045773709753,32.836021470072211,32.846997166437646,32.857972862806079,32.868948559177511,32.879924255551948,32.89089995192942,32.7447205279609,32.469956941068254,32.195193354178713,31.920429767292291,31.645666180409027,31.370902593528879,31.096139006651807,30.821375419777905,30.546611832907125,30.271848246039479,29.817054863178342,29.24223878021035,28.667422697245581,28.092606614284033,27.517790531325794,26.942974448370773,26.368158365419017,25.793342282470508,25.218526199525286,24.643710116583275,23.865908817049519,22.978804833744626,22.091700850443111,21.204596867144971,20.317492883850221,19.430388900558864,18.543284917270842,17.656180933986228,16.769076950704978,15.881972967427128,14.769094746054401,13.559452326117931,12.349809906184921,11.140167486255528,9.9305250663296416,8.7208826464073113,7.511240226488523,6.30159780657324,5.0919553866615406,3.8823129667533678,2.4244304358875666,0.88379807284031486,-0.65683429020328565,-2.1974666532432305,-3.7380990162794876,-5.2787313793121431,-6.8193637423410642,-8.35999610536635,-9.9006284683880335,-11.441260831405986,-13.25191213872256,-15.130071372429651,-17.008230606132816,-18.886389839831992,-20.76454907352721,-22.642708307218445,-24.520867540905737,-26.399026774589043,-28.277186008268391,-30.155345241943852,-32.324944893909489,-34.545978448785426,-36.767012003657477,-38.988045558525762,-41.209079113390082,-43.430112668250636,-45.651146223107233,-47.872179777960049,-50.093213332808986,-52.314246887654058,-54.846744696656629,-57.4138529161183,-59.98096113557574,-62.548069355028815,-65.115177574477656,-67.682285793922091,-70.249394013362235,-72.816502232798,-75.3836104522296,-77.950718671656773,-80.84883505632132,-83.7643762167653,-86.679917377204944,-89.59545853764017,-92.510999698070876,-95.426540858497319,-98.342082018919328,-101.25762317933675,-104.17316433974989,-107.08870550015847,0.61625114204823417,0.61625114204823417,0.61625114204823417,0.61625114204823417,0.61625114204823417,0.61625114204823417,0.61625114204823417,0.61625114204823417,0.61625114204823417,0.61625114204823417,0.61625114204823417,0.61625114204823417
DP 91,229.93178629982961,0.0019271352052086105,-82.7214998396551,-80.4806491654298,-78.239798491202862,-75.998947816974422,-73.758097142744447,-71.51724646851288,-69.276395794279878,-67.035545120045228,-64.794694445809085,-62.553843771571444,-60.317103091110027,-58.158453069396877,-55.999803047682185,-53.841153025966044,-51.682503004248304,-49.523852982529142,-47.365202960808361,-45.206552939086073,-43.047902917362286,-40.889252895636915,-38.747130561784815,-36.753758981029677,-34.760387400273032,-32.767015819514945,-30.773644238755367,-28.780272657994328,-26.786901077231796,-24.793529496467791,-22.800157915702307,-20.806786334935335,-18.848317188864318,-17.087630705436773,-15.326944222007732,-13.566257738577164,-11.805571255145107,-10.044884771711549,-8.2841982882764746,-6.5235118048398908,-4.7628253214018077,-3.0021388379622218,-1.298266281820027,0.1783478800559983,1.6549620419334923,3.1315762038124713,4.6081903656929173,6.0848045275748532,7.5614186894582556,9.0380328513431447,10.514647013229505,11.991261175117335,13.388538970992766,14.54780466922973,15.707070367468194,16.866336065708122,18.025601763949538,19.184867462192443,20.344133160436829,21.503398858682683,22.662664556930011,23.821930255178842,24.881425904759055,25.7081208447712,26.534815784784815,27.361510724799917,28.188205664816518,29.014900604834573,29.841595544854147,30.66829048487519,31.494985424897713,32.32168036492174,33.0323890717074,33.5276916415659,34.0229942114259,34.5182967812874,35.01359935115034,35.508901921014804,36.004204490880795,36.499507060748186,36.994809630617119,37.490112200487552,37.85872774709415,38.037309765142915,38.215891783193214,38.394473801245,38.573055819298283,38.751637837353059,38.930219855409362,39.108801873467158,39.287383891526439,39.465965909587233,39.513113806680458,39.3996172396248,39.286120672570654,39.172624105518032,39.059127538466925,38.945630971417359,38.832134404369249,38.718637837322731,38.605141270277691,38.491644703234172,37.498404925229224,37.123807833851075,36.749210742474446,36.374613651099324,36.000016559725807,35.625419468353805,35.250822376983315,34.876225285614382,34.376718167568249,33.775009790118133,33.173301412669552,32.571593035222548,31.969884657777033,31.368176280333124,30.766467902890785,30.164759525450012,29.563051148010786,28.961342770573136,28.243906657996831,27.449316898869974,26.654727139744789,25.860137380621168,25.065547621499121,24.270957862378665,23.476368103259844,22.681778344142561,21.887188585026887,21.092598825912777,20.193679372241913,19.238580873596437,18.283482374952587,17.328383876310387,16.373285377669763,15.418186879030813,14.463088380393449,13.507989881757743,12.552891383123638,11.59779288449117,10.550698548972674,9.4641758734329038,8.3776531978947535,7.2911305223583076,6.2046078468234969,5.1180851712903683,4.0315624957589016,2.9450398202290646,1.8585171447009226,0.77199446917443248,-0.39441263858834624,-1.587448897199784,-2.7804851558095387,-3.9735214144176005,-5.1665576730239522,-6.3595939316286518,-7.5526301902316044,-8.7456664488328766,-9.93870270743251,-11.13173896603038,-12.393661360439527,-13.672806102701305,-14.951950844961315,-16.231095587219531,-17.510240329475977,-18.789385071730607,-20.068529813983478,-21.347674556234558,-22.626819298483859,-23.905964040731398,-25.245057991463433,-26.594731880924062,-27.944405770382861,-29.294079659840005,-30.643753549295333,-31.993427438748959,-33.343101328200788,-34.692775217650919,-36.04244910709928,-37.392122996545957,-38.795219599291386,-40.204252620133268,-41.613285640973309,-43.022318661811411,-44.431351682647744,-45.840384703482059,-47.249417724314526,-48.658450745145117,-50.06748376597379,-51.476516786800609,-52.935795531407358,-54.397719287715624,-55.859643044022036,-57.321566800326487,-58.783490556628976,-60.245414312929626,-61.707338069228314,-63.169261825524991,-64.631185581819878,-66.093109338112725,0.28639991452073293,0.28639991452073293,0.28639991452073293,0.28639991452073293,0.28639991452073293,0.28639991452073293,0.28639991452073293,0.28639991452073293,0.28639991452073293,0.28639991452073293,0.28639991452073293,0.28639991452073293
DP 92,191.71685409165025,0.0019584211683467377,-73.457368836286136,-71.530886395449272,-69.604403954610888,-67.6779215137708,-65.7514390729292,-63.824956632086156,-61.898474191241448,-59.971991750395162,-58.045509309547327,-56.119026868697844,-54.19573093989446,-52.33297934238589,-50.470227744875764,-48.607476147364089,-46.744724549850886,-44.881972952336149,-43.0192213548198,-41.156469757301942,-39.293718159782493,-37.430966562261517,-35.581116348858266,-33.847379811987992,-32.1136432751162,-30.379906738242944,-28.646170201368161,-26.912433664491882,-25.178697127614083,-23.4449605907348,-21.711224053854004,-19.977487516971689,-18.271285296913497,-16.721112607260288,-15.170939917605574,-13.620767227949285,-12.070594538291484,-10.520421848632139,-8.97024915897126,-7.4200764693088574,-5.8699037796449156,-4.3197310899794417,-2.8150415028116127,-1.4922864752071199,-0.16953144760112848,1.1532235800063773,2.4759786076153785,3.7987336352258985,5.1214886628379208,6.4442436904514544,7.7669987180664934,9.08975374568303,10.347815687898084,11.411795927949568,12.475776168002572,13.539756408057086,14.603736648113113,15.667716888170656,16.731697128229726,17.79567736829026,18.859657608352343,19.92363784841594,20.904448920425359,21.691195324776203,22.477941729128577,23.264688133482455,24.051434537837874,24.838180942194786,25.624927346553214,26.411673750913195,27.198420155274661,27.985166559637669,28.672735860978388,29.176116435457246,29.679497009937624,30.182877584419526,30.686258158902952,31.189638733387905,31.693019307874373,32.196399882362378,32.699780456851904,33.203161031342972,33.595067851442828,33.819761405788967,34.044454960136704,34.269148514485948,34.493842068836749,34.718535623189041,34.943229177542925,35.167922731898322,35.392616286255276,35.617309840613757,35.722632620761587,35.682055280629022,35.641477940498042,35.600900600368604,35.560323260240736,35.519745920114445,35.479168579989668,35.438591239866483,35.398013899744839,35.35743655962473,34.622010274506593,34.3359547644312,34.0498992543574,33.76384374428514,33.4777882342145,33.191732724145432,32.90567721407794,32.619621704012005,32.211647653046043,31.703919973359017,31.196192293673622,30.6884646139898,30.180736934307625,29.673009254627019,29.165281574948036,28.657553895270663,28.149826215594892,27.642098535920724,27.016758388212345,26.313008075665213,25.609257763119711,24.905507450575847,24.201757138033631,23.498006825493032,22.794256512954103,22.090506200416772,21.386755887881083,20.683005575347018,19.868513734740596,18.994390230181036,18.120266725623193,17.246143221067012,16.372019716512515,15.497896211959661,14.6237727074085,13.74964920285902,12.875525698311197,12.001402193765063,11.024951961352604,10.004645689839645,8.9843394183283678,7.9640331468188448,6.9437268753110022,5.9234206038048978,4.9031143323005049,3.8828080607977951,2.8625017892968319,1.8421955177975675,0.72847040705110122,-0.4163954941196486,-1.5612613952886585,-2.7061272964559273,-3.8509931976214271,-4.9958590987852238,-6.1407249999472162,-7.2855909011074909,-8.43045680226605,-9.5753227034228132,-10.805116369677789,-12.056142980641601,-13.307169591603605,-14.558196202563769,-15.809222813522082,-17.060249424478521,-18.311276035433163,-19.562302646385906,-20.813329257336846,-22.064355868285979,-23.39331063623824,-24.736018298468558,-26.078725960697028,-27.421433622923743,-28.764141285148639,-30.106848947371759,-31.449556609593042,-32.792264271812556,-34.13497193403024,-35.477679596246148,-36.893300865501551,-38.317024412413978,-39.740747959324445,-41.164471506232992,-42.588195053139572,-44.011918600044154,-45.435642146946883,-46.859365693847543,-48.283089240746314,-49.706812787643116,-51.201547399368636,-52.700020142089464,-54.198492884808317,-55.696965627525223,-57.195438370240062,-58.693911112952961,-60.192383855663827,-61.69085659837264,-63.189329341079542,-64.687802083784348,0.29608943006538146,0.29608943006538146,0.29608943006538146,0.29608943006538146,0.29608943006538146,0.29608943006538146,0.29608943006538146,0.29608943006538146,0.29608943006538146,0.29608943006538146,0.29608943006538146,0.29608943006538146
DP 93,69.75811763631755,0.0035544781593689033,-62.126845194408951,-60.766193963191249,-59.405542731971607,-58.044891500749976,-56.684240269526377,-55.323589038300788,-53.962937807073246,-52.602286575843742,-51.241635344612256,-49.88098411337878,-48.5217338208655,-47.189101628910592,-45.856469436953709,-44.523837244994837,-43.191205053034,-41.858572861071167,-40.525940669106362,-39.193308477139524,-37.860676285170776,-36.528044093199973,-35.201233315763076,-33.926815819396857,-32.652398323028741,-31.377980826658607,-30.103563330286558,-28.829145833912456,-27.554728337536396,-26.280310841158339,-25.005893344778336,-23.731475848396354,-22.469963214450004,-21.281578947508354,-20.093194680564647,-18.904810413618929,-17.716426146671182,-16.5280418797214,-15.339657612769612,-14.15127334581577,-12.962889078859922,-11.774504811902039,-10.608591229820682,-9.5325614492341462,-8.45653166864559,-7.3805018880549813,-6.3044721074623569,-5.2284423268676878,-4.1524125462709822,-3.0763827656722418,-2.0003529850714723,-0.92432320446866756,0.11754201497208271,1.0569122592078166,1.9962825034456175,2.9356527476854906,3.8750229919274406,4.8143932361714592,5.7537634804175575,6.6931337246657181,7.6325039689159571,8.5718742131682664,9.4636412373562386,10.244332206593334,11.025023175832541,11.805714145073869,12.58640511431731,13.36709608356286,14.14778705281052,14.928478022060286,15.709168991312165,16.489859960566175,17.208183493926136,17.8106801048917,18.413176715859429,19.015673326829315,19.618169937801348,20.220666548775554,20.823163159751907,21.42565977073043,22.0281563817111,22.630652992693935,23.15511674047972,23.562529349523452,23.969941958569397,24.377354567617559,24.784767176667923,25.192179785720494,25.599592394775286,26.007005003832287,26.41441761289148,26.821830221952911,27.135041722329913,27.33311655564162,27.531191388955552,27.729266222271796,27.927341055590265,28.12541588891105,28.323490722234073,28.521565555559373,28.719640388886962,28.917715222216781,28.959313795036948,28.936337839625921,28.913361884217213,28.89038592881084,28.867409973406808,28.844434018005092,28.821458062605736,28.798482107208674,28.648798728184136,28.39544346136141,28.14208819454112,27.888732927723197,27.635377660907686,27.382022394094587,27.12866712728389,26.875311860475612,26.6219565936697,26.368601326866209,25.972709390764226,25.481790763002355,24.990872135243023,24.499953507486108,24.009034879731697,23.51811625197977,23.027197624230336,22.536278996483347,22.04536036873888,21.554441740996857,20.905648236037891,20.1718428860313,19.438037536027245,18.704232186025731,17.970426836026789,17.236621486030369,16.5028161360365,15.769010786045209,15.03520543605643,14.301400086070213,13.394945908382558,12.414496461851794,11.434047015323637,10.453597568798189,9.4731481222753775,8.4926986757552427,7.5122492292377636,6.5317997827229206,5.551350336210767,4.5709008897012611,3.4035546528550817,2.1739071304674313,0.94425960808251075,-0.28538791429967508,-1.5150354366791041,-2.7446829590558406,-3.9743304814297931,-5.2039780038010237,-6.4336255261695534,-7.6632730485353013,-9.0934739424134,-10.573815548738892,-12.054157155061501,-13.534498761381165,-15.014840367697929,-16.495181974011722,-17.975523580322609,-19.455865186630554,-20.936206792935582,-22.416548399237733,-24.11092972551279,-25.843085147229477,-27.575240568943233,-29.307395990654239,-31.039551412362275,-32.771706834067523,-34.503862255769882,-36.236017677469349,-37.968173099166016,-39.700328520859777,-41.659348134109543,-43.643577262362783,-45.627806390612932,-47.6120355188598,-49.596264647103652,-51.580493775344252,-53.564722903581718,-55.548952031815951,-57.533181160047135,-59.517410288275009,-61.741493607105156,-63.97820321715681,-66.2149128272053,-68.451622437250464,-70.688332047292377,-72.925041657331136,-75.161751267366668,-77.398460877398819,-79.635170487427771,-81.8718800974535,0.46521819871012765,0.46521819871012765,0.46521819871012765,0.46521819871012765,0.46521819871012765,0.46521819871012765,0.46521819871012765,0.46521819871012765,0.46521819871012765,0.46521819871012765,0.46521819871012765,0.46521819871012765
DP 94,117.80124584181709,0.0017120250806118768,-43.81237336768465,-42.757048421518469,-41.701723475351109,-40.646398529182427,-39.591073583012474,-38.535748636841291,-37.48042369066885,-36.425098744495145,-35.369773798320196,-34.314448852143968,-33.260482018605344,-32.23231958194777,-31.204157145288928,-30.175994708628835,-29.147832271967523,-28.119669835304926,-27.09150739864106,-26.063344961975975,-25.035182525309619,-24.007020088642008,-22.98443709117273,-22.01206957387684,-21.039702056579717,-20.067334539281379,-19.094967021981812,-18.122599504681016,-17.150231987378987,-16.177864470075747,-15.205496952771282,-14.233129435465585,-13.272927625285,-12.381665588768268,-11.490403552250298,-10.599141515731063,-9.7078794792105878,-8.8166174426888624,-7.925355406165874,-7.0340933696416448,-6.1428313331161659,-5.2515692965894383,-4.3810160266651028,-3.5932988018671619,-2.8055815770679864,-2.0178643522675754,-1.230147127465933,-0.44242990266304738,0.34528732214107016,1.1330045469464267,1.9207217717530134,2.7084389965608389,3.465566375096365,4.1309230582527636,4.7962797414104061,5.4616364245692894,6.1269931077294348,6.7923497908908095,7.4577064740534365,8.12306315721731,8.7884198403824154,9.4537765235487825,10.077968470048225,10.606107743095004,11.134247016143037,11.662386289192325,12.190525562242863,12.718664835294689,13.246804108347746,13.774943381402059,14.303082654457615,14.831221927514449,15.307583070159613,15.687783429425979,16.067983788693631,16.448184147962571,16.828384507232752,17.208584866504221,17.588785225776967,17.968985585050948,18.34918594432623,18.729386303602752,19.047740062435278,19.27332245914306,19.498904855852135,19.7244872525625,19.950069649274138,20.175652045987075,20.401234442701305,20.626816839416794,20.852399236133586,21.077981632851657,21.232662342430427,21.300683945120472,21.368705547811793,21.436727150504428,21.504748753198381,21.572770355893628,21.64079195859021,21.708813561288064,21.77683516398724,21.844856766687727,21.655839406205374,21.566627844239164,21.477416282274262,21.3882047203107,21.298993158348466,21.209781596387543,21.120570034427988,21.031358472469751,20.857321707151147,20.613881044937823,20.370440382725846,20.126999720515233,19.883559058305959,19.640118396098067,19.396677733891533,19.153237071686362,18.909796409482539,18.666355747280072,18.333391166186555,17.940742562177928,17.5480939581707,17.155445354164868,16.762796750160419,16.370148146157348,15.977499542155689,15.584850938155405,15.192202334156519,14.799553730159033,14.314049666794372,13.778545159643453,13.243040652493963,12.707536145345891,12.17203163819925,11.63652713105404,11.101022623910241,10.565518116767901,10.030013609626955,9.4945091024874522,8.863918186373402,8.192574347177878,7.5212305079837787,6.8498866687911981,6.1785428296000608,5.5071989904103944,4.8358551512222014,4.1645113120354553,3.493167472850196,2.8218236336663973,2.0538804964423973,1.2537363757801272,0.45359225511935181,-0.34655186553992662,-1.1466959861976922,-1.9468401068539842,-2.7469842275087437,-3.5471283481620133,-4.3472724688138085,-5.147416589464072,-6.045326475121322,-6.967678957147923,-7.8900314391729616,-8.8123839211963926,-9.73473640321824,-10.657088885238482,-11.579441367257139,-12.501793849274218,-13.424146331289689,-14.346498813303597,-15.36806908291261,-16.407149477177715,-17.44622987144124,-18.485310265703266,-19.524390659963682,-20.563471054222585,-21.6025514484799,-22.641631842735691,-23.680712236989894,-24.719792631242608,-25.860006650211041,-27.011458800733415,-28.162910951254091,-29.314363101773051,-30.465815252290373,-31.617267402805926,-32.768719553319833,-33.920171703832011,-35.071623854342491,-36.223076004851279,-37.478851365599844,-38.740118459598065,-40.001385553594559,-41.26265264758927,-42.523919741582219,-43.785186835573555,-45.046453929563093,-46.307721023550847,-47.568988117536925,-48.830255211521177,0.25560213388923542,0.25560213388923542,0.25560213388923542,0.25560213388923542,0.25560213388923542,0.25560213388923542,0.25560213388923542,0.25560213388923542,0.25560213388923542,0.25560213388923542,0.25560213388923542,0.25560213388923542
DP 95,121.83351785396826,0.0019793685115327467,-52.008051830702492,-50.747823720145362,-49.487595609586776,-48.227367499026656,-46.967139388465093,-45.706911277902051,-44.446683167337589,-43.186455056771621,-41.926226946204139,-40.6659988356352,-39.4074194658324,-38.180166482298382,-36.952913498762896,-35.725660515225918,-34.498407531687484,-33.271154548147607,-32.043901564606259,-30.816648581063426,-29.589395597519122,-28.362142613973358,-27.141655881750477,-25.982066051002718,-24.822476220253527,-23.662886389502926,-22.503296558750897,-21.343706727997411,-20.184116897242518,-19.024527066486193,-17.864937235728444,-16.705347404969274,-15.560493431971912,-14.499143581537584,-13.437793731101813,-12.376443880664562,-11.31509403022587,-10.253744179785702,-9.19239432934409,-8.131044478901,-7.069694628456463,-6.0083447780104757,-4.9720337368525209,-4.0358791162054715,-3.0997244955569863,-2.163569874907056,-1.2274152542556913,-0.29126063360287752,0.64489398705137257,1.581048607707068,2.517203228364199,3.4533578490227708,4.3526079418838339,5.1411430560403426,5.9296781701982981,6.7182132843577076,7.50674839851857,8.2952835126808875,9.08381862684466,9.8723537410098778,10.66088885517655,11.44942396934467,12.188430390935737,12.811867912544789,13.435305434155296,14.058742955767277,14.682180477380701,15.305617998995613,15.929055520611985,16.552493042229802,17.175930563849089,17.799368085469844,18.360705322574578,18.80671178277364,19.25271824297419,19.698724703176193,20.144731163379713,20.590737623584683,21.036744083791138,21.482750543999074,21.928757004208475,22.37476346441936,22.746862410534785,23.00809833904437,23.269334267555482,23.530570196068055,23.791806124582148,24.053042053097723,24.314277981614797,24.575513910133374,24.836749838653436,25.097985767174997,25.274840422592032,25.348560638471511,25.422280854352561,25.496001070235121,25.569721286119186,25.643441502004784,25.7171617178919,25.790881933780511,25.864602149670667,25.938322365562328,25.693795098195956,25.581239795936188,25.468684493678026,25.35612919142137,25.243573889166282,25.131018586912752,25.018463284660729,24.905907982410305,24.693358157458295,24.398992913636807,24.104627669816853,23.810262425998545,23.515897182181774,23.221531938366596,22.927166694552987,22.632801450740978,22.338436206930524,22.044070963121676,21.644738891369578,21.175427280720061,20.706115670072165,20.236804059425847,19.76749244878118,19.2981808381381,18.828869227496671,18.359557616856836,17.890246006218636,17.420934395582012,16.843368803519883,16.207511031872386,15.571653260226594,14.935795488582441,14.299937716939954,13.664079945299111,13.028222173659941,12.392364402022451,11.756506630386593,11.120648858752416,10.37458996710426,9.581300163953161,8.7880103608037352,7.9947205576560485,7.2014307545100333,6.4081409513657537,5.6148511482231651,4.8215613450822641,4.028271541943087,3.2349817388056072,2.3304005175975746,1.3887207544454903,0.44704099129514119,-0.49463877185346966,-1.436318535000324,-2.3779982981454677,-3.319678061288831,-4.2613578244304664,-5.20303758757039,-6.1447173507085333,-7.1983919961663378,-8.2800666854408629,-9.3617413747135672,-10.44341606398441,-11.525090753253419,-12.606765442520558,-13.688440131785859,-14.770114821049335,-15.851789510310947,-16.933464199570725,-18.128220827441414,-19.342934349024652,-20.557647870606047,-21.772361392185669,-22.987074913763465,-24.201788435339473,-25.41650195691367,-26.631215478486048,-27.845929000056636,-29.060642521625461,-30.390151211237093,-31.732416125139512,-33.074681039039987,-34.416945952938462,-35.759210866835012,-37.101475780729544,-38.443740694622136,-39.786005608512731,-41.128270522401372,-42.470535436288031,-43.93090397349728,-45.397489665964663,-46.864075358430156,-48.330661050893511,-49.7972467433549,-51.263832435814336,-52.7304181282717,-54.19700382072697,-55.663589513180312,-57.130175205631637,0.29669555380042606,0.29669555380042606,0.29669555380042606,0.29669555380042606,0.29669555380042606,0.29669555380042606,0.29669555380042606,0.29669555380042606,0.29669555380042606,0.29669555380042606,0.29669555380042606,0.29669555380042606
DP 96,98.460095972575644,0.0042024127164244423,-93.718908066996391,-91.532828118711308,-89.346748170423268,-87.160668222132344,-84.974588273838478,-82.788508325541741,-80.6024283772422,-78.416348428939727,-76.230268480634351,-74.044188532326046,-71.86069512580697,-69.726346502305589,-67.591997878801365,-65.457649255294228,-63.32330063178425,-61.18895200827135,-59.054603384755623,-56.92025476123694,-54.785906137715486,-52.651557514191069,-50.527881039614293,-48.500254914339209,-46.472628789061311,-44.445002663780556,-42.417376538497017,-40.389750413210614,-38.362124287921404,-36.3344981626294,-34.306872037334557,-32.279245912036856,-30.27503720236178,-28.403528656864633,-26.532020111364574,-24.660511565861615,-22.789003020355832,-20.917494474847093,-19.04598592933549,-17.174477383820992,-15.302968838303626,-13.431460292783358,-11.600165325725628,-9.9297265730528146,-8.25928782037714,-6.5888490676986056,-4.9184103150172067,-3.2479715623329395,-1.5775328096458117,0.092905943044187589,1.7633446957370393,3.4337834484327572,5.0441582300982031,6.4743388277314411,7.9045194253675755,9.3347000230066062,10.764880620648533,12.195061218293368,13.625241815941079,15.055422413591693,16.485603011245196,17.915783608901609,19.264036669642312,20.421122250950916,21.578207832262422,22.73529341357688,23.892378994894244,25.049464576214547,26.206550157537766,27.363635738863909,28.520721320193015,29.677806901525,30.730197105940054,31.588150211517458,32.446103317097872,33.304056422681192,34.1620095282675,35.01996263385675,35.877915739448973,36.735868845044166,37.593821950642315,38.451775056243449,39.182378993430063,39.721956168685416,40.261533343943796,40.8011105192052,41.340687694469651,41.880264869737083,42.419842045007506,42.959419220280971,43.498996395557427,44.03857357083691,44.429145791608455,44.6375977159435,44.846049640281556,45.054501564622747,45.262953488966964,45.47140541331428,45.679857337664679,45.888309262018062,46.096761186374607,46.305213110734172,46.085609466963,45.956076985658136,45.826544504356448,45.697012023057859,45.567479541762388,45.437947060470051,45.308414579180891,45.178882097894821,44.862480959904744,44.393184073139871,43.923887186378195,43.454590299619788,42.985293412864543,42.515996526112531,42.0466996393637,41.577402752618113,41.108105865875721,40.638808979136549,39.967042413242105,39.160292871624542,38.35354333001024,37.546793788399263,36.740044246791548,35.933294705187173,35.126545163586044,34.319795621988206,33.513046080393686,32.706296538802412,31.683682414396774,30.54483037558073,29.405978336768083,28.267126297958814,27.128274259152928,25.989422220350438,24.850570181551312,23.71171814275559,22.572866103963232,21.434014065174285,20.067805410652312,18.60415436901209,17.140503327375274,15.676852285742017,14.213201244112216,12.749550202485933,11.285899160863131,9.82224811924378,8.358597077627957,6.8949460360156083,5.1938167967333158,3.4135251653294496,1.6332335339291424,-0.14705809746759882,-1.9273497288607413,-3.7076413602503737,-5.4879329916363613,-7.2682246230188019,-9.0485162543977289,-10.828807885773022,-12.855810639533386,-14.944494088820214,-17.033177538103288,-19.121860987382544,-21.210544436658026,-23.299227885929671,-25.387911335197504,-27.476594784461557,-29.565278233721816,-31.653961682978323,-33.99882597956033,-36.3889015097319,-38.778977039899694,-41.169052570063904,-43.559128100224292,-45.949203630381021,-48.339279160534012,-50.729354690683294,-53.119430220828896,-55.5095057509708,-58.165478895273736,-60.85099901147882,-63.536519127679966,-66.222039243876921,-68.907559360069911,-71.593079476258751,-74.278599592443626,-76.964119708624253,-79.649639824801,-82.3351599409736,-85.2981484065395,-88.275743230140364,-91.253338053737053,-94.2309328773296,-97.208527700918,-100.18612252450232,-103.16371734808249,-106.14131217165826,-109.11890699523009,-112.09650181879772,0.60891501280483828,0.60891501280483828,0.60891501280483828,0.60891501280483828,0.60891501280483828,0.60891501280483828,0.60891501280483828,0.60891501280483828,0.60891501280483828,0.60891501280483828,0.60891501280483828,0.60891501280483828
DP 97,195.81241314296813,0.0031048468269454358,-118.34342139783466,-115.22821474192611,-112.11300808601497,-108.99780143010138,-105.88259477418538,-102.76738811826687,-99.65218146234578,-96.536974806422279,-93.42176815049632,-90.306561494567916,-87.196568439568992,-84.1856347878795,-81.174701136187466,-78.163767484493,-75.152833832796176,-72.141900181096872,-69.130966529395053,-66.12003287769079,-63.109099225984075,-60.0981655742748,-57.108323537249589,-54.308308026016434,-51.508292514780791,-48.70827700354284,-45.908261492302472,-43.108245981059717,-40.308230469814561,-37.508214958566988,-34.708199447317078,-31.908183936064773,-29.153131751669587,-26.652874586150872,-24.152617420629728,-21.652360255106146,-19.152103089580134,-16.651845924051695,-14.151588758520806,-11.651331592987482,-9.1510744274517446,-6.650817261913577,-4.2247154621044425,-2.0952386298612433,0.034238202384333144,2.1637150346323111,4.29319186688266,6.4226686991354178,8.552145531390563,10.681622363648094,12.811099195908016,14.940576028170323,16.964785769128977,18.673190256168827,20.381594743211071,22.089999230255732,23.798403717302762,25.506808204352186,27.215212691404044,28.92361717845829,30.632021665514916,32.34042615257394,33.913825196940039,35.172206224638678,36.430587252339656,37.688968280043134,38.947349307748929,40.20573033545719,41.464111363167845,42.722492390880873,43.980873418596339,45.239254446314177,46.337088565778934,47.136759805590749,47.936431045404966,48.736102285221619,49.535773525040696,50.335444764862132,51.135116004686012,51.934787244512385,52.734458484341062,53.534129724172175,54.153911699268384,54.50385552641108,54.853799353556205,55.2037431807038,55.553687007853831,55.903630835006247,56.253574662161178,56.603518489318446,56.953462316478223,57.303406143640444,57.46138366009496,57.384731653475377,57.308079646858253,57.231427640243588,57.154775633631431,57.078123627021668,57.00147162041447,56.924819613809717,56.848167607207358,56.771515600607508,55.558397263518117,55.088479586572468,54.618561909629378,54.148644232688831,53.678726555750742,53.2088088788151,52.738891201882,52.268973524951377,51.604544305397944,50.7809659354241,49.957387565452713,49.13380919548387,48.310230825517579,47.486652455553894,46.663074085592655,45.839495715634065,45.015917345677913,44.192338975724368,43.181959433750038,42.047042834310361,40.912126234873185,39.777209635438645,38.6422930360067,37.507376436577317,36.372459837150622,35.2375432377264,34.102626638304834,32.967710038885826,31.657755234150386,30.253546542728778,28.849337851309876,27.445129159893582,26.040920468479989,24.636711777069007,23.232503085660674,21.828294394255039,20.424085702852,19.019877011451662,17.454772009449012,15.820708730014394,14.186645450582432,12.552582171153242,10.918518891726748,9.2844556123029864,7.650392332881931,6.01632905346355,4.3822657740479247,2.7482024946349992,0.96806539539283187,-0.86076481806944882,-2.6895950315289725,-4.5184252449857407,-6.3472554584397107,-8.1760856718909771,-10.004915885339397,-11.833746098785083,-13.662576312228056,-15.491406525668182,-17.452263968799937,-19.446129779276077,-21.439995589749341,-23.433861400219651,-25.427727210687088,-27.421593021151565,-29.415458831613154,-31.409324642071766,-33.403190452527539,-35.397056262980385,-37.511374360388771,-39.646950083176108,-41.782525805960539,-43.918101528742241,-46.053677251520966,-48.189252974296913,-50.324828697069961,-52.460404419840131,-54.595980142607537,-56.731555865372087,-58.97925339847356,-61.239410088043066,-63.499566777609495,-65.7597234671728,-68.019880156733109,-70.280036846290258,-72.540193535844352,-74.80035022539532,-77.060506914943133,-79.320663604487962,-81.689621567241,-84.064306995321857,-86.4389924233997,-88.8136778514742,-91.188363279545683,-93.563048707614044,-95.937734135679207,-98.312419563741,-100.6871049917998,-103.0617904198554,0.46873336163008045,0.46873336163008045,0.46873336163008045,0.46873336163008045,0.46873336163008045,0.46873336163008045,0.46873336163008045,0.46873336163008045,0.46873336163008045,0.46873336163008045,0.46873336163008045,0.46873336163008045
DP 98,108.64891256571562,0.0025096605425704165,-60.317637879498172,-58.885531643399879,-57.453425407299818,-56.021319171197931,-54.589212935094245,-53.157106698988812,-51.725000462881532,-50.292894226772475,-48.860787990661578,-47.428681754548883,-45.99834893785723,-44.601711425452024,-43.205073913044991,-41.808436400636204,-40.411798888225583,-39.015161375813229,-37.618523863399105,-36.221886350983119,-34.825248838565379,-33.428611326145855,-32.039273173991823,-30.715629954189719,-29.391986734385931,-28.06834351458037,-26.744700294773068,-25.421057074963986,-24.097413855153196,-22.773770635340608,-21.450127415526296,-20.126484195710237,-18.81880458164008,-17.601586406076709,-16.384368230511566,-15.167150054944612,-13.949931879375892,-12.732713703805365,-11.515495528233062,-10.298277352658959,-9.0810591770830769,-7.8638410015054063,-6.673906739054094,-5.5931094185733441,-4.5123120980908373,-3.4315147776065533,-2.3507174571205085,-1.2699201366326827,-0.18912281614309373,0.89167450434827134,1.972471824841399,3.0532691453362992,4.0935553010785428,5.0123064308882057,5.9310575606996494,6.8498086905128819,7.7685598203279005,8.6873109501447,9.6060620799632979,10.524813209783678,11.443564339605834,12.362315469429793,13.22620815462091,13.962095641793582,14.697983128968072,15.433870616144354,16.169758103322462,16.905645590502356,17.641533077684048,18.377420564867545,19.113308052052876,19.849195539239957,20.515570466986386,21.052848764218464,21.590127061452353,22.127405358688051,22.664683655925593,23.201961953164961,23.739240250406105,24.276518547649115,24.813796844893943,25.351075142140612,25.804619191531231,26.132559890465597,26.460500589401814,26.788441288339889,27.116381987279826,27.444322686221597,27.772263385165225,28.100204084110715,28.42814478305802,28.756085482007197,28.987114467630136,29.099693768023311,29.212273068418359,29.324852368815293,29.43743166921411,29.5500109696148,29.662590270017336,29.775169570421838,29.887748870828151,30.000328171236344,29.795089812568424,29.690478198442516,29.585866584318556,29.481254970196481,29.376643356076364,29.272031741958159,29.167420127841858,29.062808513727482,28.839669981303057,28.519552842382485,28.199435703463873,27.879318564547233,27.559201425632548,27.239084286719809,26.918967147809028,26.598850008900246,26.278732869993387,25.958615731088518,25.511850026819971,24.980649950475669,24.449449874133386,23.918249797793127,23.387049721454837,22.855849645118582,22.324649568784341,21.793449492452091,21.262249416121854,20.731049339793625,20.06676494428676,19.330817826250936,18.594870708217172,17.858923590185441,17.122976472155788,16.387029354128202,15.65108223610266,14.915135118079203,14.179188000057787,13.443240882038442,12.569173491628574,11.635909367454071,10.702645243281644,9.76938111911139,8.8361169949432377,7.9028528707772177,6.9695887466133355,6.0363246224515352,5.1030604982918915,4.1697963741343642,3.094330962824249,1.9714633303241047,0.84859569782612609,-0.2742719346696848,-1.3971395671633031,-2.5200071996547893,-3.6428748321440545,-4.7657424646311624,-5.888610097116139,-7.0114777295988917,-8.2800971472500926,-9.5851562332732971,-10.89021531929423,-12.195274405312846,-13.500333491329163,-14.805392577343154,-16.110451663354855,-17.415510749364238,-18.720569835371315,-20.025628921376121,-21.4802680125168,-22.961305238502892,-24.442342464486671,-25.923379690468309,-27.404416916447591,-28.885454142424688,-30.366491368399458,-31.847528594372037,-33.328565820342313,-34.8096030463104,-36.444471465867487,-38.09643385585742,-39.748396245844944,-41.400358635829875,-43.052321025812475,-44.7042834157925,-46.356245805770143,-48.008208195745219,-49.660170585717935,-51.312132975688122,-53.123684668020154,-54.943637385167733,-56.763590102312861,-58.58354281945541,-60.403495536595486,-62.223448253733082,-64.043400970868063,-65.863353688000515,-67.68330640513058,-69.503259122257944,0.37034722331737996,0.37034722331737996,0.37034722331737996,0.37034722331737996,0.37034722331737996,0.37034722331737996,0.37034722331737996,0.37034722331737996,0.37034722331737996,0.37034722331737996,0.37034722331737996,0.37034722331737996
DP 99,97.630815051694015,0.0011081693292064791,-24.557519538147961,-23.985567899014463,-23.413616259880197,-22.841664620745192,-22.269712981609416,-21.697761342472884,-21.125809703335591,-20.553858064197552,-19.981906425058746,-19.409954785919176,-18.838677284748993,-18.28020853245307,-17.721739780156369,-17.163271027858919,-16.604802275560726,-16.046333523261779,-15.487864770962059,-14.929396018661571,-14.370927266360352,-13.81245851405836,-13.256771847590935,-12.726124216608191,-12.195476585624679,-11.664828954640452,-11.134181323655467,-10.603533692669748,-10.072886061683283,-9.54223843069607,-9.0115907997081184,-8.48094316871944,-7.9564019534231569,-7.4664641451800842,-6.9765263369362556,-6.4865885286916569,-5.9966507204463166,-5.5067129122002054,-5.01677510395334,-4.52683729570571,-4.036899487457327,-3.5469616792081866,-3.0675139891459517,-2.6300272676050969,-2.1925405460634906,-1.7550538245211291,-1.31756710297802,-0.88008038143415157,-0.44259365988953375,-0.005106938344160445,0.43237978320196274,0.869866504748839,1.2916771087135939,1.666458767238163,2.0412404257634931,2.4160220842895814,2.7908037428164332,3.165585401344047,3.54036705987242,3.9151487184015581,4.28993037693145,4.664712035462105,5.0180983751448123,5.3215614615504556,5.6250245479568735,5.9284876343640542,6.2319507207720051,6.5354138071807224,6.838876893590216,7.1423399800004788,7.44580306641151,7.7492661528233162,8.025369262666155,8.25066024856435,8.4759512344633272,8.70124222036309,8.926533206263624,9.1518241921649484,9.3771151780670454,9.6024061639699241,9.8276971498735737,10.052988135778014,10.244971862775545,10.386993914349501,10.529015965924245,10.671038017499781,10.813060069076114,10.955082120653232,11.097104172231145,11.239126223809857,11.381148275389354,11.523170326969641,11.626186254674973,11.681527211662672,11.73686816865119,11.7922091256405,11.847550082630615,11.902891039621538,11.958231996613279,12.013572953605822,12.068913910599175,12.124254867593333,12.068868724317033,12.035645908187051,12.00242309205791,11.969200275929575,11.935977459802071,11.902754643675397,11.86953182754954,11.836309011424522,11.754066998885907,11.631717528669896,11.509368058454728,11.387018588240414,11.264669118026948,11.142319647814325,11.01997017760254,10.897620707391605,10.775271237181505,10.652921766972252,10.477401162583485,10.266432297773358,10.055463432964094,9.8444945681556923,9.6335257033481714,9.4225568385414959,9.2115879737357034,9.0006191089307634,8.789650244126701,8.5786813793234931,8.3109566466207081,8.0126702366423324,7.7143838266648626,7.4160974166882774,7.117811006712583,6.81952459673778,6.5212381867638625,6.22295177679086,5.9246653668187284,5.6263789568474953,5.2682449262689941,4.8844609052712205,4.5006768842743465,4.1168928632784123,3.7331088422833782,3.3493248212892772,2.9655408002960857,2.5817567793038068,2.1979727583124573,1.8141887373220213,1.3678207084586309,0.900590554901738,0.43336040134578258,-0.033869752209235181,-0.50109990576330488,-0.968330059316451,-1.4355602128686373,-1.9027903664198891,-2.3700205199702191,-2.8372506735195877,-3.3695672537154606,-3.9181562095791724,-4.4667451654419077,-5.0153341213036375,-5.5639230771643717,-6.1125120330240916,-6.6611009888828159,-7.2096899447405391,-7.75827890059727,-8.3068678564530121,-8.9231030273521554,-9.5512765178474357,-10.179450008341716,-10.807623498835051,-11.435796989327375,-12.063970479818748,-12.692143970309134,-13.320317460798545,-13.948490951286972,-14.576664441774438,-15.27510096280589,-15.981345225158353,-16.687589487509772,-17.393833749860079,-18.100078012209366,-18.806322274557548,-19.512566536904686,-20.21881079925069,-20.925055061595696,-21.631299323939619,-22.410896202825047,-23.194354475567987,-23.977812748309862,-24.761271021050632,-25.5447292937903,-26.328187566528925,-27.111645839266412,-27.895104112002791,-28.6785623847381,-29.462020657472298,0.16028363310338073,0.16028363310338073,0.16028363310338073,0.16028363310338073,0.16028363310338073,0.16028363310338073,0.16028363310338073,0.16028363310338073,0.16028363310338073,0.16028363310338073,0.16028363310338073,0.16028363310338073
DP 100,191.86541850382039,0.0041746995151836913,-156.67901183292724,-152.56941086235511,-148.4598098917796,-144.3502089212007,-140.24060795061862,-136.13100698003313,-132.02140600944426,-127.91180503885207,-123.80220406825653,-119.69260309765764,-115.58980257988215,-111.61621195139827,-107.64262132291115,-103.66903069442071,-99.69544006592696,-95.721849437429981,-91.748258808929592,-87.774668180426019,-83.801077551919,-79.827486923408756,-75.881428890978384,-72.183166825723475,-68.484904760465284,-64.786642695203952,-61.088380629939365,-57.390118564671639,-53.6918564994006,-49.993594434126351,-46.295332368848968,-42.597070303568309,-38.957566012063687,-35.651026141229828,-32.344486270392721,-29.03794639955229,-25.73140652870865,-22.42486665786172,-19.118326787011515,-15.811786916158022,-12.505247045301294,-9.19870717444128,-5.9892205500634637,-3.1679514984390442,-0.34668244681142635,2.4745866048194194,5.295855656453452,8.1171247080907278,10.938393759731202,13.759662811374897,16.580931863021796,19.402200914671887,22.085432208741803,24.354545011048117,26.623657813357617,28.892770615670369,31.161883417986321,33.4309962203055,35.700109022627927,37.969221824953536,40.2383346272824,42.5074474296145,44.599118316613591,46.276751079468383,47.954383842326415,49.632016605187651,51.309649368052163,52.987282130919873,54.664914893790844,56.342547656665019,58.020180419542449,59.697813182423126,61.163871364966134,62.236999613066537,63.310127861170237,64.383256109277156,65.456384357387336,66.529512605500813,67.602640853617473,68.6757691017374,69.748897349860655,70.822025597987007,71.657373735063885,72.1360460867325,72.614718438404452,73.0933907900797,73.572063141758107,74.050735493439916,74.529407845125007,75.00808019681331,75.486752548504953,75.965424900199764,76.18950402808639,76.102408312533925,76.015312596984771,75.928216881438871,75.8411211658964,75.75402545035719,75.666929734821267,75.579834019288754,75.492738303759452,75.405642588233547,73.835656413379965,73.22508009695548,72.61450378053442,72.003927464116686,71.393351147702376,70.7827748312914,70.1721985148838,69.561622198479569,68.691094226184788,67.6078740679791,66.524653909776731,65.441433751577762,64.3582135933823,63.274993435190247,62.1917732770016,61.1085531188164,60.025332960634614,58.942112802456222,57.608163603138813,56.107057759851642,54.605951916568117,53.104846073287995,51.603740230011418,50.102634386738238,48.601528543468596,47.100422700202436,45.5993168569398,44.098211013680576,42.361065114062633,40.49681729012363,38.63256946618813,36.768321642256232,34.90407381832788,33.039825994403131,31.175578170481906,29.311330346564304,27.447082522650195,25.58283469873972,23.500524132094149,21.324754423627478,19.148984715164353,16.973215006704987,14.797445298249208,12.621675589797128,10.445905881348692,8.2701361729038467,6.0943664644627216,3.9185967560252268,1.5437881172600332,-0.89736934006846891,-3.3385267973932629,-5.7796842547143426,-8.22084171203166,-10.661999169345343,-13.103156626655188,-15.544314083961355,-17.985471541263866,-20.426628998562567,-23.048696644158234,-25.715993974309125,-28.383291304456186,-31.050588634599276,-33.717885964738471,-36.385183294873663,-39.052480625004982,-41.719777955132344,-44.387075285255833,-47.054372615375421,-49.887634476418192,-52.7501860414071,-55.612737606392159,-58.475289171373483,-61.337840736350834,-64.2003923013245,-67.062943866294219,-69.925495431260089,-72.788046996222121,-75.650598561180445,-78.668406737505748,-81.703467278985741,-84.738527820461726,-87.773588361933434,-90.8086489034011,-93.843709444864317,-96.878769986323547,-99.913830527778572,-102.94889106922948,-105.98395161067603,-109.17019751586464,-112.3644020496922,-115.55860658351557,-118.75281111733459,-121.94701565114937,-125.14122018496005,-128.33542471876632,-131.5296292525683,-134.7238337863661,-137.91803832015967,0.63113178171271478,0.63113178171271478,0.63113178171271478,0.63113178171271478,0.63113178171271478,0.63113178171271478,0.63113178171271478,0.63113178171271478,0.63113178171271478,0.63113178171271478,0.63113178171271478,0.63113178171271478
DP 101,210.54431344430981,0.0018483359712486861,-74.3895541729525,-72.406069413738479,-70.42258465452305,-68.439099895306029,-66.455615136087573,-64.472130376867682,-62.488645617646313,-60.505160858423473,-58.521676099199091,-56.538191339973316,-54.55816398957122,-52.64382806045127,-50.729492131329863,-48.815156202207035,-46.90082027308263,-44.986484343956867,-43.072148414829584,-41.15781248570088,-39.243476556570627,-37.329140627438925,-35.428756298613081,-33.6539376912805,-31.879119083946534,-30.104300476611098,-28.32948186927425,-26.554663261936014,-24.779844654596328,-23.005026047255232,-21.230207439912711,-19.455388832568772,-17.710189788759813,-16.132836804784546,-14.555483820807842,-12.978130836829664,-11.400777852850075,-9.82342486886901,-8.2460718848864936,-6.6687189009025323,-5.09136591691713,-3.5140129329302856,-1.98523400065067,-0.65075357085325858,0.683726858945568,2.0182072887458236,3.3526877185474913,4.687168148350592,6.0216485781551112,7.3561290079610613,8.6906094377684084,10.025089867577188,11.291106808279496,12.351730693149733,13.412354578021402,14.4729784628945,15.53360234776901,16.594226232644953,17.654850117522315,18.715474002401116,19.776097887281331,20.836721772162981,21.810286959230748,22.580711756015198,23.351136552801083,24.121561349588415,24.891986146377143,25.662410943167338,26.432835739958946,27.203260536751984,27.973685333546438,28.744110130342346,29.412022224513141,29.889550816763727,30.367079409015748,30.844608001269204,31.322136593524121,31.799665185780459,32.277193778038239,32.754722370297465,33.232250962558105,33.709779554820209,34.073714602292462,34.267256648321847,34.4607986943527,34.654340740384974,34.84788278641868,35.041424832453849,35.234966878490475,35.428508924528522,35.622050970568061,35.815593016609007,35.889399445944605,35.816859828731737,35.744320211520339,35.671780594310434,35.599240977101964,35.526701359894943,35.454161742689422,35.381622125485357,35.309082508282735,35.236542891081619,34.41390017287398,34.09935055153516,33.784800930197775,33.470251308861904,33.155701687527468,32.841152066194553,32.526602444863144,32.212052823533192,31.77954175709322,31.250514753765952,30.721487750440208,30.19246074711597,29.663433743793234,29.134406740472013,28.605379737152294,28.076352733834106,27.547325730517425,27.018298727202222,26.377762574989553,25.662885233511627,24.948007892035267,24.233130550560407,23.518253209087121,22.80337586761533,22.088498526145127,21.373621184676423,20.658743843209269,19.943866501743642,19.12626759479835,18.253355581920303,17.380443569043873,16.507531556169013,15.634619543295702,14.761707530423967,13.888795517553788,13.015883504685217,12.142971491818173,11.270059478952735,10.304442123701834,9.2990923426686827,8.293742561637087,7.288392780607154,6.2830429995787958,5.2776932185520717,4.2723434375269438,3.2669936565034017,2.2616438754814894,1.2562940944611813,0.168415055054994,-0.94697477724874946,-2.0623646095508623,-3.1777544418513419,-4.2931442741501638,-5.4085341064473846,-6.5239239387429233,-7.6393137710368375,-8.7547036033291459,-9.87009343561978,-11.058553514804309,-12.265282019048124,-13.472010523290239,-14.67873902753062,-15.885467531769281,-17.09219603600619,-18.298924540241391,-19.505653044474858,-20.7123815487066,-21.919110052936642,-23.191147590691244,-24.474710978254159,-25.758274365815307,-27.041837753374864,-28.3254011409327,-29.608964528488826,-30.89252791604326,-32.176091303596024,-33.45965469114708,-34.743218078696515,-36.086446266982506,-37.43630450419262,-38.786162741400879,-40.136020978607341,-41.485879215812027,-42.835737453014808,-44.185595690215791,-45.535453927414871,-46.88531216461223,-48.235170401807686,-49.642163110998546,-51.0521634661269,-52.462163821253419,-53.872164176378035,-55.282164531500825,-56.692164886621782,-58.102165241740785,-59.51216559685794,-60.922165951973277,-62.332166307086666,0.27734369776374046,0.27734369776374046,0.27734369776374046,0.27734369776374046,0.27734369776374046,0.27734369776374046,0.27734369776374046,0.27734369776374046,0.27734369776374046,0.27734369776374046,0.27734369776374046,0.27734369776374046
DP 102,90.577353937316445,0.0034971459574610359,-73.321186495005762,-71.63658418241387,-69.951981869819733,-68.267379557223236,-66.582777244624381,-64.898174932023252,-63.21357261941985,-61.528970306814159,-59.844367994206138,-58.159765681595772,-56.477084057403516,-54.830895876293184,-53.184707695180542,-51.538519514065527,-49.892331332948288,-48.24614315182869,-46.599954970706818,-44.953766789582687,-43.307578608456183,-41.661390427327369,-40.023143322958887,-38.456366660055743,-36.8895899971504,-35.322813334242745,-33.756036671332843,-32.189260008420696,-30.62248334550625,-29.055706682589541,-27.488930019670576,-25.922153356749327,-24.372846807681608,-22.922538671331402,-21.472230534978884,-20.021922398624028,-18.571614262266877,-17.121306125907381,-15.670997989545565,-14.220689853181442,-12.77038171681499,-11.320073580446248,-9.8998802667049475,-8.6001476667313153,-7.3004150667553906,-6.0006824667771559,-4.7009498667966234,-3.4012172668137746,-2.10148466682863,-0.80175206684117573,0.49798053314857604,1.7977131331406302,3.0522524878072743,4.1712103977989869,5.29016830779303,6.4091262177894066,7.52808412778812,8.64704203778917,9.7659999477925314,10.884957857798243,12.003915767806276,13.122873677816656,14.17982904446715,15.092109368040774,16.004389691616769,16.916670015195123,17.828950338775854,18.741230662358923,19.653510985944362,20.565791309532177,21.478071633122337,22.390351956714881,23.222863772732222,23.907231920439965,24.591600068150093,25.275968215862612,25.960336363577539,26.644704511294876,27.32907265901455,28.013440806736696,28.697808954461205,29.382177102188074,29.968765494824183,30.408681944251107,30.848598393680479,31.28851484311231,31.728431292546567,32.168347741983268,32.608264191422357,33.048180640863933,33.488097090307939,33.928013539754382,34.252530145025027,34.436000072355107,34.619469999687652,34.80293992702267,34.98640985436024,35.169879781700239,35.353349709042767,35.536819636387747,35.720289563735221,35.903759491085204,35.793573616943426,35.712804782300879,35.6320359476609,35.551267113023478,35.470498278388575,35.389729443756245,35.308960609126437,35.228191774499166,34.999832675330993,34.650715368730722,34.301598062133024,33.952480755537962,33.603363448945494,33.25424614235564,32.905128835768394,32.556011529183763,32.20689422260174,31.857776916022324,31.347024660307142,30.72851322550779,30.110001790711173,29.491490355917204,28.872978921125924,28.25446748633733,27.635956051551378,27.017444616768124,26.398933181987555,25.780421747209669,24.987664257128419,24.10107943419511,23.214494611264545,22.327909788336736,21.441324965411649,20.554740142489315,19.668155319569752,18.781570496652947,17.894985673738869,17.008400850827549,15.936251359852033,14.784571021873671,13.632890683898097,12.481210345925454,11.329530007955588,10.177849669988614,9.0261693320244731,7.8744889940631522,6.7228086561047009,5.5711283181490945,4.2235348042274836,2.8106344292559942,1.3977340542874097,-0.01516632067826371,-1.428066695640998,-2.8409670706008678,-4.2538674455577592,-5.6667678205117573,-7.0796681954628795,-8.4925685704110432,-10.111012671665357,-11.780845133027263,-13.4506775943861,-15.120510055741816,-16.790342517094459,-18.460174978443963,-20.130007439790386,-21.799839901133662,-23.469672362473908,-25.139504823811034,-27.02458200823801,-28.947645949115117,-30.870709889989143,-32.793773830860282,-34.716837771728244,-36.639901712593264,-38.562965653455151,-40.4860295943141,-42.409093535169966,-44.332157476022857,-46.480099889035536,-48.653031160708395,-50.825962432377857,-52.99889370404405,-55.171824975706954,-57.344756247366369,-59.517687519022637,-61.690618790675444,-63.863550062325032,-66.036481333971167,-68.4450435247414,-70.866009687266924,-73.286975849789087,-75.707942012307811,-78.12890817482311,-80.5498743373351,-82.970840499843646,-85.391806662348657,-87.812772824850441,-90.233738987348673,0.49712559602279932,0.49712559602279932,0.49712559602279932,0.49712559602279932,0.49712559602279932,0.49712559602279932,0.49712559602279932,0.49712559602279932,0.49712559602279932,0.49712559602279932,0.49712559602279932,0.49712559602279932
DP 103,76.349647263914846,0.0015014270787505717,-27.892491635956329,-27.271357897448052,-26.650224158938922,-26.029090420428883,-25.407956681917934,-24.786822943406118,-24.165689204893397,-23.544555466379773,-22.923421727865279,-22.302287989349871,-21.681814842164176,-21.073893055140278,-20.465971268115482,-19.858049481089797,-19.25012769406321,-18.642205907035727,-18.034284120007367,-17.426362332978083,-16.818440545947912,-16.210518758916852,-15.605337735489341,-15.024823843562695,-14.44430995163515,-13.863796059706738,-13.283282167777411,-12.702768275847218,-12.122254383916133,-11.541740491984159,-10.961226600051308,-10.380712708117555,-9.8062593544458121,-9.2661494328313978,-8.7260395112160634,-8.185929589599823,-7.6458196679826713,-7.1057097463646155,-6.565599824745652,-6.0254899031257834,-5.4853799815049955,-4.9452700598833115,-4.4156807496606731,-3.9281743822495678,-3.4406680148375517,-2.9531616474246296,-2.465655280010798,-1.9781489125960581,-1.4906425451804111,-1.0031361777638541,-0.51562981034639188,-0.028123442928021547,0.44345508896687313,0.86724951208010059,1.2910439351942502,1.7148383583093232,2.1386327814253181,2.5624272045422383,2.9862216276600781,3.4100160507788453,3.8338104738985228,4.257604897019136,4.6593133467373731,5.0094869886846718,5.3596606306329138,5.7098342725820848,6.0600079145322017,6.4101815564832476,6.760355198435235,7.1105288403881621,7.4607024823420272,7.8108761242968345,8.1322791124976863,8.4002501095989857,8.6682211067012354,8.93619210380445,9.204163100908616,9.472134098013731,9.740105095119814,10.00807609222684,10.276047089334826,10.544018086443765,10.776222311880026,10.954775534624744,11.133328757370435,11.311881980117109,11.490435202864759,11.668988425613378,11.847541648362975,12.026094871113562,12.20464809386511,12.38320131661763,12.518877675119734,12.60214807669683,12.68541847827492,12.768688879854006,12.8519592814341,12.935229683015177,13.01850008459726,13.101770486180339,13.185040887764435,13.268311289349519,13.268483345240199,13.251897898512491,13.235312451785815,13.218727005060146,13.202141558335512,13.185556111611902,13.168970664889317,13.152385218167767,13.079011212234738,12.959172863722223,12.839334515210787,12.7194961667004,12.599657818191046,12.479819469682774,12.359981121175542,12.240142772669369,12.120304424164253,12.000466075660182,11.817259755396419,11.591807122354613,11.366354489313903,11.140901856274262,10.915449223235722,10.689996590198271,10.46454395716191,10.239091324126623,10.013638691092435,9.7881860580593223,9.4931113122587849,9.1605467240792073,8.82798213590077,8.49541754772345,8.162852959547255,7.8302883713721929,7.4977237831982517,7.1651591950254536,6.8325946068537595,6.5000300186832085,6.0919211253864356,5.651434826220096,5.210948527054903,4.7704622278908939,4.3299759287280288,3.8894896295663344,3.4490033304058012,3.0085170312464169,2.5680307320882054,2.1275444329311521,1.6058731350143807,1.0571391476833039,0.50840516035341443,-0.040328826975283963,-0.58906281430278107,-1.1377968016291049,-1.6865307889542136,-2.2352647762781368,-2.7839987636008896,-3.3327327509224256,-3.9680210441548547,-4.624948936517602,-5.2818768288790965,-5.9388047212393067,-6.5957326135982557,-7.2526605059559115,-7.9095883983123052,-8.5665162906674173,-9.22344418302127,-9.8803720753738631,-10.629175917745489,-11.394194184735333,-12.159212451723912,-12.9242307187113,-13.689248985697393,-14.454267252682261,-15.219285519665879,-15.984303786648253,-16.749322053629378,-17.514340320609296,-18.376344653932239,-19.249126235430996,-20.121907816928392,-20.994689398424384,-21.867470979919045,-22.740252561412312,-23.613034142904215,-24.485815724394715,-25.358597305883897,-26.231378887371662,-27.206442146072256,-28.186889668603598,-29.167337191133534,-30.147784713662073,-31.128232236189209,-32.108679758714977,-33.089127281239278,-34.06957480376213,-35.050022326283653,-36.03046984880374,0.20301469870577576,0.20301469870577576,0.20301469870577576,0.20301469870577576,0.20301469870577576,0.20301469870577576,0.20301469870577576,0.20301469870577576,0.20301469870577576,0.20301469870577576,0.20301469870577576,0.20301469870577576
DP 104,156.50268244331534,0.0025441472209552511,-81.496187186254048,-79.433060909373339,-77.369934632490569,-75.306808355605909,-73.243682078719189,-71.180555801830479,-69.11742952493978,-67.054303248047134,-64.9911769711525,-62.928050694255795,-60.86798599028036,-58.866091750618835,-56.864197510955329,-54.862303271289782,-52.860409031622289,-50.8585147919528,-48.856620552281342,-46.854726312607937,-44.852832072932493,-42.850937833255074,-40.861520824189157,-38.984400070011979,-37.107279315832869,-35.230158561651834,-33.353037807468873,-31.475917053284004,-29.598796299097184,-27.72167554490844,-25.844554790717776,-23.967434036525194,-22.117207706259052,-20.419384806323666,-18.721561906386341,-17.023739006447027,-15.32591610650579,-13.628093206562571,-11.930270306617372,-10.232447406670207,-8.5346245067210926,-6.8368016067700035,-5.1840255236472634,-3.7114388367927189,-2.2388521499362479,-0.76626546307783461,0.70632122378250073,2.1789079106447837,3.6514945975089947,5.124081284375146,6.596667971243221,8.0692546581132341,9.4766421907777527,10.688429795732112,11.900217400688433,13.112005005646678,14.323792610606874,15.535580215569018,16.747367820533118,17.959155425499144,19.170943030467104,20.382730635437035,21.508920840117739,22.435380406292008,23.361839972468271,24.288299538646445,25.214759104826591,26.141218671008694,27.067678237192741,27.994137803378745,28.9205973695667,29.8470569357566,30.668922675241035,31.296539911880981,31.924157148522873,32.551774385166716,33.179391621812549,33.807008858460314,34.43462609511014,35.06224333176182,35.689860568415526,36.317477805071206,36.82423216365239,37.14968934908633,37.475146534522295,37.800603719960186,38.126060905400088,38.451518090842,38.776975276285889,39.102432461731759,39.42788964717964,39.753346832629454,39.945317293078425,39.974134508000951,40.002951722925538,40.031768937852135,40.060586152780722,40.089403367711327,40.118220582643936,40.147037797578612,40.175855012515242,40.2046722274539,39.58106492848443,39.325858028989828,39.070651129497243,38.81544423000674,38.560237330518305,38.305030431031881,38.04982353154751,37.794616632065164,37.39299018326254,36.87156340505507,36.350136626849647,35.828709848646319,35.30728307044506,34.785856292245896,34.264429514048828,33.74300273585385,33.221575957660924,32.700149179470095,32.031631401662565,31.265050640235867,30.498469878811321,29.731889117388867,28.965308355968578,28.198727594550366,27.432146833134336,26.665566071720384,25.898985310308611,25.132404548898897,24.221118764048057,23.231912785387621,22.242706806729416,21.253500828073371,20.264294849419485,19.275088870767803,18.28588289211827,17.296676913470954,16.307470934825773,15.318264956182791,14.188907441056568,12.999482616126182,11.810057791198004,10.62063296627209,9.4312081413483764,8.2417833164269148,7.0523584915076922,5.8629336665906679,4.6735088416759059,3.4840840167633651,2.1601816626650252,0.7914517707069666,-0.57727812124882261,-1.94600801320234,-3.3147379051535584,-4.6834677971025442,-6.0521976890491969,-7.4209275809935935,-8.7896574729357528,-10.158387364875583,-11.655782431293401,-13.185345311529348,-14.71490819176295,-16.244471071994113,-17.774033952222876,-19.303596832449237,-20.833159712673186,-22.36272259289472,-23.892285473113862,-25.421848353330635,-27.075432938930792,-28.750905086972459,-30.426377235011707,-32.101849383048723,-33.777321531083309,-35.452793679115558,-37.128265827145405,-38.803737975172965,-40.479210123198143,-42.154682271221027,-43.951302753565137,-45.761385434287035,-47.571468115006439,-49.381550795723236,-51.191633476437509,-53.001716157149176,-54.811798837858312,-56.621881518564862,-58.43196419926889,-60.242046879970324,-62.173651327179442,-64.111652865928122,-66.049654404674243,-67.987655943417721,-69.925657482158627,-71.863659020896932,-73.801660559632623,-75.739662098365613,-77.677663637096046,-79.6156651758238,0.38695396241460361,0.38695396241460361,0.38695396241460361,0.38695396241460361,0.38695396241460361,0.38695396241460361,0.38695396241460361,0.38695396241460361,0.38695396241460361,0.38695396241460361,0.38695396241460361,0.38695396241460361
DP 105,287.25313491331576,0.0032819200518362191,-164.22932431387903,-159.59082272894051,-154.95232114399923,-150.31381955905545,-145.67531797410894,-141.03681638915995,-136.3983148042083,-131.75981321925411,-127.12131163429746,-122.4828100493381,-117.85405328527939,-113.4104499605848,-108.96684663588765,-104.52324331118788,-100.0796399864856,-95.636036661780679,-91.192433337073354,-86.748830012363427,-82.305226687650958,-77.861623362935873,-73.456824739682574,-69.401272097493219,-65.345719455301449,-61.290166813107184,-57.234614170910476,-53.179061528711244,-49.123508886509583,-45.0679562443054,-41.012403602098779,-36.956850959889664,-32.981963564879578,-29.464184320422206,-25.946405075962314,-22.428625831499907,-18.910846587035,-15.393067342567592,-11.875288098097636,-8.35750885362517,-4.8397296091502158,-1.3219503646727468,2.0673376631521707,4.9426547517606538,7.8179718403715874,10.693288928984989,13.568606017600853,16.443923106219192,19.319240194839988,22.194557283463261,25.069874372088965,27.945191460717147,30.645881913443112,32.822685856065995,34.999489798691357,37.176293741319135,39.353097683949429,41.529901626582173,43.706705569217405,45.883509511855067,48.060313454495251,50.237117397137851,52.201297250910095,53.669345856667952,55.137394462428254,56.605443068191029,58.073491673956283,59.541540279723982,61.00958888549421,62.477637491266876,63.945686097042064,65.413734702819625,66.6435799795539,67.431041212253348,68.218502444955192,69.005963677659508,69.793424910366369,70.580886143075645,71.36834737578738,72.155808608501644,72.94326984121841,73.730731073937562,74.2685496728466,74.431898421891248,74.595247170938435,74.758595919988082,74.921944669040272,75.085293418094935,75.248642167152,75.411990916211735,75.575339665273859,75.738688414338483,75.654512613730915,75.2678016087712,74.881090603813973,74.49437959885941,74.1076685939072,73.72095758895756,73.334246584010458,72.947535579065843,72.560824574123785,72.174113569184243,69.84345489717704,68.988532744254542,68.1336105913346,67.2786884384172,66.42376628550241,65.568844132590144,64.713921979680435,63.858999826773179,62.7915360237876,61.550170854421189,60.308805685057294,59.067440515696035,57.8260753463374,56.584710176981275,55.343345007627711,54.101979838276883,52.860614668928505,51.619249499582736,50.191676080394508,48.639960894533722,47.0882457086756,45.536530522820087,43.984815336967195,42.433100151116875,40.881384965269255,39.329669779424229,37.77795459358186,36.226239407742106,34.516355087122186,32.72130047079542,30.926245854471325,29.131191238149903,27.336136621831177,25.541082005515111,23.746027389201682,21.950972772890971,20.155918156582889,18.360863540277478,16.434918959728019,14.452876470943492,12.470833982161619,10.48879149338261,8.5067490046062755,6.5247065158327207,4.542664027061905,2.5606215382937818,0.57857904952846106,-1.4034634392341334,-3.4916968038971885,-5.615328465498898,-7.7389601270978234,-9.8625917886939725,-11.98622345028728,-14.109855111877877,-16.233486773465582,-18.35711843505052,-20.480750096632715,-22.60438175821206,-24.81315537240696,-27.043215480719809,-29.273275589029819,-31.503335697336812,-33.733395805640932,-35.963455913942,-38.193516022240232,-40.42357613053548,-42.653636238827822,-44.883696347117251,-47.182480796119293,-49.493393834175983,-51.804306872229695,-54.115219910280736,-56.426132948328721,-58.737045986373857,-61.0479590244161,-63.358872062455532,-65.669785100492021,-67.98069813852571,-70.348516606485774,-72.722658497632111,-75.096800388775392,-77.4709422799155,-79.845084171052648,-82.219226062186507,-84.593367953317482,-86.967509844444962,-89.341651735569641,-91.715793626691109,-94.140579976981627,-96.56803232901288,-98.995484681041,-101.42293703306586,-103.85038938508755,-106.27784173710631,-108.70529408912176,-111.13274644113386,-113.56019879314297,-115.9876511451488,0.47138923628252177,0.47138923628252177,0.47138923628252177,0.47138923628252177,0.47138923628252177,0.47138923628252177,0.47138923628252177,0.47138923628252177,0.47138923628252177,0.47138923628252177,0.47138923628252177,0.47138923628252177
DP 106,231.6903738453986,0.0042142597120492578,-181.88934336990616,-176.95529603086496,-172.02124869182046,-167.08720135277278,-162.15315401372138,-157.21910667466685,-152.28505933560891,-147.35101199654773,-142.41696465748288,-137.48291731841493,-132.55796006444621,-127.80571614585716,-123.05347222726459,-118.3012283086688,-113.54898439006961,-108.79674047146707,-104.04449655286118,-99.292252634252122,-94.540008715639615,-89.787764797023684,-85.07206520146309,-80.685267967658817,-76.298470733851232,-71.9116735000405,-67.524876266226485,-63.138079032409181,-58.751281798588714,-54.364484564765014,-49.977687330938082,-45.590890097107895,-41.281225855190108,-37.408653427954832,-33.536081000716294,-29.663508573474395,-25.790936146229267,-21.918363718980849,-18.0457912917291,-14.173218864474059,-10.300646437215745,-6.4280740099541571,-2.6809763560254,0.5642162745229985,3.8094089050746054,7.054601535629466,10.299794166187525,13.544986796748843,16.790179427313369,20.035372057881126,23.280564688452134,26.525757319026347,29.595881978501261,32.1407961055942,34.685710232690305,37.230624359789694,39.775538486892323,42.32045261399815,44.865366741107209,47.410280868219552,49.955194995335134,52.5001091224539,54.825085943233042,56.63686705388001,58.448648164530269,60.260429275183654,62.072210385840407,63.883991496500272,65.695772607163477,67.5075537178299,69.319334828499521,71.131115939172432,72.6875068411799,73.769594744273846,74.85168264737095,75.93377055047138,77.015858453575078,78.097946356681973,79.180034259792151,80.262122162905555,81.344210066022256,82.426297969142212,83.2297941471166,83.615396154145287,84.000998161177264,84.386600168212439,84.772202175251053,85.157804182292864,85.543406189337986,85.929008196386377,86.314610203438022,86.70021221049295,86.797193602596835,86.541410402904873,86.2856272032162,86.029844003530982,85.774060803849,85.518277604170336,85.262494404494959,85.0067112048229,84.750928005154165,84.49514480548882,82.296619397141612,81.468364791534768,80.6401101859314,79.811855580331368,78.9836009747346,78.155346369141313,77.3270917635514,76.498837157964672,75.397169030344728,74.071794231344725,72.746419432348233,71.4210446333552,70.095669834365523,68.770295035379263,67.444920236396385,66.119545437417074,64.794170638441031,63.468795839468427,61.890559779145519,60.143745561122167,58.396931343102231,56.65011712508575,54.903302907072849,53.156488689063288,51.409674471057265,49.662860253054696,47.916046035055643,46.16923181706,44.194896922042339,42.098047584694747,40.001198247350757,37.904348910010313,35.807499572673365,33.71065023534,31.613800898010169,29.516951560683921,27.420102223361194,25.323252886042045,23.026192755271307,20.643324619406567,18.260456483545354,15.877588347687908,13.49472021183399,11.11185207598378,8.7289839401371765,6.3461158042941523,3.9632476684548235,1.5803795326191032,-0.97595845998500819,-3.5901219243896363,-6.2042853887905745,-8.8184488531878245,-11.43261231758134,-14.046775781971235,-16.660939246357326,-19.275102710739741,-21.88926617511855,-24.503429639493554,-27.266828616039206,-30.067538233866955,-32.8682478516909,-35.668957469510914,-38.469667087327025,-41.2703767051392,-44.0710863229475,-46.871795940751895,-49.67250555855238,-52.473215176349079,-55.403488806504896,-58.356628114904687,-61.309767423300435,-64.262906731692667,-67.216046040080869,-70.169185348465319,-73.122324656845961,-76.075463965222738,-79.028603273595778,-81.981742581964966,-85.050079795215552,-88.1312179855223,-91.212356175824908,-94.29349436612334,-97.374632556417708,-100.45577074670783,-103.53690893699394,-106.61804712727574,-109.69918531755368,-112.78032350782726,-115.96962980256633,-119.16463023166173,-122.35963066075303,-125.55463108984006,-128.74963151892288,-131.9446319480017,-135.13963237707614,-138.33463280614629,-141.52963323521243,-144.72463366427422,0.62571026185523781,0.62571026185523781,0.62571026185523781,0.62571026185523781,0.62571026185523781,0.62571026185523781,0.62571026185523781,0.62571026185523781,0.62571026185523781,0.62571026185523781,0.62571026185523781,0.62571026185523781
DP 107,162.07678138934506,0.0041628675226238138,-137.07650909972986,-133.58519826587195,-130.09388743201075,-126.60257659814634,-123.11126576427871,-119.61995493040764,-116.12864409653335,-112.63733326265589,-109.14602242877517,-105.6547115948911,-102.16867712039533,-98.782894471806372,-95.397111823214161,-92.011329174618524,-88.625546526019718,-85.239763877417673,-81.8539812288123,-78.468198580203818,-75.082415931591967,-71.696633282976862,-68.332331176555144,-65.16135598027806,-61.990380783997779,-58.819405587714407,-55.648430391427858,-52.4774551951381,-49.306479998845269,-46.135504802549143,-42.964529606249911,-39.793554409947546,-36.668807267798812,-33.806022012240014,-30.943236756678,-28.080451501112741,-25.217666245544255,-22.354880989972557,-19.492095734397608,-16.629310478819459,-13.76652522323808,-10.903739967653477,-8.1182105214514735,-5.6417079639615935,-3.1652054064685484,-0.688702848972316,1.7877997085270705,4.2643022660296621,6.7408048235354023,9.2173073810443462,11.693809938556434,14.170312496071704,16.5353088412161,18.565782333345798,20.596255825478682,22.626729317614764,24.657202809754047,26.687676301896513,28.718149794042176,30.748623286191023,32.779096778343039,34.80957027049827,36.694148390375751,38.238298229000243,39.7824480676279,41.326597906258755,42.870747744892867,44.414897583530141,45.95904742217062,47.50319726081436,49.047347099461263,50.591496938111362,51.95807673001282,52.994878782468206,54.031680834926867,55.068482887388754,56.105284939853853,57.142086992322206,58.178889044793763,59.215691097268589,60.252493149746577,61.289295202227805,62.121827966368244,62.647951971036882,63.174075975708796,63.700199980383879,64.226323985062322,64.752447989744,65.2785719944289,65.804695999117158,66.330820003808611,66.856944008503291,67.158597158545078,67.185892326828892,67.213187495116031,67.2404826634065,67.267777831700272,67.295072999997259,67.322368168297672,67.349663336601267,67.376958504908217,67.404253673218534,66.298759871542146,65.851102419359137,65.403444967179482,64.955787515003237,64.50813006283029,64.060472610660781,63.612815158494527,63.165157706331755,62.4741482612703,61.584028458023035,60.693908654779207,59.803788851538769,58.913669048301763,58.023549245068168,57.133429441837947,56.24330963861113,55.353189835387795,54.46307003216787,53.330109211969905,52.035250554840935,50.740391897715469,49.445533240593512,48.150674583474938,46.855815926359952,45.5609572692484,44.266098612140325,42.97123995503577,41.676381297934626,40.144338513385513,38.484577749599623,36.824816985817321,35.165056222038608,33.505295458263447,31.845534694491867,30.185773930723823,28.526013166959405,26.866252403198494,25.206491639441197,23.318773627062175,21.333355803331475,19.347937979604335,17.362520155880965,15.377102332161183,13.391684508445076,11.406266684732623,9.4208488610237868,7.4354310373186578,5.450013213617158,3.2476286296588888,0.972919057885985,-1.3017905138832055,-3.5765000856486751,-5.85120965741038,-8.1259192291684386,-10.400628800922673,-12.675338372673204,-14.950047944420092,-17.224757516163145,-19.7053653077209,-22.237450086951064,-24.769534866177384,-27.30161964539975,-29.833704424618169,-32.365789203832627,-34.897873983043169,-37.4299587622498,-39.962043541452452,-42.494128320651257,-45.22315018599398,-47.986927844741466,-50.750705503485037,-53.514483162224842,-56.278260820960668,-59.042038479692785,-61.805816138420994,-64.569593797145359,-67.3333714558659,-70.097149114582564,-73.052031977390342,-76.028150758817276,-79.004269540240017,-81.980388321658509,-84.95650710307298,-87.932625884483116,-90.908744665889174,-93.884863447290826,-96.860982228688542,-99.837101010082009,-103.00406262903009,-106.18107050665775,-109.35807838428116,-112.53508626190019,-115.71209413951512,-118.88910201712579,-122.06610989473215,-125.24311777233406,-128.42012564993189,-131.59713352752539,0.63318016998121729,0.63318016998121729,0.63318016998121729,0.63318016998121729,0.63318016998121729,0.63318016998121729,0.63318016998121729,0.63318016998121729,0.63318016998121729,0.63318016998121729,0.63318016998121729,0.63318016998121729
DP 108,86.6174672233911,0.0052456456428477674,-106.47738959965331,-104.05084135879264,-101.62429311792854,-99.197744877061155,-96.771196636190339,-94.344648395316113,-91.918100154438633,-89.4915519135577,-87.065003672673384,-84.638455431785729,-82.214621906658621,-79.842368494246074,-77.47011508183013,-75.097861669410761,-72.7256082569881,-70.353354844562,-67.981101432132533,-65.608848019699622,-63.23659460726342,-60.864341194823837,-58.503319563281416,-56.243385021488493,-53.983450479692145,-51.723515937892493,-49.463581396089559,-47.203646854283221,-44.943712312473586,-42.68377777066064,-40.423843228844383,-38.163908687024794,-35.9287222389025,-33.83377654790268,-31.738830856899455,-29.643885165892844,-27.548939474882797,-25.453993783869386,-23.359048092852539,-21.264102401832282,-19.169156710808636,-17.074211019781586,-15.022006684290135,-13.140769790942375,-11.259532897591226,-9.37829600423668,-7.4970591108787712,-5.6158222175174508,-3.7345853241527536,-1.8533484307846624,0.027888462586804191,1.9091253559616594,3.7260636403941314,5.3501036669512416,6.9741436935117829,8.5981837200757543,10.222223746643165,11.846263773213996,13.470303799788267,15.094343826365977,16.718383852947088,18.342423879531662,19.877992187485255,21.207123000936427,22.536253814391078,23.865384627849192,25.194515441310781,26.523646254775848,27.8527770682444,29.181907881716434,30.511038695191917,31.840169508670929,33.055082144478234,34.057872222871666,35.06066230126865,36.063452379669116,37.066242458073184,38.069032536480755,39.071822614891872,40.074612693306491,41.077402771724628,42.080192850146361,42.942425668859983,43.5938192765897,44.24521288432301,44.896606492059931,45.548000099800468,46.199393707544587,46.85078731529233,47.502180923043596,48.153574530798494,48.804968138556973,49.289755235201675,49.570908652063515,49.8520620689291,50.133215485798267,50.414368902671185,50.695522319547692,50.97667573642795,51.257829153311846,51.538982570199394,51.820135987090737,51.705302342333439,51.603137476429154,51.500972610528642,51.398807744631888,51.296642878738872,51.194478012849636,51.092313146964194,50.990148281082433,50.672790226707065,50.179361319860988,49.685932413018747,49.192503506180387,48.699074599345842,48.2056456925152,47.712216785688426,47.218787878865491,46.725358972046351,46.23193006523114,45.501571168972617,44.613255213926166,43.7249392588837,42.836623303845222,41.948307348810665,41.059991393780066,40.1716754387535,39.28335948373082,38.395043528712137,37.506727573697432,36.361602325600366,35.07819141600244,33.794780506408593,32.511369596818824,31.2279586872331,29.94454777765149,28.661136868073882,27.3777259585004,26.094315048930959,24.810904139365622,23.252519005697341,21.576283134736343,19.900047263779477,18.223811392826942,16.547575521878528,14.871339650934404,13.195103779994476,11.518867909058729,9.84263203812725,8.1663961671999648,6.1983494384261295,4.1330287460596367,2.067708053697463,0.0023873613396044454,-2.0629333310138964,-4.1282540233631488,-6.1935747157079817,-8.25889540804853,-10.324216100384824,-12.389536792716704,-14.762462453206188,-17.212292990135584,-19.66212352706042,-22.111954063980647,-24.561784600896257,-27.011615137807247,-29.461445674713648,-31.911276211615458,-34.361106748512611,-36.810937285405238,-39.584184371450355,-42.41450856260753,-45.244832753760093,-48.075156944908343,-50.905481136051947,-53.735805327191109,-56.566129518325759,-59.396453709455891,-62.226777900581567,-65.057102091702774,-68.226358355401544,-71.433277297860585,-74.640196240314708,-77.847115182763744,-81.054034125208062,-84.260953067647222,-87.467872010081621,-90.674790952510847,-93.881709894935327,-97.088628837354719,-100.65137161924716,-104.23284551194236,-107.81431940463263,-111.39579329731774,-114.97726718999779,-118.55874108267295,-122.1402149753429,-125.72168886800775,-129.30316276066762,-132.8846366533223,0.737036002811708,0.737036002811708,0.737036002811708,0.737036002811708,0.737036002811708,0.737036002811708,0.737036002811708,0.737036002811708,0.737036002811708,0.737036002811708,0.737036002811708,0.737036002811708
DP 109,107.47479380862266,0.0020488972055701981,-48.834057828462925,-47.676857252711294,-46.5196566769582,-45.362456101203634,-44.205255525447583,-43.048054949690091,-41.890854373931155,-40.733653798170714,-39.576453222408837,-38.419252646645468,-37.263477729176095,-36.134790588831841,-35.00610344848613,-33.87741630813899,-32.748729167790351,-31.620042027440284,-30.491354887088779,-29.362667746735788,-28.233980606381341,-27.105293466025479,-25.982476213432335,-24.912488505547476,-23.842500797661216,-22.772513089773536,-21.702525381884445,-20.632537673993944,-19.562549966101983,-18.492562258208622,-17.42257455031384,-16.352586842417615,-15.295440670650091,-14.311064012821495,-13.326687354991439,-12.342310697159919,-11.357934039326958,-10.373557381492535,-9.38918072365666,-8.4048040658193219,-7.4204274079805446,-6.4360507501403053,-5.473634650391654,-4.5990618208874263,-3.7244889913817638,-2.8499161618746567,-1.9753433323661185,-1.1007705028561316,-0.22619767334470858,0.648375156168158,1.5229479856824586,2.3975208151981988,3.2394654081244441,3.9835240576508264,4.7275827071786622,5.4716413567079538,6.2157000062386993,6.9597586557708979,7.7038173053045487,8.44787595483965,9.1919346043762076,9.9359932539142157,10.635831677326314,11.232487831544461,11.829143985764087,12.42580013998518,13.02245629420773,13.619112448431752,14.21576860265724,14.812424756884189,15.409080911112619,16.005737065342505,16.546307015161158,16.982715356400139,17.419123697640597,17.855532038882554,18.291940380125986,18.728348721370907,19.1647570626173,19.601165403865188,20.037573745114557,20.473982086365403,20.842753746486014,21.110068786630691,21.377383826776914,21.644698866924625,21.912013907073838,22.179328947224565,22.446643987376795,22.71395902753051,22.981274067685746,23.248589107842495,23.437527381126561,23.530670181946459,23.623812982767912,23.716955783590894,23.8100985844154,23.903241385241419,23.996384186068983,24.0895269868981,24.182669787728738,24.275812588560907,24.115504484237636,24.032752349830641,23.950000215425217,23.867248081021351,23.78449594661905,23.70174381221835,23.61899167781916,23.536239543421566,23.35735392127371,23.09981197520753,22.842270029142981,22.584728083080009,22.327186137018639,22.069644190958869,21.812102244900686,21.554560298844109,21.297018352789134,21.039476406735751,20.679049677906388,20.250031473090729,19.821013268276722,19.391995063464332,18.962976858653594,18.533958653844486,18.104940449037027,17.67592224423117,17.246904039426994,16.817885834624434,16.280573285309934,15.684946821853531,15.089320358398835,14.493693894945816,13.89806743149448,13.302440968044824,12.706814504596823,12.111188041150539,11.515561577705906,10.919935114262966,10.211723815028938,9.4552599715818371,8.6987961281364239,7.9423322846927951,7.1858684412508538,6.4294045978106693,5.6729407543722123,4.9164769109354651,4.16001306750047,3.4035492240672007,2.5309778020811522,1.6197023906263432,0.70842697917329789,-0.20284843227797872,-1.1141238437274703,-2.0253992551752229,-2.9366746666211663,-3.8479500780653519,-4.7592254895078,-5.6705009009484364,-6.7009722372427065,-7.7612439630686785,-8.821515688892811,-9.8817874147150437,-10.942059140535417,-12.002330866353866,-13.062602592170476,-14.122874317985181,-15.183146043798013,-16.24341776960901,-17.426186205758015,-18.630573070618013,-19.834959935476139,-21.039346800332495,-22.243733665186948,-23.448120530039624,-24.652507394890417,-25.856894259739409,-27.06128112458655,-28.265667989431847,-29.596172269559638,-30.940690920359579,-32.285209571157573,-33.629728221953521,-34.9742468727475,-36.3187655235394,-37.663284174329377,-39.007802825117238,-40.352321475903196,-41.696840126687071,-43.172288750569308,-44.6546297283677,-46.136970706164036,-47.619311683958308,-49.101652661750471,-50.583993639540708,-52.066334617328785,-53.548675595114752,-55.031016572898722,-56.513357550680588,0.30181129737820506,0.30181129737820506,0.30181129737820506,0.30181129737820506,0.30181129737820506,0.30181129737820506,0.30181129737820506,0.30181129737820506,0.30181129737820506,0.30181129737820506,0.30181129737820506,0.30181129737820506
DP 110,126.28544705718346,0.0026607900374645281,-71.916329780533189,-70.162630664955671,-68.408931549376163,-66.655232433794623,-64.901533318211108,-63.147834202625624,-61.394135087038073,-59.640435971448596,-57.886736855857094,-56.133037740263681,-54.381673382554581,-52.6746698660587,-50.967666349560844,-49.260662833061048,-47.553659316559227,-45.84665580005543,-44.139652283549616,-42.432648767041847,-40.725645250532068,-39.018641734020292,-37.321212206929417,-35.7099494895927,-34.09868677225402,-32.48742405491344,-30.876161337570917,-29.264898620226404,-27.65363590288,-26.042373185531659,-24.431110468181377,-22.819847750829144,-21.229406067356553,-19.756951554571348,-18.284497041784142,-16.812042528994976,-15.339588016203829,-13.867133503410702,-12.394678990615596,-10.922224477818506,-9.4497699650194527,-7.9773154522184138,-6.5401727070740465,-5.2442787014249514,-3.9483846957739122,-2.6524906901209118,-1.3565966844659723,-0.060702678809064922,1.2351913268497887,2.5310853325106017,3.8269793381733583,5.1228733438380765,6.3668475875640755,7.4550605824556522,8.5432735773492,9.6314865722447145,10.719699567142198,11.807912562041663,12.896125556943073,13.984338551846466,15.072551546751809,16.16076454165913,17.179502309883791,18.036128479639896,18.892754649398007,19.749380819158066,20.606006988920129,21.462633158684145,22.319259328450173,23.175885498218179,24.032511667988157,24.889137837760117,25.658954086276136,26.267549565200049,26.876145044125977,27.484740523053858,28.093336001983751,28.701931480915686,29.310526959849604,29.919122438785497,30.527717917723368,31.136313396663308,31.6420024529772,31.993329443634231,32.344656434293334,32.695983424954427,33.047310415617538,33.398637406282738,33.749964396949885,34.101291387619106,34.452618378290325,34.803945368963582,35.0383060568965,35.12970547351798,35.221104890141532,35.312504306767146,35.403903723394819,35.495303140024504,35.58670255665627,35.678101973290083,35.769501389925978,35.860900806563919,35.492764849785111,35.32723009803815,35.161695346293271,34.996160594550474,34.830625842809766,34.665091091071162,34.499556339334653,34.334021587600205,34.031311450462738,33.616364549629388,33.201417648798127,32.786470747969041,32.371523847142043,31.956576946317195,31.541630045494507,31.126683144673947,30.711736243855512,30.296789343039226,29.738688879425034,29.085150452099654,28.431612024776488,27.778073597455453,27.124535170136614,26.47099674281996,25.817458315505519,25.163919888193242,24.510381460883139,23.856843033575217,23.056588873845172,22.177331801615036,21.298074729387181,20.418817657161544,19.539560584938158,18.660303512717018,17.781046440498095,16.901789368281449,16.022532296067027,15.143275223854852,14.115635189181134,13.024399951775521,11.93316471437215,10.841929476971139,9.7506942395723879,8.65945900217598,7.5682237647818562,6.4769885273900085,5.3857532900004905,4.2945180526132605,3.0544147769888106,1.7646869457928815,0.47495911459929624,-0.81476871659194416,-2.1044965477808129,-3.3942243789673738,-4.68395221015153,-5.9736800413333544,-7.2634078725128735,-8.5531357036899873,-9.9917221534240781,-11.467525016584919,-12.943327879743309,-14.41913074289919,-15.894933606052616,-17.370736469203475,-18.846539332351902,-20.322342195497828,-21.798145058641232,-23.273947921782209,-24.899198886225843,-26.550824706900858,-28.202450527573426,-29.854076348243659,-31.505702168911348,-33.157327989576672,-34.8089538102395,-36.460579630899922,-38.112205451557948,-39.7638312722135,-41.566468595945338,-43.385886561550493,-45.205304527153046,-47.024722492752879,-48.844140458350189,-50.663558423944721,-52.482976389536645,-54.302394355125877,-56.121812320712451,-57.941230286296388,-59.915548095114765,-61.898020068452027,-63.88049204178666,-65.8629640151184,-67.845435988447491,-69.827907961774,-71.810379935097743,-73.792851908418626,-75.775323881736981,-77.757795855052521,0.40031515920994826,0.40031515920994826,0.40031515920994826,0.40031515920994826,0.40031515920994826,0.40031515920994826,0.40031515920994826,0.40031515920994826,0.40031515920994826,0.40031515920994826,0.40031515920994826,0.40031515920994826
DP 111,156.23473187246259,0.0015338944483357256,-49.068526836952145,-47.826697202871173,-46.584867568789015,-45.34303793470562,-44.101208300621074,-42.859378666535349,-41.617549032448345,-40.375719398360168,-39.133889764270791,-37.892060130180212,-36.652071614637677,-35.447064699582477,-34.242057784526089,-33.0370508694685,-31.832043954409727,-30.6270370393498,-29.4220301242886,-28.217023209226262,-27.012016294162692,-25.807009379097977,-24.609506300035608,-23.479538454279929,-22.349570608523045,-21.219602762765039,-20.089634917005863,-18.959667071245512,-17.829699225484017,-16.699731379721335,-15.569763533957524,-14.439795688192543,-13.32600398843881,-12.303878135419419,-11.281752282398841,-10.259626429377075,-9.2375005763541385,-8.2153747233300081,-7.1932488703046946,-6.1711230172781946,-5.1489971642505132,-4.1268713112216515,-3.1318420090340537,-2.24520019081998,-1.3585583726047434,-0.4719165543883368,0.41472526382922847,1.3013670820479677,2.1880089002678682,3.0746507184889387,3.9612925367111718,4.84793435493457,5.6953519567161885,6.4250954261567736,7.1548388955985214,7.8845823650414566,8.6143258344855571,9.3440693039308265,10.073812773377274,10.803556242824897,11.533299712273674,12.263043181723646,12.941282227347322,13.49934225559468,14.057402283843222,14.615462312092943,15.173522340343839,15.731582368595904,16.289642396849153,16.847702425103577,17.405762453359202,17.963822481615974,18.458936186813411,18.837147877819543,19.215359568826848,19.593571259835354,19.971782950845068,20.349994641855936,20.728206332868005,21.10641802388125,21.484629714895696,21.862841405911308,22.16829988194192,22.364626816308988,22.560953750677267,22.757280685046744,22.953607619417404,23.149934553789279,23.346261488162341,23.542588422536596,23.738915356912084,23.935242291288734,24.051197050066353,24.068917461578987,24.08663787309283,24.104358284607883,24.122078696124166,24.13979910764164,24.157519519160356,24.175239930680277,24.192960342201403,24.210680753723739,23.836202572966911,23.682866894995339,23.529531217024996,23.376195539055885,23.222859861088015,23.069524183121359,22.916188505155951,22.762852827191782,22.521308376267978,22.207591595173678,21.893874814080611,21.580158032988827,21.266441251898293,20.952724470809,20.639007689720962,20.3252909086342,20.01157412754867,19.697857346464424,19.295498684315923,18.83404403836542,18.3725893924162,17.911134746468253,17.449680100521604,16.988225454576231,16.526770808632133,16.065316162689321,15.603861516747783,15.142406870807539,14.593717761961608,13.99805498147084,13.4023922009814,12.806729420493248,12.211066640006418,11.615403859520885,11.019741079036677,10.424078298553786,9.8284155180721875,9.2327527375919072,8.5525688755133213,7.8361602661308059,7.1197516567496182,6.4033430473698028,5.6869344379913107,4.9705258286141767,4.2541172192383909,3.5377086098639321,2.8213000004908348,2.1048913911190783,1.3073518795621788,0.48276771146438713,-0.34181645663203519,-1.1664006247270877,-1.9909847928207547,-2.8155689609130774,-3.64015312900399,-4.4647372970935431,-5.2893214651817484,-6.113905633268554,-7.0161444766138974,-7.9377979062757165,-8.8594513359361073,-9.7811047655950354,-10.702758195252525,-11.624411624908534,-12.546065054563126,-13.467718484216238,-14.389371913867915,-15.311025343518169,-16.307558924016035,-17.317307481458784,-18.327056038900075,-19.336804596340009,-20.346553153778476,-21.356301711215551,-22.366050268651172,-23.375798826085415,-24.385547383518219,-25.395295940949612,-26.478212620163134,-27.569259859122912,-28.660307098081194,-29.7513543370379,-30.842401575993097,-31.933448814946704,-33.024496053898829,-34.1155432928493,-35.206590531798334,-36.297637770745787,-37.462094660402741,-38.630415946282504,-39.798737232160754,-40.967058518037412,-42.135379803912492,-43.303701089786024,-44.472022375657936,-45.640343661528242,-46.808664947397034,-47.976986233264242,0.23329555849871081,0.23329555849871081,0.23329555849871081,0.23329555849871081,0.23329555849871081,0.23329555849871081,0.23329555849871081,0.23329555849871081,0.23329555849871081,0.23329555849871081,0.23329555849871081,0.23329555849871081
DP 112,54.380805205638346,0.001111629222852642,-16.549896878765381,-16.204115899960041,-15.858334921154182,-15.512553942347854,-15.166772963541032,-14.82099198473373,-14.475211005925949,-14.129430027117687,-13.783649048308913,-13.437868069499686,-13.092418931943161,-12.753274840930198,-12.414130749916739,-12.074986658902768,-11.735842567888312,-11.396698476873365,-11.057554385857916,-10.718410294841988,-10.379266203825557,-10.040122112808632,-9.7023616795189387,-9.3770542965640065,-9.05174691360857,-8.7264395306526357,-8.4011321476961953,-8.075824764739254,-7.7505173817818109,-7.4252099988238669,-7.0999026158654193,-6.7745952329064663,-6.4523712456841791,-6.1476200286039457,-5.8428688115231866,-5.5381175944419185,-5.233366377360138,-4.9286151602778352,-4.6238639431950217,-4.3191127261116886,-4.0143615090278413,-3.7096102919434779,-3.410265817820151,-3.1325485710695453,-2.854831324318416,-2.5771140775667609,-2.2993968308145805,-2.0216795840618742,-1.7439623373086415,-1.4662450905548823,-1.1885278438006013,-0.910810597045793,-0.64138717387660416,-0.39684553504331144,-0.1523038962094794,0.092237742624892885,0.33677938145980563,0.58132102029525889,0.82586265913125056,1.0704042979677841,1.3149459368048548,1.5594875756424675,1.7923495530854872,1.9979585272840685,2.2035675014832066,2.4091764756829,2.6147854498831493,2.8203944240839531,3.0260033982853138,3.2316123724872288,3.4372213466897024,3.6428303208927315,3.8329495260459758,3.9943015989302859,4.15565367181517,4.3170057447006291,4.4783578175866623,4.6397098904732674,4.8010619633604454,4.9624140362481981,5.1237661091365254,5.2851181820254247,5.4268262952831279,5.5390680048997325,5.6513097145169287,5.7635514241347217,5.8757931337531017,5.9880348433720769,6.1002765529916489,6.212518262611809,6.3247599722325578,6.4370016818539089,6.5251774971607484,6.5839389361400276,6.6427003751199116,6.7014618141004174,6.7602232530815343,6.8189846920632649,6.8777461310456021,6.936507570028561,6.995269009012131,7.0540304479963156,7.0869268907113279,7.0883330715765025,7.0897392524423015,7.0911454333087462,7.0925516141758287,7.093957795043548,7.095363975911896,7.09677015678088,7.064768004320122,7.0054311868071517,6.946094369294852,6.8867575517831954,6.8274207342722191,6.7680839167618805,6.708747099252216,6.6494102817432141,6.5900734642348748,6.5307366467271919,6.4332046935018452,6.310208714755122,6.18721273600909,6.0642167572637442,5.9412207785190878,5.818224799775118,5.6952288210318356,5.5722328422892318,5.4492368635473278,5.3262408848061025,5.1602626904374596,4.9711396010789688,4.782016511721201,4.5928934223641482,4.4037703330078077,4.2146472436521858,4.0255241542972744,3.8364010649430846,3.6472779755896068,3.4581548862368452,3.2213103241703105,2.9640128968858264,2.7067154696020772,2.4494180423190857,2.1921206150368304,1.9348231877553268,1.6775257604745706,1.4202283331945518,1.1629309059152875,0.905633478636766,0.5959522226870827,0.26880903032898074,-0.058334162028352773,-0.38547735438491731,-0.71262054674070574,-1.0397637390957366,-1.3669069314499813,-1.6940501238034609,-2.021193316156181,-2.3483365085081185,-2.7323785385807207,-3.1306459503521165,-3.528913362122688,-3.9271807738924256,-4.3254481856613323,-4.7237155974294,-5.1219830091966339,-5.52025042096304,-5.9185178327286057,-6.3167852444933565,-6.7763933300293635,-7.246826922465603,-7.7172605149010147,-8.1876941073356377,-8.6581276997694321,-9.12856129220243,-9.5989948846346049,-10.069428477065962,-10.539862069496523,-11.010295661926284,-11.546228838645247,-12.089440434851825,-12.632652031057525,-13.175863627262295,-13.719075223466193,-14.262286819669157,-14.805498415871233,-15.34871001207239,-15.891921608272652,-16.435133204472,-17.047916579317381,-17.664362318934373,-18.280808058550456,-18.897253798165572,-19.513699537779793,-20.130145277393083,-20.746591017005432,-21.363036756616822,-21.979482496227323,-22.59592823583683,0.12995310900199294,0.12995310900199294,0.12995310900199294,0.12995310900199294,0.12995310900199294,0.12995310900199294,0.12995310900199294,0.12995310900199294,0.12995310900199294,0.12995310900199294,0.12995310900199294,0.12995310900199294
DP 113,188.93534773889886,0.0051154614484122726,-189.744846141407,-184.78135581218996,-179.81786548296853,-174.85437515374315,-169.89088482451371,-164.9273944952802,-159.96390416604257,-155.0004138368009,-150.03692350755509,-145.07343317830532,-140.11808692880973,-135.31747973431357,-130.51687253981319,-125.71626534530886,-120.91565815080038,-116.11505095628793,-111.31444376177137,-106.51383656725092,-101.7132293727262,-96.9126221781976,-92.145005646954232,-87.674308203645424,-83.203610760332779,-78.732913317016241,-74.262215873695723,-69.7915184303713,-65.320820987042922,-60.850123543710609,-56.379426100374431,-51.908728657034246,-47.508493677333718,-43.507550431766788,-39.506607186195865,-35.50566394062087,-31.504720695041932,-27.503777449458948,-23.50283420387197,-19.501890958280978,-15.50094771268599,-11.500004467087004,-7.61558228522743,-4.1972498652171275,-0.77891744520290762,2.6394149748152649,6.0577473948373441,9.4760798148633967,12.894412234893368,16.312744654927283,19.7310770749651,23.149409495006879,26.401780522114805,29.156261095642694,31.910741669174552,34.665222242710328,37.419702816250066,40.174183389793782,42.928663963341421,45.683144536893039,48.437625110448515,51.192105684008006,53.73288335237315,55.775012492148782,57.817141631928415,59.859270771711977,61.901399911499517,63.943529051290994,65.985658191086486,68.027787330885928,70.069916470689321,72.112045610496651,73.898855394453477,75.21149376520853,76.524132135967548,77.836770506730588,79.149408877497578,80.462047248268632,81.774685619043638,83.087323989822551,84.399962360605571,85.712600731392513,86.737653199774087,87.3313200187843,87.92498683779867,88.518653656816923,89.1123204758394,89.705987294865707,90.2996541138962,90.893320932930621,91.486987751969039,92.0806545710115,92.365630073772422,92.273309705975564,92.180989338182656,92.088668970393854,91.996348602609146,91.904028234828473,91.811707867051936,91.719387499279435,91.627067131510984,91.53474676374654,89.666652820986783,88.937878114281972,88.209103407581267,87.480328700884755,86.751553994192278,86.02277928750398,85.294004580819731,84.565229874139632,83.519458288029924,82.2143201709325,80.90918205383916,79.604043936750145,78.298905819665151,76.993767702584535,75.688629585508011,74.3834914684357,73.07835335136761,71.773215234303649,70.16133666621964,68.344959631865692,66.528582597516134,64.712205563170741,62.895828528829696,61.079451494492879,59.2630744601604,57.44669742583212,55.630320391508171,53.813943357188435,51.707784364545738,49.445584718869171,47.183385073197023,44.921185427529174,42.658985781865745,40.396786136206629,38.134586490551861,35.872386844901534,33.6101871992555,31.347987553613851,28.817067182622555,26.170976250783546,23.524885318948918,20.878794387118884,18.232703455293255,15.586612523472153,12.940521591655518,10.294430659843302,7.64833972803564,5.0022487962324247,2.109894690138717,-0.86455024433177974,-3.838995178797727,-6.8134401132591185,-9.7878850477158963,-12.762329982168213,-15.736774916615831,-18.711219851058935,-21.685664785497575,-24.660109719931516,-27.859325419314697,-31.114736465635577,-34.3701475119517,-37.625558558262973,-40.880969604569493,-44.136380650871132,-47.391791697167953,-50.647202743459964,-53.902613789747178,-57.158024836029661,-60.6204868603204,-64.119489594929746,-67.618492329534291,-71.117495064134388,-74.61649779872954,-78.115500533320159,-81.614503267905931,-85.113506002486986,-88.612508737063436,-92.1115114716352,-95.804919382856227,-99.519929910970617,-103.23494043907986,-106.94995096718407,-110.66496149528332,-114.37997202337711,-118.09498255146595,-121.8099930795497,-125.52500360762826,-129.24001413570184,-133.14481959549667,-137.05961615060517,-140.97441270570863,-144.88920926080658,-148.80400581589944,-152.71880237098716,-156.63359892606971,-160.54839548114674,-164.46319203621883,-168.37798859128546,0.77410510253201337,0.77410510253201337,0.77410510253201337,0.77410510253201337,0.77410510253201337,0.77410510253201337,0.77410510253201337,0.77410510253201337,0.77410510253201337,0.77410510253201337,0.77410510253201337,0.77410510253201337
DP 114,198.31852396781298,0.0035933524964086639,-138.28697060138782,-134.63862257161014,-130.99027454182954,-127.34192651204616,-123.69357848225962,-120.04523045247045,-116.39688242267847,-112.74853439288346,-109.10018636308578,-105.45183833328494,-101.80963924390683,-98.284271185035578,-94.758903126161485,-91.233535067284492,-87.708167008404672,-84.18279894952191,-80.657430890636434,-77.132062831748115,-73.606694772856827,-70.081326713962724,-66.58082436003977,-63.304115701229975,-60.027407042417344,-56.750698383601971,-53.473989724783962,-50.197281065963004,-46.92057240713936,-43.643863748312974,-40.367155089483788,-37.090446430651845,-33.86670945367586,-30.9431486785474,-28.0195879034161,-25.096027128282014,-22.172466353145104,-19.248905578005374,-16.325344802862812,-13.401784027717442,-10.478223252569267,-7.5546624774182884,-4.7183795684245418,-2.2312122488906749,0.25595507064594153,2.7431223901853379,5.2302897097274856,7.71745702927241,10.2046243488201,12.691791668370566,15.178958987923771,17.666126307479754,20.029548272560284,22.021729495568227,24.013910718578941,26.006091941592409,27.998273164608676,29.990454387627722,31.982635610649552,33.97481683367414,35.966998056701463,37.959179279731643,39.792888673812762,41.256824225762678,42.720759777715436,44.184695329670866,45.648630881629131,47.112566433590224,48.57650198555406,50.040437537520681,51.504373089490052,52.968308641462258,54.244108597906674,55.170508796123784,56.09690899434365,57.023309192566408,57.949709390791888,58.876109589020174,59.802509787251275,60.728909985485188,61.6553101837219,62.581710381961365,63.297710375452809,63.698105089986036,64.098499804522092,64.498894519060983,64.899289233602644,65.299683948147219,65.700078662694551,66.100473377244739,66.500868091797727,66.9012628063535,67.077604935872884,66.9801003108404,66.882595685810657,66.78509106078387,66.6875864357599,66.590081810738809,66.492577185720521,66.39507256070506,66.297567935692513,66.200063310682779,64.76271188227939,64.207271370237379,63.651830858198387,63.096390346162295,62.540949834129044,61.985509322098693,61.4300688100712,60.874628298046638,60.09325970133456,59.127036970778953,58.160814240226188,57.194591509676407,56.228368779129546,55.262146048585606,54.295923318044615,53.329700587506608,52.363477856971528,51.397255126439418,50.214649654610675,48.88778561311738,47.560921571627134,46.234057530139886,44.907193488655658,43.58032944717435,42.253465405696119,40.926601364220829,39.599737322748574,38.272873281279288,36.743848369740483,35.105964665314367,33.4680809608914,31.830197256471422,30.192313552054568,28.554429847640769,26.916546143230029,25.278662438822398,23.640778734417761,22.00289503001623,20.179770941884314,18.277254991222723,16.374739040564155,14.472223089908828,12.569707139256598,10.667191188607523,8.7646752379615975,6.8621592873187538,4.9596433366790995,3.057127386042569,0.98700429176663729,-1.1389899627136235,-3.264984217190698,-5.3909784716645861,-7.5169727261352328,-9.6429669806027558,-11.768961235066989,-13.894955489528053,-16.020949743985994,-18.146943998440641,-20.423892422604769,-22.738581172742329,-25.053269922876559,-27.367958673007433,-29.682647423134924,-31.997336173259015,-34.312024923379767,-36.626713673497115,-38.941402423611109,-41.256091173721771,-43.708018178309395,-46.184165224500774,-48.6603122706888,-51.136459316873655,-53.612606363055086,-56.088753409233263,-58.564900455408122,-61.041047501579719,-63.51719454774797,-65.993341593913058,-68.596831019227352,-71.214470935173864,-73.832110851116823,-76.449750767056216,-79.067390682992027,-81.6850305989242,-84.302670514852835,-86.920310430777775,-89.537950346699262,-92.1555902626172,-94.896526178044383,-97.643952583347513,-100.39137898864712,-103.13880539394303,-105.88623179923518,-108.6336582045237,-111.38108460980877,-114.12851101508996,-116.87593742036762,-119.62336382564146,0.541969422418255,0.541969422418255,0.541969422418255,0.541969422418255,0.541969422418255,0.541969422418255,0.541969422418255,0.541969422418255,0.541969422418255,0.541969422418255,0.541969422418255,0.541969422418255
DP 115,101.92917121102656,0.0013753191104966152,-31.482016775133712,-30.74306777048097,-30.004118765827286,-29.265169761172629,-28.52622075651702,-27.787271751860491,-27.048322747202967,-26.309373742544508,-25.570424737885073,-24.831475733224714,-24.0934149004968,-23.372229502406562,-22.651044104315417,-21.929858706223278,-21.208673308130209,-20.487487910036187,-19.766302511941205,-19.045117113845254,-18.323931715748337,-17.602746317650482,-16.885222999842171,-16.200658750793615,-15.516094501744108,-14.831530252693682,-14.146966003642309,-13.462401754589994,-12.777837505536745,-12.093273256482565,-11.408709007427444,-10.724144758371382,-10.047606250731373,-9.4165474501913984,-8.7854886496504676,-8.1544298491085829,-7.5233710485657479,-6.8923122480219439,-6.2612534474771833,-5.6301946469314634,-4.9991358463847941,-4.3680770458371647,-3.7507781483352138,-3.1885195133229911,-2.6262608783098251,-2.0640022432957044,-1.5017436082806419,-0.939484973264622,-0.37722633824765661,0.1850322967702614,0.74729093178912487,1.3095495668089383,1.8512981028556341,2.331515566522611,2.8117330301905437,3.2919504938594382,3.772167957529287,4.2523854212000955,4.7326028848718718,5.2128203485446,5.6930378122182823,6.173255275892938,6.62556640194859,7.0127616411651674,7.3999568803827147,7.7871521196012345,8.1743473588207181,8.5615425980411679,8.948737837262593,9.3359330764849844,9.72312831570835,10.110323554932672,10.46196144236839,10.747563287643324,11.033165132919235,11.318766978196132,11.60436882347401,11.889970668752879,12.175572514032714,12.461174359313539,12.746776204595346,13.03237804987813,13.274872856425894,13.452706086235381,13.630539316045853,13.808372545857317,13.986205775669788,14.164039005483245,14.341872235297721,14.519705465113164,14.697538694929609,14.875371924747062,15.002956787522605,15.069125924013457,15.13529506050531,15.201464196998185,15.267633333492084,15.333802469986988,15.399971606482897,15.466140742979846,15.532309879477802,15.598479015976757,15.51321672583942,15.465877767909392,15.418538809980394,15.371199852052438,15.323860894125513,15.276521936199631,15.229182978274762,15.181844020350953,15.072026542389825,14.911089201569277,14.750151860749794,14.589214519931369,14.428277179114,14.267339838297691,14.106402497482438,13.945465156668259,13.784527815855132,13.623590475043056,13.395279511376625,13.122051737765734,12.848823964155939,12.575596190547218,12.302368416939593,12.029140643333044,11.755912869727606,11.482685096123211,11.209457322519938,10.93622954891773,10.591522660025483,10.208325977314828,9.8251292946053113,9.4419326118968829,9.0587359291895737,8.6755392464833818,8.2923425637783,7.9091458810743269,7.5259491983714737,7.1427525156697245,6.6846457978633342,6.1944335149025633,5.7042212319429231,5.2140089489844605,4.7237966660271313,4.2335843830709594,3.7433721001159386,3.2531598171620542,2.7629475342093337,2.27273525125776,1.7046561797725417,1.110620530767249,0.51658488176312933,-0.077450767239815241,-0.67148641624157279,-1.2655220652421748,-1.8595577142415745,-2.4535933632398055,-3.0476290122368792,-3.6416646612327517,-4.3162307779642228,-5.0109304631095437,-5.7056301482536353,-6.4003298333964675,-7.0950295185380563,-7.7897292036783767,-8.48442888881746,-9.1791285739552855,-9.8738282590918551,-10.568527944227197,-11.346523115695298,-12.139218416891495,-12.93191371808644,-13.724609019280219,-14.517304320472759,-15.309999621664058,-16.102694922854131,-16.895390224043005,-17.688085525230633,-18.480780826417082,-19.359668898828748,-20.24813485104799,-21.136600803265921,-22.025066755482484,-22.913532707697737,-23.801998659911629,-24.690464612124213,-25.5789305643354,-26.46739651654531,-27.355862468753831,-28.334097853607776,-29.317058838612745,-30.300019823616353,-31.282980808618628,-32.265941793619476,-33.248902778619055,-34.231863763617213,-35.214824748613928,-36.197785733609386,-37.180746718603395,0.2006683229069009,0.2006683229069009,0.2006683229069009,0.2006683229069009,0.2006683229069009,0.2006683229069009,0.2006683229069009,0.2006683229069009,0.2006683229069009,0.2006683229069009,0.2006683229069009,0.2006683229069009
DP 116,193.5198449681285,0.0011926826585214926,-45.055462668044335,-43.871901552897818,-42.688340437750391,-41.504779322601969,-40.321218207452588,-39.137657092302263,-37.954095977151006,-36.770534861998748,-35.586973746845587,-34.403412631691438,-33.221819332744865,-32.077614913764037,-30.933410494782233,-29.78920607579947,-28.645001656815783,-27.500797237831165,-26.356592818845577,-25.212388399859091,-24.068183980871641,-22.923979561883247,-21.787739831739628,-20.723183054043165,-19.65862627634576,-18.594069498647467,-17.529512720948258,-16.464955943248118,-15.400399165547068,-14.335842387845082,-13.27128561014219,-12.206728832438383,-11.1591615021168,-10.207868777546897,-9.2565760529760652,-8.3052833284043128,-7.3539906038316163,-6.4026978792579916,-5.4514051546834219,-4.5001124301079232,-3.5488197055314905,-2.5975269809541279,-1.6742794176511353,-0.863213824885419,-0.052148232118788107,0.75891736064876458,1.5699829534172276,2.3810485461866175,3.1921141389569225,4.003179731728145,4.8142453245002832,5.6253109172733406,6.396520953106398,7.0481628112341115,7.6998046693627522,8.3514465274923229,9.00308838562281,9.6547302437542246,10.306372101886542,10.958013960019796,11.609655818153964,12.261297676289061,12.861756481054869,13.342786145500384,13.823815809946829,14.304845474394195,14.785875138842494,15.266904803291707,15.747934467741853,16.228964132192903,16.709993796644905,17.19102346109781,17.611091853489722,17.917944808581758,18.224797763674768,18.531650718768663,18.83850367386351,19.145356628959277,19.452209584055986,19.759062539153607,20.065915494252167,20.372768449351646,20.611196991402331,20.746987296985083,20.882777602568783,21.018567908153468,21.154358213739048,21.290148519325577,21.425938824913047,21.56172913050144,21.697519436090786,21.83330974168106,21.895939799210474,21.8691502390621,21.842360678914655,21.815571118768162,21.788781558622649,21.761991998478042,21.735202438334397,21.708412878191695,21.68162331804994,21.654833757909124,21.198974051680793,21.021987797285636,20.845001542891438,20.668015288498214,20.49102903410596,20.314042779714644,20.137056525324304,19.960070270934917,19.708624037359755,19.3962547229846,19.083885408610424,18.771516094237221,18.459146779865009,18.146777465493752,17.834408151123494,17.522038836754202,17.209669522385894,16.897300208018564,16.513242679094066,16.081391877786352,15.649541076479631,15.217690275173897,14.785839473869162,14.353988672565414,13.922137871262692,13.490287069960937,13.058436268660184,12.626585467360433,12.127378904749307,11.591902875807548,11.05642684686682,10.520950817927115,9.98547478898842,9.4499987600507431,8.9145227311140864,8.3790467021784636,7.84357067324384,7.3080946443102448,6.7105239887883652,6.08634030235687,5.4621566159263928,4.8379729294969822,4.2137892430685993,3.5896055566412737,2.9654218702149873,2.3412381837897271,1.7170544973655286,1.0928708109423664,0.4121372809092374,-0.28744690968202175,-0.98703110027222152,-1.6866152908613614,-2.386199481449427,-3.0857836720364507,-3.7853678626223815,-4.484952053207258,-5.1845362437910989,-5.88412043437385,-6.6349829634769861,-7.3986656830714734,-8.16234840266487,-8.9260311222571236,-9.6897138418482722,-10.45339656143828,-11.217079281027184,-11.980762000614954,-12.744444720201601,-13.508127439787168,-14.318743367993928,-15.137642149037456,-15.956540930079885,-16.775439711121244,-17.594338492161484,-18.413237273200643,-19.232136054238659,-20.051034835275626,-20.869933616311481,-21.688832397346246,-22.551544933881562,-23.419126125619613,-24.286707317356473,-25.154288509092133,-26.021869700826656,-26.889450892559903,-27.757032084292042,-28.624613276022913,-29.49219446775265,-30.359775659481162,-31.269959506084241,-32.182386021559452,-33.094812537033441,-34.007239052506193,-34.919665567977788,-35.832092083448138,-36.744518598917267,-37.656945114385181,-38.569371629851894,-39.481798145317356,0.1802064017862717,0.1802064017862717,0.1802064017862717,0.1802064017862717,0.1802064017862717,0.1802064017862717,0.1802064017862717,0.1802064017862717,0.1802064017862717,0.1802064017862717,0.1802064017862717,0.1802064017862717
DP 117,189.55306813434098,0.0025262065173133181,-93.937158584218849,-91.47847489967458,-89.019791215128109,-86.56110753057979,-84.102423846029353,-81.643740161476842,-79.185056476922441,-76.726372792365908,-74.2676891078074,-71.80900542324693,-69.3543630567196,-66.976506496848543,-64.598649936975519,-62.220793377100357,-59.84293681722334,-57.465080257344304,-55.087223697463251,-52.709367137580195,-50.331510577695134,-47.953654017808105,-45.592167051695746,-43.378007976854526,-41.163848902011367,-38.949689827166253,-36.735530752319178,-34.521371677470192,-32.307212602619266,-30.093053527766354,-27.878894452911549,-25.664735378054775,-23.485532902190045,-21.504420023395305,-19.52330714459859,-17.542194265799889,-15.561081386999218,-13.579968508196581,-11.598855629391933,-9.6177427505853146,-7.636629871776738,-5.65551699296617,-3.7321966364594856,-2.0400491004955335,-0.34790156452964754,1.3442459714381898,3.036393507407956,4.7285410433796864,6.4206885793533424,8.11283611532896,9.8049836513065,11.497131187285998,13.106990183351551,14.46998044845558,15.832970713561563,17.195960978669497,18.558951243779376,19.921941508891209,21.284931774004995,22.647922039120729,24.010912304238413,25.373902569358048,26.630969334562383,27.6408770949429,28.650784855325416,29.66069261570988,30.670600376096278,31.680508136484644,32.690415896874988,33.700323657267283,34.7102314176615,35.720139178057707,36.603550496351993,37.252036434560416,37.900522372770844,38.549008310983218,39.197494249197533,39.845980187413836,40.494466125632123,41.1429520638524,41.791438002074557,42.439923940298762,42.945994146503516,43.238437389341705,43.530880632181848,43.82332387502403,44.115767117868167,44.408210360714321,44.7006536035624,44.99309684641252,45.285540089264607,45.57798333211867,45.717639755553165,45.670553523777585,45.623467292004086,45.576381060232549,45.529294828463065,45.482208596695536,45.435122364930038,45.388036133166551,45.340949901405061,45.293863669645582,44.365529682079817,44.003612738249181,43.641695794420563,43.279778850593985,42.917861906769446,42.55594496294696,42.194028019126534,41.832111075308084,41.313485922537275,40.666642269299139,40.019798616063113,39.37295496282912,38.726111309597215,38.079267656367371,37.4324240031396,36.785580349913914,36.138736696690273,35.491893043468735,34.693515485126845,33.794112936171757,32.894710387218751,31.995307838267912,31.095905289319138,30.196502740372459,29.297100191427983,28.397697642485518,27.498295093545249,26.598892544607011,25.556439357011545,24.43695682224012,23.31747428747089,22.197991752703768,21.07850921793883,19.959026683176038,18.83954414841541,17.720061613656959,16.600579078900655,15.481096544146505,14.229065703020558,12.920226207614755,11.611386712211116,10.302547216809748,8.9937077214105461,7.6848682260135917,6.3760287306188479,5.06718923522627,3.7583497398359462,2.4495102444478229,1.0193028698859785,-0.45136199397936677,-1.9220268578424664,-3.3926917217033155,-4.8633565855618883,-6.3340214494182616,-7.8046863132723052,-9.2753511771241239,-10.746016040973728,-12.216680904821043,-13.798023743330603,-15.407037383182638,-17.016051023032322,-18.62506466287963,-20.234078302724562,-21.8430919425671,-23.45210558240726,-25.061119222245065,-26.670132862080436,-28.279146501913527,-29.990024441767428,-31.718879567310974,-33.44773469285218,-35.17658981839115,-36.9054449439277,-38.634300069461972,-40.363155194993837,-42.092010320523457,-43.820865446050774,-45.549720571575733,-47.374144715160966,-49.209188642229357,-51.044232569295282,-52.879276496358635,-54.714320423419565,-56.549364350477887,-58.384408277533694,-60.219452204586936,-62.054496131637734,-63.889540058685967,-65.817835938751287,-67.751040744162111,-69.684245549570463,-71.617450354976057,-73.550655160379222,-75.483859965779828,-77.41706477117782,-79.350269576573154,-81.283474381965974,-83.216679187356121,0.38220620118121867,0.38220620118121867,0.38220620118121867,0.38220620118121867,0.38220620118121867,0.38220620118121867,0.38220620118121867,0.38220620118121867,0.38220620118121867,0.38220620118121867,0.38220620118121867,0.38220620118121867
DP 118,70.698534023336492,0.0053204808190761513,-93.827536251713937,-91.767503121467655,-89.707469991218446,-87.647436860966366,-85.587403730711131,-83.527370600453054,-81.467337470191936,-79.407304339927819,-77.347271209660775,-75.287238079390747,-73.22933573299126,-71.211918682999269,-69.194501633004222,-67.177084583006248,-65.159667533005177,-63.142250483001121,-61.1248334329941,-59.107416382984091,-57.089999332971054,-55.072582282955,-53.064018122527763,-51.135130805214459,-49.206243487898185,-47.277356170578948,-45.348468853256691,-43.419581535931442,-41.490694218603217,-39.561806901271964,-37.632919583937728,-35.704032266600549,-33.79476138671248,-31.99665155517031,-30.198541723625059,-28.400431892076757,-26.602322060525406,-24.804212228970957,-23.006102397413486,-21.20799256585293,-19.409882734289326,-17.611772902722638,-15.847806263871625,-14.220414009527236,-12.593021755179784,-10.965629500829261,-9.3382372464756731,-7.7108449921189939,-6.0834527377592531,-4.4560604833964295,-2.8286682290305478,-1.2012759746615929,0.37423819184335544,1.7941161333114186,3.2139940747826059,4.6338720162569214,6.0537499577343654,7.473627899214943,8.89350584069864,10.313383782185468,11.733261723675408,13.153139665168496,14.500778623764276,15.679857110546315,16.858935597331538,18.038014084119951,19.217092570911564,20.396171057706347,21.575249544504338,22.754328031305487,23.933406518109837,25.11248500491736,26.196999093299812,27.105891030785013,28.014782968273487,28.923674905765203,29.8325668432602,30.741458780758428,31.650350718259912,32.559242655764649,33.46813459327263,34.377026530783894,35.167706187021977,35.781064627948844,36.394423068879014,37.007781509812489,37.621139950749345,38.234498391689492,38.847856832632971,39.4612152735798,40.074573714529947,40.68793215548348,41.158726638991332,41.455273291097221,41.751819943206549,42.048366595319209,42.344913247435336,42.6414598995549,42.938006551677852,43.234553203804253,43.531099855934045,43.827646508067239,43.881827656290547,43.844190153413415,43.806552650539786,43.768915147669681,43.731277644803079,43.693640141939944,43.656002639080391,43.618365136224341,43.389379297926808,43.003832442173994,42.618285586424818,42.232738730679237,41.847191874937259,41.461645019198954,41.076098163464245,40.690551307733131,40.305004452005669,39.919457596281852,39.318900158728681,38.574998946105865,37.831097733486786,37.087196520871437,36.343295308259847,35.599394095651931,34.855492883047795,34.111591670447389,33.367690457850742,32.6237892452578,31.642006486593317,30.532130205445622,29.422253924301803,28.312377643161778,27.202501362025618,26.092625080893303,24.982748799764828,23.872872518640218,22.762996237519424,21.653119956402485,20.283381062582777,18.802268091421968,17.321155120265082,15.840042149112275,14.35892917796343,12.877816206818618,11.396703235677805,9.91559026454095,8.43447729340815,6.9533643222793309,5.1912208448596555,3.33539699022885,1.4795731356021484,-0.37625071902044194,-2.2320745736388874,-4.0878984282532835,-5.9437222828634884,-7.799546137469588,-9.6553699920716447,-11.511193846669517,-13.668315382209258,-15.900764897863464,-18.133214413513333,-20.365663929158789,-22.598113444799846,-24.830562960436453,-27.063012476068728,-29.295461991696566,-31.527911507319978,-33.760361022939087,-36.314132629355356,-38.924611707295142,-41.535090785230537,-44.145569863161832,-46.756048941088629,-49.366528019011284,-51.977007096929505,-54.587486174843512,-57.197965252753193,-59.808444330658524,-62.75931069859152,-65.748001451395908,-68.7366922041955,-71.725382956990387,-74.7140737097806,-77.702764462565867,-80.69145521534648,-83.680145968122247,-86.668836720893367,-89.657527473659712,-93.005974565155469,-96.373359780226124,-99.740744995291962,-103.108130210353,-106.47551542540897,-109.84290064046039,-113.21028585550684,-116.57767107054818,-119.94505628558491,-123.31244150061642,0.69992012758313138,0.69992012758313138,0.69992012758313138,0.69992012758313138,0.69992012758313138,0.69992012758313138,0.69992012758313138,0.69992012758313138,0.69992012758313138,0.69992012758313138,0.69992012758313138,0.69992012758313138
DP 119,86.206753541397831,0.0024545767236555005,-49.653929064675637,-48.523329892990944,-47.39273072130473,-46.262131549616846,-45.131532377927506,-44.00093320623656,-42.870334034544015,-41.739734862849893,-40.609135691154187,-39.478536519456938,-38.349199606428641,-37.243845846762987,-36.13849208709577,-35.033138327426983,-33.927784567756575,-32.822430808084633,-31.717077048411127,-30.61172328873603,-29.506369529059381,-28.401015769381097,-27.300885496480831,-26.247767098328055,-25.194648700173712,-24.141530302017813,-23.088411903860347,-22.035293505701365,-20.982175107540794,-19.92905670937871,-18.875938311215045,-17.822819913049848,-16.781212577712825,-15.804835323773403,-14.828458069832404,-13.852080815889821,-12.875703561945636,-11.899326307999869,-10.922949054052506,-9.94657180010355,-8.9701945461530119,-7.993817292200891,-7.0373232016970038,-6.1603627046851992,-5.2834022076718208,-4.4064417106568561,-3.5294812136403206,-2.6525207166221922,-1.77556021960249,-0.89859972258120058,-0.021639225558335948,0.85532127146611048,1.702361444656912,2.45963951509757,3.2169175855398304,3.9741956559836882,4.7314737264291544,5.4887517968762216,6.2460298673248866,7.0033079377751646,7.7605860082270315,8.51786407868051,9.2339616848490174,9.8539699191709875,10.473978153494588,11.093986387819802,11.713994622146643,12.334002856475109,12.954011090805212,13.574019325136911,14.194027559470257,14.814035793805212,15.380860422195317,15.848914060402535,16.316967698611403,16.785021336821931,17.253074975034096,17.721128613247902,18.189182251463372,18.657235889680493,19.12528952789927,19.593343166119663,19.995921543977104,20.300285484084661,20.604649424193909,20.909013364304805,21.213377304417385,21.517741244531663,21.822105184647615,22.126469124765258,22.430833064884563,22.735197005005553,22.961915270141969,23.093731634922754,23.225547999705256,23.357364364489431,23.489180729275372,23.620997094063007,23.752813458852359,23.88462982364344,24.016446188436205,24.148262553230715,24.096894037310019,24.049983020117406,24.003072002926572,23.9561609857375,23.909249968550156,23.862338951364592,23.815427934180775,23.768516916998703,23.621215339034006,23.391774304236449,23.162333269440673,22.932892234646694,22.703451199854502,22.47401016506414,22.244569130275554,22.015128095488809,21.78568706070384,21.556246025920672,21.216213991617934,20.802452882099448,20.388691772582824,19.974930663068044,19.561169553555104,19.147408444044039,18.733647334534826,18.319886225027442,17.906125115521945,17.492364006018278,16.958666186894302,16.360385318500512,15.762104450108644,15.163823581718665,14.565542713330595,13.967261844944407,13.368980976560124,12.770700108177753,12.172419239797271,11.574138371418695,10.847365066219826,10.06552140500769,9.2836777437974973,8.5018340825893191,7.7199904213830841,6.9381467601788387,6.1563030989765544,5.3744594377762258,4.5926157765778886,3.8107721153815182,2.8924970746221765,1.9287431879198171,0.96498930121947757,0.0012354145211511092,-0.96251847217513753,-1.9262723588694404,-2.890026245561681,-3.8537801322519156,-4.817534018940159,-5.7812879056263453,-6.8889262507402425,-8.03253741047831,-9.17614857021426,-10.319759729948045,-11.463370889679675,-12.60698204940914,-13.750593209136456,-14.894204368861624,-16.037815528584645,-17.181426688305535,-18.476379798993957,-19.798041995738391,-21.119704192480658,-22.441366389220907,-23.763028585959006,-25.084690782694995,-26.406352979428878,-27.728015176160671,-29.049677372890365,-30.371339569617955,-31.851653084447143,-33.349596189722284,-34.847539294995137,-36.345482400265659,-37.843425505533908,-39.341368610799805,-40.839311716063385,-42.337254821324656,-43.8351979265836,-45.333141031840263,-46.99767548807327,-48.670979567664062,-50.344283647252588,-52.0175877268387,-53.690891806422385,-55.364195886003849,-57.037499965582882,-58.710804045159485,-60.384108124733736,-62.057412204305621,0.34443123562432881,0.34443123562432881,0.34443123562432881,0.34443123562432881,0.34443123562432881,0.34443123562432881,0.34443123562432881,0.34443123562432881,0.34443123562432881,0.34443123562432881,0.34443123562432881,0.34443123562432881
DP 120,58.006178643258338,0.0025744558863994909,-39.925629343312842,-39.08097055267239,-38.236311762030773,-37.391652971387892,-36.54699418074383,-35.702335390098582,-34.857676599452105,-34.01301780880447,-33.16835901815557,-32.323700227505505,-31.479864743009195,-30.651672231098495,-29.82347971918659,-28.995287207273446,-28.167094695359086,-27.338902183443505,-26.510709671526676,-25.682517159608658,-24.854324647689385,-24.0261321357689,-23.20136926151228,-22.407473450415544,-21.613577639317569,-20.819681828218368,-20.025786017117934,-19.231890206016253,-18.437994394913325,-17.644098583809175,-16.850202772703778,-16.056306961597169,-15.270045341853958,-14.527044620907406,-13.7840438999596,-13.041043179010522,-12.298042458060166,-11.555041737108533,-10.812041016155648,-10.069040295201489,-9.3260395742460691,-8.5830388532893824,-7.8534049057376505,-7.1772386835340578,-6.5010724613291906,-5.8249062391230364,-5.1487400169155979,-4.4725737947068609,-3.7964075724968445,-3.1202413502855393,-2.4440751280729485,-1.7679089058590716,-1.1122058662519438,-0.51789314815225285,0.07641956994875615,0.67073228805108431,1.2650450061547323,1.8593577242596997,2.4536704423659836,3.0479831604735903,3.6422958785825088,4.236608596692748,4.8021703514765228,5.300645392840563,5.7991204342059568,6.2975954755727042,6.7960705169408087,7.2945455583102552,7.7930205996810722,8.29149564105323,8.7899706824267483,9.2884457238016154,9.7488918126758843,10.13871167703271,10.528531541390919,10.918351405750531,11.308171270111524,11.6979911344739,12.087810998837682,12.47763086320284,12.86745072756942,13.257270591937369,13.599002664744043,13.868601913875803,14.138201163009,14.407800412143631,14.677399661279708,14.946998910417205,15.216598159556144,15.48619740869651,15.75579665783831,16.025395906981554,16.236268870246832,16.37536402835099,16.514459186456616,16.653554344563727,16.792649502672333,16.931744660782396,17.070839818893958,17.209934977006995,17.349030135121517,17.488125293237509,17.556661134924095,17.556256176265411,17.555851217608264,17.555446258952639,17.555041300298555,17.554636341645988,17.554231382994992,17.553826424345505,17.472440922400075,17.32479722059502,17.177153518791517,17.029509816989634,16.881866115189325,16.734222413390608,16.586578711593479,16.438935009797945,16.291291308003984,16.143647606211623,15.90373270195661,15.60230220912597,15.300871716296975,14.999441223469638,14.698010730643944,14.396580237819903,14.095149744997522,13.793719252176773,13.492288759357676,13.190858266540239,12.785933952161409,12.325280690422149,11.864627428684607,11.40397416694875,10.943320905214602,10.482667643482149,10.022014381751394,9.56136112002234,9.1007078582949852,8.6400545965693265,8.0648531463074384,7.4405576818027974,6.816262217299915,6.191966752798848,5.5676712882995369,4.9433758238020244,4.3190803593062945,3.6947848948123303,3.07048943032017,2.44619396582978,1.6965149677216582,0.905039878219757,0.11356478871968857,-0.67791030077854364,-1.4693853902749245,-2.2608604797694958,-3.052335569262195,-3.8438106587530654,-4.6352857482421213,-5.4267608377293142,-6.3540920967608,-7.3153890033401474,-8.276685909917548,-9.2379828164929521,-10.199279723066384,-11.160576629637809,-12.121873536207275,-13.083170442774749,-14.044467349340241,-15.005764255903786,-16.113223858635688,-17.246478503688564,-18.379733148739469,-19.512987793788515,-20.646242438835579,-21.779497083880731,-22.912751728923926,-24.046006373965213,-25.179261019004546,-26.312515664042,-27.601614914592254,-28.908031869157153,-30.214448823719945,-31.520865778280545,-32.827282732839052,-34.133699687395385,-35.440116641949572,-36.746533596501564,-38.052950551051467,-39.3593675055992,-40.831165584821434,-42.311669579239222,-43.792173573654914,-45.272677568068325,-46.75318156247954,-48.233685556888553,-49.714189551295327,-51.194693545699849,-52.675197540102218,-54.155701534502342,0.31094251677836865,0.31094251677836865,0.31094251677836865,0.31094251677836865,0.31094251677836865,0.31094251677836865,0.31094251677836865,0.31094251677836865,0.31094251677836865,0.31094251677836865,0.31094251677836865,0.31094251677836865
DP 121,294.1275919752062,0.0059811377030426962,-303.95779975159053,-295.33308077279162,-286.70836179398805,-278.0836428151797,-269.45892383636686,-260.8342048575492,-252.20948587872684,-243.58476689989985,-234.96004792106808,-226.33532894223168,-217.7290041126962,-209.47217159727728,-201.21533908185384,-192.9585065664258,-184.70167405099309,-176.4448415355557,-168.18800902011378,-159.931176504667,-151.67434398921571,-143.41751147375979,-135.23384184549019,-127.7086451174187,-120.18344838934276,-112.65825166126231,-105.13305493317738,-97.607858205087865,-90.082661476994033,-82.557464748895484,-75.032268020792586,-67.507071292685112,-60.133674251647044,-53.620485002937578,-47.107295754223536,-40.594106505504968,-34.080917256781866,-27.567728008054154,-21.054538759321851,-14.541349510584981,-8.02816026184358,-1.5149710130976159,4.7570398005272629,10.064325475366452,15.371611150210089,20.67889682505821,25.986182499910793,31.293468174767867,36.600753849629427,41.908039524495464,47.215325199365935,52.5226108742409,57.503177814032036,61.503576195779168,65.503974577530769,69.504372959286954,73.504771341047586,77.50516972281271,81.505568104582267,85.505966486356314,89.506364868134824,93.506763249917867,97.110869403020672,99.790278081636771,102.46968676025729,105.14909543888226,107.8285041175118,110.50791279614575,113.18732147478427,115.86673015342721,118.5461388320747,121.22554751072677,123.46292694900683,124.87938300337545,126.29583905774852,127.71229511212597,129.128751166508,130.54520722089464,131.96166327528559,133.37811932968123,134.79457538408127,136.21103143848578,137.1664752070304,137.43038965289196,137.69430409875804,137.95821854462861,138.2221329905037,138.48604743638342,138.74996188226754,139.01387632815633,139.27779077404955,139.54170521994723,139.35093761313263,138.60443794695308,137.85793828077823,137.11143861460798,136.36493894844233,135.61843928228123,134.87193961612468,134.12543994997259,133.37894028382519,132.63244061768242,128.25500751273543,126.6533325873597,125.0516576619887,123.44998273662223,121.84830781126047,120.24663288590321,118.64495796055061,117.04328303520273,115.05575734205335,112.75252893503607,110.44930052802334,108.14607212101527,105.842843714012,103.53961530701349,101.23638690001954,98.93315849303039,96.62993008604586,94.326701679066034,91.687593374404585,88.824559846648739,85.961526318897725,83.0984927911514,80.235459263409936,77.37242573567319,74.5093922079412,71.646358680213964,68.783325152491628,65.920291624773924,62.773884471818313,59.474887399909377,56.1758903280053,52.876893256106037,49.577896184211625,46.2788991123221,42.979902040437295,39.680904968557506,36.381907896682435,33.082910824812288,29.551092531897186,25.919489785920465,22.287887039948515,18.656284293981745,15.024681548019839,11.393078802062988,7.7614760561111078,4.1298733101641183,0.49827056422221117,-3.1333321817147493,-6.9523829162651838,-10.833918676061128,-14.715454435852022,-18.596990195637868,-22.478525955418551,-26.360061715194316,-30.241597474964834,-34.123133234730361,-38.0046689944909,-41.886204754246236,-45.916801994483031,-49.984666366022317,-54.052530737556317,-58.120395109084974,-62.188259480608316,-66.256123852126223,-70.323988223638878,-74.3918525951461,-78.459716966648116,-82.527581338144813,-86.714733506906853,-90.9229377899161,-95.131142072919985,-99.339346355918877,-103.54755063891224,-107.75575492190072,-111.96395920488372,-116.17216348786162,-120.38036777083433,-124.58857205380176,-128.89469465320192,-133.21169809390835,-137.52870153460913,-141.84570497530413,-146.16270841599359,-150.47971185667728,-154.79671529735563,-159.11371873802784,-163.43072217869494,-167.74772561935592,-172.15128913289342,-176.55940930097381,-180.9675294690484,-185.37564963711716,-189.78376980518044,-194.19188997323769,-198.60001014128932,-203.00813030933512,-207.41625047737546,-211.82437064540969,0.85533221471447307,0.85533221471447307,0.85533221471447307,0.85533221471447307,0.85533221471447307,0.85533221471447307,0.85533221471447307,0.85533221471447307,0.85533221471447307,0.85533221471447307,0.85533221471447307,0.85533221471447307
DP 122,86.101737630493176,0.0039612693297862963,-80.062983296397931,-78.240389115458555,-76.417794934516692,-74.595200753572271,-72.772606572625264,-70.950012391675756,-69.127418210723647,-67.304824029769122,-65.482229848811969,-63.659635667852235,-61.83907522359376,-60.057156161171953,-58.27523709874756,-56.4933180363206,-54.711398973891114,-52.929479911459111,-51.147560849024529,-49.36564178658746,-47.583722724147833,-45.801803661705627,-44.0283013248944,-42.330550314345459,-40.632799303794023,-38.935048293240079,-37.237297282683635,-35.539546272124696,-33.841795261563256,-32.1440442509993,-30.44629324043283,-28.748542229863872,-27.069338657037978,-25.495238400191894,-23.921138143343274,-22.347037886492064,-20.772937629638314,-19.198837372782002,-17.6247371159231,-16.05063685906164,-14.476536602197617,-12.902436345331052,-11.36037723402811,-9.9464842192778189,-8.5325912045249872,-7.1186981897695976,-5.7048051750116651,-4.2909121602511728,-2.8770191454881391,-1.4631261307225449,-0.049233115954410676,1.3646598988162755,2.7303366161090223,3.9513626179713559,5.1723886198362745,6.39341462170378,7.6144406235738646,8.8354666254465464,10.056492627321811,11.277518629199665,12.498544631080096,13.719570632963116,14.874226893550826,15.874017810547334,16.87380872754645,17.8735996445482,18.873390561552565,19.87318147855953,20.87297239556915,21.872763312581331,22.872554229596162,23.872345146613608,24.786414273506573,25.541283475151562,26.296152676799231,27.051021878449561,27.805891080102544,28.560760281758171,29.315629483416469,30.07049868507745,30.825367886741081,31.580237088407333,32.229562293645976,32.720569010198041,33.211575726752827,33.70258244331032,34.193589159870562,34.684595876433505,35.175602592999155,35.666609309567484,36.157616026138541,36.648622742712277,37.014454086731774,37.227290679459664,37.440127272190338,37.652963864923784,37.865800457660015,38.078637050398974,38.291473643140726,38.504310235885256,38.717146828632536,38.929983421382595,38.848051669254353,38.772711105084248,38.697370540916992,38.622029976752579,38.546689412591,38.471348848432264,38.396008284276334,38.320667720123282,38.083441151480883,37.713759615220582,37.344078078963243,36.974396542708774,36.604715006457212,36.235033470208563,35.865351933962828,35.495670397719991,35.125988861480053,34.75630732524305,34.208264640266336,33.541311712972274,32.87435878568121,32.207405858393123,31.540452931108032,30.87350000382586,30.20654707654678,29.539594149270652,28.872641221997508,28.205688294727313,27.34527179436337,26.380679787496163,25.416087780632047,24.451495773770993,23.486903766913006,22.522311760058102,21.557719753206264,20.593127746357542,19.62853573951185,18.663943732669257,17.492061636467717,16.231337431722302,14.970613226980021,13.709889022240977,12.449164817505077,11.188440612772375,9.9277164080428424,8.66699220331647,7.4062679985933082,6.1455437938733235,4.6646896059529386,3.1104559827041367,1.556222359458588,0.0019887362162900055,-1.5522448870227223,-3.1064785102585324,-4.6607121334910087,-6.2149457567202564,-7.7691793799462863,-9.3234130031690032,-11.109828783601259,-12.954292846604165,-14.79875690960365,-16.643220972599647,-18.487685035592186,-20.332149098581205,-22.176613161566774,-24.021077224548883,-25.865541287527503,-27.710005350502716,-29.798711236307959,-31.930521336263602,-34.062331436215736,-36.194141536164615,-38.32595163611,-40.457761736052056,-42.589571835990661,-44.721381935925955,-46.853192035857774,-48.985002135786239,-51.372871659593365,-53.789194919724963,-56.205518179852987,-58.621841439977217,-61.038164700097745,-63.454487960214465,-65.870811220327482,-68.2871344804368,-70.703457740542433,-73.1197810006442,-75.804990157909316,-78.504353879805336,-81.203717601697718,-83.903081323586136,-86.602445045470787,-89.30180876735173,-92.0011724892288,-94.700536211101976,-97.39989993297138,-100.09926365483682,0.5556673691225591,0.5556673691225591,0.5556673691225591,0.5556673691225591,0.5556673691225591,0.5556673691225591,0.5556673691225591,0.5556673691225591,0.5556673691225591,0.5556673691225591,0.5556673691225591,0.5556673691225591
DP 123,268.82581983968419,0.0038455284937049423,-184.11390079462393,-178.97961609914071,-173.84533140365423,-168.71104670816462,-163.57676201267213,-158.4424773171765,-153.30819262167793,-148.17390792617621,-143.0396232306714,-137.90533853516376,-132.78140111072091,-127.8540637926621,-122.92672647460027,-117.99938915653551,-113.07205183846777,-108.14471452039695,-103.21737720232315,-98.290039884246269,-93.362702566166433,-88.435365248083613,-83.549360588656953,-79.035353763995289,-74.521346939330712,-70.007340114663208,-65.4933332899928,-60.9793264653195,-56.4653196406432,-51.951312815963966,-47.437305991281889,-42.9232991665969,-38.495647886096556,-34.557350130974683,-30.619052375849837,-26.680754620722013,-22.742456865591244,-18.804159110457494,-14.865861355320771,-10.927563600181077,-6.9892658450384344,-3.0509680898928271,0.74881810494918344,3.9945515123996693,7.2402849198530559,10.486018327309361,13.731751734768544,16.977485142230666,20.223218549695709,23.468951957163647,26.714685364634509,29.960418772108248,33.016266545196544,35.502450235809469,37.988633926425344,40.4748176170441,42.961001307665796,45.447184998290481,47.933368688917952,50.419552379548392,52.905736070181781,55.391919760817991,57.644505565565332,59.352020436557055,61.05953530755162,62.767050178549106,64.474565049549582,66.182079920552965,67.8895947915592,69.597109662568414,71.304624533580537,73.012139404595558,74.454853503507934,75.405787588694722,76.356721673884437,77.307655759077079,78.2585898442727,79.20952392947116,80.160458014672656,81.11139209987698,82.06232618508426,83.013260270294566,83.683010451105218,83.930978130835513,84.178945810568763,84.426913490304983,84.67488117004406,84.922848849786149,85.170816529531237,85.418784209279181,85.666751889030124,85.91471956878398,85.879861666160181,85.499322111053914,85.118782555950531,84.7382430008503,84.357703445752861,83.977163890658531,83.5966243355671,83.216084780478681,82.835545225393233,82.4550056703108,79.955096608828882,79.031239868164633,78.107383127503368,77.183526386845131,76.2596696461898,75.3358129055376,74.411956164888352,73.488099424242165,72.313506990005635,70.933762861032122,69.55401873206165,68.17427460309429,66.794530474129928,65.4147863451687,64.035042216210471,62.655298087255304,61.275553958303178,59.895809829354135,58.292519054820708,56.540193661573717,54.787868268329895,53.035542875089106,51.283217481851516,49.530892088616959,47.778566695385607,46.026241302157288,44.273915908932167,42.521590515710066,40.5758291200063,38.525907063914438,36.475985007825756,34.426062951740242,32.376140895657862,30.326218839578669,28.276296783502602,26.226374727429743,24.176452671360028,22.126530615293447,19.913353236061518,17.630206534195317,15.347059832332226,13.063913130472534,10.780766428616012,8.4976197267627782,6.214473024912798,3.9313263230660054,1.6481796212225259,-0.63496708061772622,-3.0533741705682651,-5.51686976121891,-7.9803653518662632,-10.443860942510304,-12.907356533151008,-15.370852123788492,-17.834347714422545,-20.29784330505333,-22.761338895680883,-25.224834486305021,-27.799253628051972,-30.401404968157152,-33.003556308258915,-35.605707648357161,-38.20785898845196,-40.8100103285432,-43.412161668631,-46.014313008715348,-48.616464348796164,-51.21861568887357,-53.912433477769135,-56.622428718151291,-59.332423958530029,-62.042419198905492,-64.752414439277331,-67.4624096796459,-70.172404920011033,-72.882400160372868,-75.592395400731078,-78.302390641086035,-81.090089992875349,-83.886423950897893,-86.682757908916813,-89.479091866931981,-92.275425824943426,-95.071759782951261,-97.868093740955359,-100.66442769895569,-103.46076165695249,-106.25709561494553,-109.12383922856473,-111.99428931407772,-114.86473939958718,-117.73518948509268,-120.60563957059445,-123.4760896560925,-126.34653974158682,-129.21698982707736,-132.08743991256415,-134.95788999804702,0.55874735658166619,0.55874735658166619,0.55874735658166619,0.55874735658166619,0.55874735658166619,0.55874735658166619,0.55874735658166619,0.55874735658166619,0.55874735658166619,0.55874735658166619,0.55874735658166619,0.55874735658166619
DP 124,79.9181797683119,0.00224722031956158,-43.087713588699849,-42.120120418772437,-41.152527248843654,-40.184934078913471,-39.21734090898191,-38.249747739049,-37.282154569114688,-36.314561399179027,-35.346968229241952,-34.379375059303534,-33.412829344310822,-32.466185471327513,-31.51954159834284,-30.572897725356775,-29.626253852369338,-28.679609979380526,-27.732966106390315,-26.786322233398771,-25.839678360405784,-24.893034487411448,-23.950732097414551,-23.047503464770585,-22.144274832125227,-21.241046199478514,-20.33781756683042,-19.434588934180979,-18.53136030153016,-17.62813166887798,-16.724903036224443,-15.82167440356954,-14.928034541065651,-14.088731646988819,-13.249428752910571,-12.410125858830947,-11.57082296474991,-10.731520070667479,-9.8922171765836548,-9.0529142824984383,-8.213611388411822,-7.3743084943238131,-6.55161966236203,-5.79538786410333,-5.0391560658432448,-4.2829242675817571,-3.526692469318887,-2.7704606710546149,-2.0142288727889497,-1.2579970745218907,-0.50176527625344092,0.25446652201640241,0.9855995719276871,1.6414354278115604,2.2972712836968494,2.953107139583552,3.6089429954716681,4.2647788513612008,4.9206147072521471,5.5764505631445109,6.2322864190382736,6.8881222749334707,7.5092498180804474,8.0493899311988919,8.5895300443187672,9.1296701574400814,9.6698102705628415,10.209950383687028,10.750090496812645,11.290230609939712,11.830370723068203,12.370510836198141,12.865578870905178,13.276940399888533,13.688301928873338,14.099663457859611,14.51102498684735,14.922386515836546,15.333748044827194,15.745109573819311,16.156471102812898,16.567832631807928,16.923356908667916,17.195123987869639,17.466891067072858,17.738658146277565,18.010425225483772,18.28219230469146,18.553959383900654,18.825726463111312,19.097493542323466,19.369260621537123,19.57435281534827,19.697952082065274,19.821551348783817,19.94515061550387,20.068749882225454,20.192349148948555,20.315948415673187,20.439547682399347,20.563146949127034,20.686746215856225,20.670968705932026,20.639937556303938,20.60890640667742,20.577875257052465,20.546844107429056,20.515812957807245,20.48478180818698,20.4537506585683,20.335169082610548,20.144953835031561,19.95473858745418,19.764523339878409,19.574308092304246,19.38409284473169,19.193877597160743,19.00366234959138,18.813447102023634,18.623231854457508,18.335768297035987,17.983471001036445,17.631173705038581,17.27887640904234,16.926579113047787,16.57428181705485,16.221984521063614,15.86968722507401,15.517389929086061,15.165092633099773,14.706438331078548,14.190513325344643,13.674588319612466,13.158663313882,12.642738308153254,12.126813302426227,11.610888296700905,11.094963290977331,10.579038285255457,10.063113279535301,9.4323016407412261,8.7522509343326487,8.072200227925812,7.39214952152077,6.712098815117475,6.0320481087159505,5.3519974023161918,4.67194669591818,3.99189598952195,3.3118452831274796,2.5088485661568627,1.6648682961926982,0.82088802623033874,-0.023092243730213069,-0.86707251368894089,-1.7110527836458891,-2.5550330536009898,-3.3990133235542936,-4.2429935935058154,-5.0869738634554924,-6.06153521958949,-7.0687433901054115,-8.0759515606194245,-9.0831597311315,-10.090367901641656,-11.097576072149854,-12.104784242656152,-13.11199241316049,-14.1192005836629,-15.126408754163423,-16.271789523644319,-17.441555229444269,-18.611320935242318,-19.781086641038534,-20.950852346832811,-22.120618052625229,-23.290383758415736,-24.460149464204381,-25.629915169991119,-26.799680875775977,-28.114952893552708,-29.446393807487517,-30.777834721420273,-32.109275635350876,-33.440716549279514,-34.772157463205957,-36.103598377130396,-37.435039291052668,-38.766480204972957,-40.097921118891122,-41.582585158114846,-43.075315096863228,-44.568045035609551,-46.060774974353649,-47.553504913095644,-49.046234851835557,-50.53896479057336,-52.0316947293089,-53.524424668042442,-55.01715460677368,0.30839945483845355,0.30839945483845355,0.30839945483845355,0.30839945483845355,0.30839945483845355,0.30839945483845355,0.30839945483845355,0.30839945483845355,0.30839945483845355,0.30839945483845355,0.30839945483845355,0.30839945483845355
DP 125,209.41918072216808,0.0014118325336453217,-56.596069349190756,-55.088459886018953,-53.580850422845934,-52.073240959671807,-50.565631496496593,-49.058022033320228,-47.550412570142718,-46.04280310696408,-44.535193643784346,-43.027584180603476,-41.522594598898834,-40.067383260538143,-38.612171922176351,-37.156960583813415,-35.701749245449356,-34.246537907084225,-32.791326568717935,-31.336115230350526,-29.880903891981994,-28.425692553612361,-26.981055396750136,-25.63158687295401,-24.282118349156782,-22.932649825358464,-21.583181301559076,-20.233712777758583,-18.884244253957018,-17.534775730154365,-16.185307206350611,-14.835838682545788,-13.508826767638677,-12.309070384915731,-11.109314002191686,-9.90955761946653,-8.7098012367402653,-7.5100448540129,-6.3102884712844176,-5.1105320885548338,-3.9107757058241455,-2.7110193230923554,-1.5481053382624153,-0.532562686244685,0.48297996577412439,1.4985226177940265,2.514065269815005,3.5296079218370777,4.5451505738602354,5.5606932258844814,6.5762358779098067,7.5917785299362253,8.5553643018422019,9.3630774689669423,10.170790636092784,10.978503803219708,11.786216970347711,12.593930137476825,13.401643304607006,14.209356471738293,15.017069638870643,15.8247828060041,16.566384632762542,17.153724061585244,17.741063490409019,18.328402919233902,18.91574234805989,19.503081776886933,20.090421205715081,20.677760634544342,21.265100063374675,21.852439492206109,22.361873273278444,22.726623033152084,23.091372793026832,23.456122552902695,23.820872312779642,24.185622072657672,24.550371832536825,24.915121592417069,25.2798713522984,25.644621112180861,25.922972230145078,26.071723343599547,26.220474457055126,26.369225570511805,26.517976683969597,26.666727797428489,26.815478910888547,26.964230024349639,27.112981137811868,27.261732251275202,27.319327276958163,27.2655073917521,27.211687506547154,27.157867621343307,27.10404773614059,27.050227850939,26.996407965738527,26.942588080539146,26.8887681953409,26.834948310143787,26.212409793091467,25.974158014659654,25.735906236229003,25.497654457799467,25.259402679371078,25.021150900943827,24.782899122517691,24.544647344092688,24.216399841012667,23.814517925664848,23.41263601031822,23.010754094972711,22.608872179628388,22.206990264285196,21.80510834894314,21.403226433602274,21.001344518262538,20.599462602923971,20.112406247996624,19.568565591542157,19.02472493508888,18.480884278636776,17.937043622185822,17.393202965736041,16.849362309287461,16.305521652840039,15.761680996393801,15.217840339948722,14.595437007249226,13.930729552589295,13.266022097930584,12.601314643273069,11.936607188616748,11.271899733961618,10.607192279307695,9.94248482465499,9.2777773700034647,8.6130699153531438,7.877362332943294,7.1112249259500047,6.3450875189579206,5.57895011196709,4.8128127049774694,4.04667529798909,3.2805378910019383,2.5144004840159941,1.7482630770313001,0.9821256700478268,0.1526882519289503,-0.69784996766105012,-1.5483881872498049,-2.3989264068373108,-3.2494646264235518,-4.100002846008568,-4.9505410655923,-5.8010792851747865,-6.6516175047560528,-7.5021557243360331,-8.4088262070342612,-9.3295304187230723,-10.250234630410597,-11.170938842096785,-12.091643053781656,-13.012347265465209,-13.933051477147437,-14.853755688828342,-15.774459900507939,-16.695164112186227,-17.666116955279541,-18.645937762688142,-19.625758570095417,-20.605579377501456,-21.585400184906177,-22.565220992309619,-23.54504179971174,-24.524862607112585,-25.504683414512154,-26.484504221910438,-27.510296919488379,-28.541198087676491,-29.572099255863289,-30.603000424048584,-31.633901592232586,-32.664802760415114,-33.695703928596274,-34.726605096776,-35.757506264954387,-36.788407433131262,-37.863376214423113,-38.940664782227891,-40.0179533500313,-41.095241917833214,-42.172530485633779,-43.249819053432894,-44.327107621230574,-45.404396189026826,-46.481684756821629,-47.55897332461506,0.21195380040142855,0.21195380040142855,0.21195380040142855,0.21195380040142855,0.21195380040142855,0.21195380040142855,0.21195380040142855,0.21195380040142855,0.21195380040142855,0.21195380040142855,0.21195380040142855,0.21195380040142855
DP 126,100.66111942304205,0.0038330362604044169,-86.914582545390559,-84.879113867528289,-82.843645189663434,-80.8081765117959,-78.772707833925793,-76.737239156053093,-74.7017704781776,-72.66630180029955,-70.630833122418849,-68.595364444535448,-66.562328231371168,-64.575509307760342,-62.588690384146865,-60.601871460530781,-58.615052536912032,-56.628233613290668,-54.641414689666547,-52.654595766039883,-50.66777684241049,-48.6809579187785,-46.70417133943586,-44.81767680699344,-42.931182274548426,-41.044687742100827,-39.15819320965057,-37.2716986771978,-35.385204144742374,-33.498709612284344,-31.612215079823745,-29.725720547360513,-27.861223144487713,-26.121377528777373,-24.381531913064389,-22.641686297348709,-20.901840681630421,-19.161995065909444,-17.42214945018581,-15.682303834459525,-13.942458218730588,-12.202612602998997,-10.500501706006467,-8.9493314673514472,-7.3981612286938025,-5.8469909900335129,-4.2958207513706057,-2.7446505127050487,-1.1934802740368629,0.35768996463396341,1.9088602033074136,3.4600304419835011,4.9549120939642064,6.2809258576599323,7.6069396213583227,8.9329533850593581,10.258967148763075,11.584980912469442,12.91099467617849,14.237008439890189,15.563022203604536,16.889035967321572,18.138393758779255,19.208884595949375,20.279375433122198,21.3498662702977,22.420357107475862,23.490847944656736,24.561338781840295,25.63182961902654,26.702320456215507,27.772811293407123,28.745524538559067,29.536648186468373,30.327771834380364,31.118895482295127,31.91001913021255,32.701142778132734,33.492266426055657,34.283390073981266,35.074513721909639,35.865637369840705,36.538079401227336,37.032496203305378,37.526913005386291,38.021329807469954,38.515746609556338,39.010163411645529,39.504580213737476,39.998997015832188,40.493413817929635,40.987830620029875,41.343714307949732,41.530276835347536,41.716839362748182,41.903401890151706,42.089964417557987,42.27652694496706,42.463089472378989,42.649651999793747,42.836214527211332,43.022777054631682,42.798948598135993,42.672104117590123,42.545259637047131,42.418415156507038,42.291570675969815,42.164726195435463,42.037881714903961,41.911037234375364,41.611400437894972,41.17038514062196,40.729369843351812,40.288354546084662,39.847339248820425,39.406323951559109,38.965308654300784,38.524293357045394,38.083278059792931,37.64226276254341,37.014595491251633,36.26249063016401,35.51038576907942,34.758280907997822,34.006176046919258,33.254071185843664,32.501966324771161,31.749861463701642,30.997756602635132,30.245651741571649,29.295162821980437,28.237848832176727,27.180534842376161,26.123220852578637,25.065906862784214,24.008592872992889,22.951278883204633,21.893964893419508,20.836650903637452,19.779336913858486,18.513736429947727,17.158866790058266,15.803997150171959,14.449127510288911,13.094257870409004,11.739388230532349,10.384518590658876,9.02964895078856,7.6747793109214806,6.3199096710575828,4.7481484084265722,3.1040872047574539,1.4600260010915957,-0.18403520257099454,-1.8280964062302882,-3.4721576098863682,-5.1162188135391053,-6.7602800171885917,-8.40434122083487,-10.048402424477796,-11.917149182986629,-13.842069984906592,-15.766990786823124,-17.691911588736161,-19.616832390645744,-21.541753192551806,-23.466673994454403,-25.391594796353523,-27.316515598249129,-29.241436400141367,-31.399090551789374,-33.597817882598648,-35.79654521340445,-37.995272544206934,-40.193999875005979,-42.392727205801656,-44.591454536593886,-46.790181867382756,-48.988909198168258,-51.187636528950364,-53.627463002718585,-56.094080802260564,-58.560698601798812,-61.027316401333358,-63.493934200864231,-65.960552000391289,-68.4271697999147,-70.893787599434262,-73.360405398950221,-75.827023198462456,-78.544925279500845,-81.276055349218069,-84.007185418931584,-86.738315488641263,-89.469445558347118,-92.200575628049236,-94.931705697747532,-97.6628357674419,-100.3939658371326,-103.12509590681935,0.55789962100822976,0.55789962100822976,0.55789962100822976,0.55789962100822976,0.55789962100822976,0.55789962100822976,0.55789962100822976,0.55789962100822976,0.55789962100822976,0.55789962100822976,0.55789962100822976,0.55789962100822976
DP 127,163.27489280183875,0.0019525684351320619,-64.668206404725936,-63.019014677567228,-61.369822950406963,-59.720631223245192,-58.071439496081851,-56.422247768916968,-54.7730560417506,-53.123864314582661,-51.474672587413153,-49.82548086024218,-48.17879114106119,-46.579640046709166,-44.9804889523556,-43.381337858000492,-41.782186763643892,-40.183035669285729,-38.583884574926046,-36.984733480564877,-35.38558238620211,-33.786431291837864,-32.197463924910089,-30.70015106750683,-29.202838210102065,-27.705525352695872,-26.208212495288095,-24.710899637878907,-23.213586780468187,-21.716273923056018,-20.218961065642354,-18.721648208227194,-17.246244260297694,-15.894992180039511,-14.543740099779804,-13.192488019518587,-11.841235939255858,-10.489983858991604,-9.13873177872585,-7.787479698458565,-6.4362276181897817,-5.0849755379194832,-3.7703201905642216,-2.6020535044648345,-1.4337868183639635,-0.26552013226159582,0.90274655384225133,2.0710132399476007,3.239279926054436,4.4075466121627649,5.5758132982725774,6.7440799843838821,7.8595576039876613,8.8166660281842972,9.7737744523824261,10.73088287658206,11.687991300783187,12.645099724985812,13.602208149189947,14.559316573395579,15.516424997602702,16.473533421811307,17.361622276367733,18.088662750137765,18.815703223909306,19.542743697682322,20.269784171456848,20.996824645232913,21.723865119010465,22.45090559278951,23.177946066570087,23.904986540352144,24.548093042321558,25.035319901333668,25.522546760347286,26.009773619362409,26.497000478379068,26.984227337397204,27.471454196416857,27.958681055438042,28.445907914460751,28.933134773484973,29.32390095652466,29.569973846185384,29.81604673584761,30.062119625511361,30.308192515176628,30.554265404843459,30.800338294511764,31.046411184181675,31.292484073853057,31.538556963526002,31.67874308867237,31.68950983304758,31.700276577424294,31.711043321802595,31.721810066182396,31.732576810563781,31.743343554946691,31.754110299331188,31.764877043717188,31.775643788104748,31.248503457010568,31.035493552668029,30.822483648327083,30.609473743987682,30.396463839649869,30.183453935313608,29.970444030978946,29.75743412664583,29.42991716449702,29.008710641704276,28.587504118913138,28.166297596123588,27.745091073335612,27.323884550549266,26.902678027764512,26.481471504981371,26.0602649821998,25.639058459419871,25.103747066453874,24.492363962471721,23.880980858491185,23.269597754512287,22.658214650535037,22.046831546559407,21.435448442585418,20.824065338613057,20.212682234642337,19.601299130673262,18.878640458304435,18.09606255404038,17.313484649778008,16.530906745517317,15.748328841258292,14.965750937000957,14.183173032745264,13.400595128491306,12.618017224238969,11.835439319988323,10.946090739212018,10.01098149490112,9.0758722505919014,8.14076300628444,7.2056537619786543,6.270544517674618,5.3354352733722843,4.4003260290716355,3.465216784772736,2.5301075404755347,1.4935505862406897,0.42317645016481359,-0.64719768590932047,-1.7175718219817084,-2.7879459580523331,-3.8583200941212445,-4.9286942301883592,-5.9990683662537441,-7.0694425023174148,-8.13981663837929,-9.306293987531598,-10.496798275430592,-11.687302563327762,-12.877806851223074,-14.068311139116568,-15.25881542700818,-16.449319714897975,-17.63982400278589,-18.830328290671975,-20.020832578556224,-21.303104502426205,-22.601571735468287,-23.900038968508522,-25.198506201547005,-26.496973434583659,-27.795440667618518,-29.093907900651562,-30.392375133682794,-31.69084236671225,-32.989309599739919,-34.376699289522513,-35.773970186172491,-37.171241082820544,-38.568511979466585,-39.965782876110758,-41.363053772752892,-42.760324669393079,-44.15759556603124,-45.554866462667576,-46.952137359301851,-48.438122391417465,-49.928777471227626,-51.419432551035889,-52.910087630842135,-54.400742710646355,-55.89139779044865,-57.382052870248934,-58.872707950047136,-60.363363029843356,-61.854018109637586,0.29697446416671558,0.29697446416671558,0.29697446416671558,0.29697446416671558,0.29697446416671558,0.29697446416671558,0.29697446416671558,0.29697446416671558,0.29697446416671558,0.29697446416671558,0.29697446416671558,0.29697446416671558
DP 128,151.546209592902,0.0019425617557093952,-60.66283198802504,-59.135671575738087,-57.608511163449549,-56.081350751159469,-54.554190338867926,-53.027029926574855,-51.499869514280277,-49.972709101984172,-48.445548689686575,-46.91838827738745,-45.393456668630542,-43.910872748546261,-42.428288828460509,-40.945704908373159,-39.463120988284352,-37.980537068194032,-36.497953148102219,-35.015369228008893,-33.532785307914047,-32.0502013878177,-30.5767094264262,-29.185045952778236,-27.79338247912877,-26.401719005477876,-25.010055531825525,-23.618392058171693,-22.226728584516383,-20.835065110859617,-19.443401637201397,-18.051738163541703,-16.679700826805369,-15.418879502706183,-14.158058178605478,-12.897236854503294,-11.636415530399622,-10.375594206294457,-9.114772882187788,-7.8539515580796184,-6.5931302339699647,-5.332308909858817,-4.104425146165525,-3.0082931808038271,-1.9121612154406673,-0.81602925007603,0.28010271529006936,1.3762346806576509,2.4723666460266971,3.5684986113972221,4.6646305767692056,5.7607625421426674,6.8091002677869525,7.7140534672066767,8.6190066666278913,9.5239598660505784,10.428913065474745,11.333866264900402,12.238819464327527,13.143772663756142,14.048725863186212,14.953679062617772,15.795695620083551,16.490857534268159,17.186019448454243,17.881181362641797,18.57634327683089,19.27150519102144,19.966667105213446,20.661829019406976,21.356990933602,22.052152847798478,22.670136326859296,23.144786342089429,23.6194363573211,24.094086372554273,24.568736387788952,25.043386403025092,25.51803641826276,25.9926864335019,26.467336448742572,26.9419864639847,27.327091952876657,27.577878536272273,27.828665119669367,28.079451703068024,28.330238286468159,28.581024869869829,28.831811453273,29.082598036677698,29.333384620083869,29.584171203491607,29.735609767289937,29.765620887005063,29.795632006721743,29.825643126439921,29.855654246159659,29.885665365880943,29.915676485603722,29.945687605328082,29.975698725053942,30.005709844781332,29.564613335743804,29.382172106563509,29.199730877384756,29.017289648207598,28.834848419031971,28.652407189857936,28.469965960685418,28.287524731514495,27.994952922339614,27.612272382306987,27.2295918422759,26.846911302246429,26.464230762218541,26.081550222192238,25.698869682167526,25.316189142144385,24.933508602122888,24.550828062102894,24.056843681511261,23.488654987105939,22.920466292702255,22.352277598300152,21.784088903899711,21.215900209500848,20.647711515103634,20.079522820708018,19.511334126314051,18.943145431921668,18.264743714644993,17.526994920817231,16.789246126991141,16.0514973331667,15.313748539343939,14.575999745522816,13.838250951703364,13.100502157885586,12.36275336406945,11.625004570254982,10.77976753403285,9.8884622939291837,8.9971570538271912,8.1058518137269431,7.2145465736283647,6.3232413335315121,5.4319360934363559,4.5406308533428774,3.649325613251134,2.758020373161076,1.7628292493300219,0.73300818832888492,-0.29681287267051959,-1.3266339336681905,-2.3564549946641073,-3.3862760556583189,-4.4160971166507563,-5.4459181776414649,-6.4757392386304682,-7.5055602996177022,-8.6355034548462815,-9.7904783165930276,-10.945453178337985,-12.100428040081081,-13.255402901822347,-14.410377763561753,-15.565352625299354,-16.720327487035117,-17.875302348769036,-19.030277210501122,-20.282423417886783,-21.551718590358409,-22.82101376282818,-24.090308935296228,-25.359604107762397,-26.628899280226847,-27.898194452689438,-29.167489625150274,-30.436784797609306,-31.706079970066568,-33.070847356316989,-34.44622376900476,-35.82160018169067,-37.196976594374526,-38.5723530070565,-39.947729419736447,-41.3231058324145,-42.69848224509051,-44.07385865776466,-45.4492350704368,-46.920750762923092,-48.397327374051414,-49.873903985177805,-51.350480596302113,-52.827057207424481,-54.303633818544924,-55.780210429663278,-57.256787040779606,-58.733363651893946,-60.209940263006274,0.29532189318131363,0.29532189318131363,0.29532189318131363,0.29532189318131363,0.29532189318131363,0.29532189318131363,0.29532189318131363,0.29532189318131363,0.29532189318131363,0.29532189318131363,0.29532189318131363,0.29532189318131363
DP 129,69.049793466215718,0.0031399368788586728,-54.5106961407172,-53.319102881671434,-52.127509622623876,-50.9359163635746,-49.744323104523652,-48.55272984547085,-47.361136586416414,-46.169543327360223,-44.97795006830227,-43.786356809242577,-42.595986088916383,-41.42884383567209,-40.261701582426063,-39.09455932917826,-37.92741707592873,-36.760274822677481,-35.593132569424462,-34.425990316169717,-33.258848062913181,-32.091705809654968,-30.929645155419106,-29.813319372720272,-28.696993590019666,-27.580667807317344,-26.464342024613277,-25.348016241907494,-24.231690459199946,-23.115364676490678,-21.999038893779662,-20.88271311106692,-19.77765469853237,-18.736445427023334,-17.695236155512497,-16.65402688399988,-15.612817612485509,-14.571608340969345,-13.530399069451411,-12.489189797931681,-11.447980526410184,-10.406771254886912,-9.3851880812021573,-8.442110226422038,-7.4990323716401432,-6.5559545168564579,-5.6128766620709971,-4.6697988072837378,-3.7267209524947051,-2.7836430977038771,-1.8405652429112727,-0.89748738811688034,0.015738976277677424,0.8394097408256157,1.6630805053753732,2.48675126992695,3.3104220344803448,4.1340927990355629,4.9577635635925956,5.7814343281514526,6.6051050927121189,7.4287758572746174,8.2108277253650765,8.8957671959061475,9.5807066664490748,10.26564613699386,10.950585607540496,11.635525078088982,12.320464548639331,13.005404019191522,13.69034348974558,14.375282960301494,15.00566619224745,15.534729221991364,16.063792251737187,16.592855281484912,17.121918311234531,17.650981340986029,18.180044370739438,18.709107400494705,19.238170430251916,19.767233460011003,20.227989924343756,20.586284926426707,20.944579928511587,21.302874930598396,21.661169932687141,22.019464934777847,22.37775993687049,22.736054938965079,23.094349941061598,23.452644943160056,23.728418006154168,23.90332918799913,24.0782403698461,24.253151551695058,24.428062733546007,24.602973915398962,24.777885097253858,24.952796279110807,25.127707460969713,25.302618642830627,25.342866634327592,25.323983228206039,25.305099822086508,25.286216415969072,25.267333009853658,25.248449603740308,25.229566197628998,25.210682791519716,25.08062378408826,24.859601010397476,24.638578236708767,24.417555463022158,24.196532689337698,23.975509915655344,23.754487141975087,23.533464368296972,23.312441594620939,23.091418820947059,22.74522648242883,22.315585795480654,21.885945108534671,21.456304421590858,21.026663734649254,20.597023047709818,20.167382360772564,19.73774167383749,19.308100986904616,18.878460299973909,18.310066014709278,17.666956235698539,17.023846456690094,16.380736677683885,15.737626898679929,15.094517119678242,14.451407340678806,13.808297561681639,13.165187782686694,12.522078003694034,11.727109575908804,10.86705630687031,10.007003037834101,9.1469497688002956,8.2868964997688,7.4268432307396628,6.5667899617128587,5.7067366926883816,4.846683423666267,3.9866301546464893,2.9620624188359819,1.8826544540800394,0.803246489326499,-0.27616147542463926,-1.3555694401733498,-2.4349774049196937,-3.5143853696635787,-4.593793334405075,-5.6732012991441962,-6.7526092638808715,-8.0086676466131728,-9.3088907209965832,-10.60911379537745,-11.90933686975573,-13.209559944131438,-14.509783018504537,-15.810006092875103,-17.110229167243034,-18.41045224160845,-19.710675315971276,-21.199530752263165,-22.721676350043722,-24.24382194782169,-25.765967545597256,-27.288113143370207,-28.810258741140679,-30.332404338908606,-31.854549936674026,-33.376695534436926,-34.898841132197354,-36.621002085920118,-38.365389068715579,-40.109776051508234,-41.854163034298089,-43.598550017085294,-45.342936999869522,-47.087323982651121,-48.831710965429771,-50.576097948205785,-52.320484930978949,-54.276394039447574,-56.243437995934109,-58.210481952417872,-60.177525908898751,-62.144569865376752,-64.111613821851932,-66.078657778324242,-68.045701734793653,-70.01274569126025,-71.979789647723919,0.409339916446376,0.409339916446376,0.409339916446376,0.409339916446376,0.409339916446376,0.409339916446376,0.409339916446376,0.409339916446376,0.409339916446376,0.409339916446376,0.409339916446376,0.409339916446376
DP 130,156.04330416256317,0.0043711230239530706,-139.69480231860419,-136.16014506705179,-132.62548781549603,-129.09083056393675,-125.55617331237406,-122.02151606080801,-118.48685880923851,-114.9522015576656,-111.41754430608934,-107.88288705450954,-104.35346715227446,-100.9235578777419,-97.493648603206012,-94.063739328666671,-90.633830054123976,-87.203920779577871,-83.774011505028383,-80.344102230475443,-76.914192955919049,-73.484283681359315,-70.075720032313043,-66.859269030541071,-63.642818028765674,-60.426367026987052,-57.209916025205118,-53.993465023419795,-50.777014021631274,-47.560563019839364,-44.344112018044164,-41.127661016245654,-37.957227477406441,-35.047562461785994,-32.137897446162164,-29.228232430534948,-26.318567414904411,-23.408902399270445,-20.49923738363314,-17.589572367992435,-14.679907352348369,-11.770242336700932,-8.9376667315686742,-6.4134524118150837,-3.8892380920581862,-1.3650237722979517,1.1591905474655824,3.6834048672324609,6.20761918700265,8.7318335067761712,11.256047826553012,13.780262146333165,16.192872742109028,18.270667946283027,20.348463150460354,22.426258354641035,24.504053558825039,26.581848763012406,28.659643967203049,30.737439171397117,32.815234375594457,34.89302957979519,36.824264726187138,38.413520632242715,40.002776538301667,41.592032444363973,43.181288350429618,44.770544256498646,46.359800162570963,47.94905606864674,49.538311974725808,51.127567880808229,52.537677788211127,53.615083145735845,54.692488503264009,55.769893860795513,56.847299218330363,57.924704575868674,59.002109933410239,60.079515290955335,61.156920648503707,62.234326006055539,63.104644115109444,63.664326457866764,64.224008800627487,64.783691143391607,65.343373486159081,65.903055828930036,66.462738171704416,67.022420514482164,67.582102857263308,68.141785200047863,68.472653800355829,68.523856353677672,68.575058907003054,68.6262614603318,68.6774640136641,68.728666566999777,68.77986912033893,68.831071673681521,68.882274227027622,68.933476780377163,67.869386993536878,67.43350964735528,66.997632301177163,66.561754955002471,66.125877608831416,65.690000262663759,65.254122916499639,64.818245570339073,64.131141840565292,63.238484933966731,62.345828027371667,61.453171120780162,60.560514214192281,59.667857307608,58.77520040102722,57.882543494450047,56.989886587876491,56.09722968130648,54.952054786288024,53.638530587578082,52.325006388871785,51.011482190169183,49.6979579914702,48.384433792774907,47.070909594083233,45.757385395395204,44.443861196710841,43.130336998030096,41.56824163924032,39.872296656501263,38.176351673766021,36.480406691034425,34.7844617083066,33.088516725582537,31.392571742862177,29.696626760145595,28.000681777432725,26.30473679472361,24.367888291909576,22.327791357161402,20.287694422416969,18.247597487676494,16.207500552939766,14.167403618206919,12.127306683477904,10.087209748752683,8.0471128140313226,6.0070158793138031,3.7356138297671722,1.3871071601778735,-0.96139950940752816,-3.3099061789890238,-5.6584128485665648,-8.00691951814028,-10.355426187709973,-12.70393285727582,-15.052439526837796,-17.400946196395793,-19.970910028956091,-22.596240768817122,-25.221571508674106,-27.846902248526909,-30.4722329883756,-33.097563728220088,-35.722894468060531,-38.348225207896782,-40.973555947728926,-43.598886687557005,-46.437817725020466,-49.314445307919783,-52.191072890814922,-55.067700473706239,-57.944328056593321,-60.820955639476466,-63.697583222355512,-66.574210805230521,-69.450838388101488,-72.327465970968532,-75.412858355868579,-78.521449022404184,-81.6300396889355,-84.73863035546232,-87.847221021984907,-90.955811688502962,-94.064402355016639,-97.172993021525826,-100.28158368803074,-103.3901743545313,-106.70824940024409,-110.03735202388339,-113.36645464751854,-116.69555727114906,-120.02465989477507,-123.35376251839679,-126.68286514201371,-130.01196776562622,-133.3410703892342,-136.67017301283778,0.66481281221534749,0.66481281221534749,0.66481281221534749,0.66481281221534749,0.66481281221534749,0.66481281221534749,0.66481281221534749,0.66481281221534749,0.66481281221534749,0.66481281221534749,0.66481281221534749,0.66481281221534749
DP 131,207.32041253685628,0.0019580386216733517,-77.905551179195982,-75.834008374493536,-73.762465569789583,-71.690922765083968,-69.6193799603768,-67.547837155668049,-65.476294350957758,-63.404751546245855,-61.333208741532424,-59.261665936817387,-57.193702700272155,-55.193751935679366,-53.193801171085028,-51.193850406489126,-49.19389964189169,-47.193948877292691,-45.193998112692135,-43.194047348090031,-41.194096583486349,-39.194145818881118,-37.208647176842796,-35.353219003958635,-33.497790831072955,-31.642362658185831,-29.786934485297166,-27.931506312406988,-26.076078139515296,-24.220649966622119,-22.365221793727407,-20.509793620831228,-18.68507542818756,-17.034382392156079,-15.383689356123078,-13.732996320088544,-12.082303284052466,-10.431610248014854,-8.7809172119757051,-7.1302241759350178,-5.4795311398928046,-3.8288381038490593,-2.2285695048595229,-0.83000103719104,0.56856743047894343,1.9671358981504405,3.3657043658234329,4.7642728334979418,6.1628413011739571,7.5614097688514761,8.959978236530505,10.35854670421103,11.685933031868229,12.799770248154164,13.913607464441611,15.02744468073057,16.141281897021049,17.255119113313039,18.368956329606529,19.48279354590154,20.596630762198053,21.71046797849608,22.733620997013219,23.545173982537516,24.3567269680633,25.168279953590584,25.979832939119429,26.79138592464977,27.602938910181607,28.414491895714971,29.226044881249845,30.037597866786264,30.742138925717796,31.247940659545613,31.753742393374949,32.259544127205814,32.7653458610382,33.271147594872119,33.776949328707559,34.282751062544513,34.788552796383016,35.294354530223,35.681291159607071,35.889927323479967,36.098563487354362,36.307199651230349,36.515835815107842,36.724471978986891,36.933108142867468,37.14174430674958,37.350380470633219,37.559016634518407,37.642023932157635,37.5714821989124,37.500940465668741,37.430398732426625,37.359856999186057,37.289315265947067,37.218773532709612,37.148231799473685,37.077690066239377,37.007148333006555,36.158866047398014,35.833660998385348,35.5084559493742,35.183250900364641,34.858045851356664,34.532840802350243,34.207635753345393,33.882430704342148,33.432702810450571,32.881090448909,32.329478087368969,31.777865725830608,31.226253364293786,30.674641002758591,30.123028641224984,29.571416279693022,29.019803918162616,28.468191556633812,27.7984647636576,27.04999315565944,26.301521547662936,25.55304993966805,24.804578331674755,24.056106723683108,23.307635115693103,22.559163507704714,21.81069189971797,21.062220291732817,20.204541138317985,19.288056333910589,18.371571529504859,17.455086725100813,16.538601920698415,15.622117116297702,14.705632311898638,13.789147507501282,12.872662703105551,11.956177898711498,10.940743045046331,9.8828993572444457,8.8250556694442146,7.7672119816457537,6.7093682938489554,5.6515246060538784,4.5936809182605058,3.5358372304688155,2.4779935426788566,1.4201498548905929,0.27384306720846907,-0.90195253532375219,-2.0777481378542424,-3.2535437403830012,-4.4293393429100041,-5.6051349454353065,-6.78093054795882,-7.9567261504806135,-9.1325217530007112,-10.308317355519021,-11.562787898235992,-12.836928105558751,-14.111068312879715,-15.385208520198837,-16.659348727516129,-17.933488934831562,-19.20762914214518,-20.481769349456968,-21.755909556766916,-23.030049764075084,-24.374824072851663,-25.732064008524475,-27.089303944195446,-28.446543879864688,-29.803783815532135,-31.161023751197767,-32.518263686861573,-33.875503622523652,-35.232743558183877,-36.589983493842404,-38.012019072099577,-39.441254846706961,-40.8704906213125,-42.299726395915975,-43.72896217051764,-45.158197945117223,-46.587433719714944,-48.016669494310683,-49.445905268904504,-50.875141043496392,-52.36660712412715,-53.861349103188559,-55.356091082248092,-56.850833061305572,-58.3455750403611,-59.840317019414677,-61.335058998466231,-62.829800977515752,-64.324542956563334,-65.8192849356089,0.29422757589161846,0.29422757589161846,0.29422757589161846,0.29422757589161846,0.29422757589161846,0.29422757589161846,0.29422757589161846,0.29422757589161846,0.29422757589161846,0.29422757589161846,0.29422757589161846,0.29422757589161846
DP 132,63.416247290535424,0.0018137652671032086,-29.781872380352919,-29.141086937669925,-28.50030149498599,-27.859516052301146,-27.218730609615349,-26.577945166928657,-25.93715972424101,-25.296374281552456,-24.655588838862965,-24.014803396172542,-23.374657938870978,-22.7466723249605,-22.118686711049076,-21.490701097136711,-20.8627154832234,-20.234729869309181,-19.606744255394013,-18.9787586414779,-18.350773027560848,-17.722787413642866,-17.097465427261181,-16.496116340484459,-15.894767253706807,-15.293418166928218,-14.692069080148697,-14.090719993368225,-13.489370906586808,-12.888021819804445,-12.286672733021168,-11.685323646236926,-11.089892169174341,-10.527994186767321,-9.9660962043593475,-9.4041982219503915,-8.8423002395404815,-8.2804022571296088,-7.7185042747177635,-7.1566062923049607,-6.5947083098911854,-6.0328103274764517,-5.4812477715265544,-4.9710274098995271,-4.4608070482715281,-3.9505866866425525,-3.4403663250126111,-2.9301459633816913,-2.419925601749803,-1.9097052401169412,-1.3994848784831071,-0.88926451684830243,-0.39481835902715562,0.052304590950255477,0.49942754092865904,0.94655049090805554,1.3936734408884455,1.8407963908698284,2.2879193408522038,2.735042290835572,3.182165240819931,3.6292881908052856,4.0543301000056138,4.4278487110701539,4.8013673221357047,5.1748859332022734,5.5484045442698591,5.92192315533846,6.2954417664080733,6.6689603774787107,7.0424789885503509,7.4159975996230143,7.7604339748790787,8.0508596982188187,8.3412854215596024,8.6317111449014252,8.9221368682442943,9.2125625915881884,9.502988314933134,9.7934140382791277,10.083839761626136,10.374265484974211,10.628089053225812,10.827008523909752,11.025927994594744,11.224847465280824,11.423766935967958,11.622686406656166,11.82160587734543,12.020525348035788,12.219444818727203,12.418364289419674,12.572811064567643,12.672901388799922,12.772991713033298,12.873082037267784,12.973172361503361,13.073262685740049,13.173353009977836,13.273443334216708,13.373533658456704,13.473623982697768,13.511213248884712,13.506230691882124,13.501248134880695,13.49626557788039,13.491283020881228,13.48630046388319,13.481317906886293,13.47633534989053,13.410693968132639,13.295421596376896,13.180149224622314,13.064876852868908,12.949604481116692,12.834332109365622,12.719059737615733,12.603787365867026,12.488514994119484,12.373242622373132,12.189239080192493,11.959413674961308,11.729588269731336,11.499762864502546,11.269937459275019,11.040112054048677,10.81028664882356,10.58046124359965,10.350635838376961,10.120810433155476,9.8143137441958377,9.4665314029041081,9.1187490616136273,8.7709667203244219,8.4231843790364564,8.0754020377497522,7.7276196964642976,7.3798373551801077,7.0320550138971667,6.6842726726154806,6.2520707412775653,5.7836875607243607,5.31530438017244,4.8469211996218533,4.3785380190725576,3.910154838524575,3.4417716579779039,2.973388477432525,2.5050052968884633,2.0366221163457072,1.4762711520487115,0.88526310077891812,0.29425504951046649,-0.29675300175664165,-0.88776105302239394,-1.4787691042868223,-2.0697771555498781,-2.6607852068115987,-3.2517932580719933,-3.8428013093310152,-4.5330447928108315,-5.2480983068279263,-5.9631518208435992,-6.6782053348578163,-7.3932588488706008,-8.1083123628819163,-8.8233658768918,-9.5384193909002466,-10.253472904907232,-10.9685264189128,-11.789979356794207,-12.63020984677169,-13.470440336747727,-14.310670826722394,-15.150901316695629,-15.991131806667459,-16.831362296637884,-17.6715927866069,-18.511823276574496,-19.3520537665407,-20.305443413049606,-21.271407487612045,-22.237371562172974,-23.203335636732291,-24.169299711290108,-25.135263785846288,-26.101227860400961,-27.06719193495401,-28.03315600950555,-28.999120084055484,-30.084979840397882,-31.177151088695943,-32.2693223369924,-33.361493585287263,-34.453664833580525,-35.545836081872217,-36.6380073301623,-37.730178578450712,-38.822349826737607,-39.914521075022819,0.22827635852821,0.22827635852821,0.22827635852821,0.22827635852821,0.22827635852821,0.22827635852821,0.22827635852821,0.22827635852821,0.22827635852821,0.22827635852821,0.22827635852821,0.22827635852821
DP 133,111.5093949287788,0.0033996431905165313,-83.36288763624033,-81.374411352175656,-79.385935068108509,-77.397458784038989,-75.408982499966953,-73.420506215892459,-71.432029931815549,-69.443553647736152,-67.455077363654325,-65.466601079569983,-63.48061752261377,-61.541996252372684,-59.603374982129139,-57.664753711883165,-55.726132441634753,-53.787511171383855,-51.848889901130526,-49.910268630874704,-47.971647360616537,-46.033026090355868,-44.104658681746912,-42.268576997235726,-40.432495312722139,-38.596413628206172,-36.760331943687788,-34.924250259167067,-33.088168574643916,-31.252086890118349,-29.416005205590473,-27.579923521060145,-25.766246230166875,-24.079528581696351,-22.392810933223412,-20.706093284748018,-19.019375636270173,-17.332657987789904,-15.645940339307177,-13.959222690821992,-12.272505042334384,-10.585787393844326,-8.9373128193303764,-7.4418123481267395,-5.9463118769206895,-4.4508114057122237,-2.9553109345013486,-1.4598104632880466,0.035690007927666724,1.5311904791458013,3.0266909503663477,4.5221914215893015,5.9610020388098706,7.2297409506534684,8.498479862499515,9.7672187743479828,11.035957686198897,12.304696598052235,13.573435509908039,14.842174421766256,16.110913333626904,17.379652245490018,18.571775089471085,19.58512409095108,20.598473092433537,21.611822093918477,22.625171095405854,23.638520096895689,24.651869098387994,25.665218099882775,26.678567101379993,27.691916102879663,28.608409580974769,29.345025899908293,30.081642218844276,30.818258537782807,31.554874856723753,32.291491175667232,33.028107494613195,33.764723813561638,34.501340132512567,35.237956451465969,35.85821159796771,36.303922236133083,36.749632874301007,37.195343512471453,37.641054150644379,38.086764788819885,38.532475426997912,38.978186065178427,39.423896703361464,39.869607341547017,40.181049783745365,40.3283838327971,40.4757178818514,40.623051930908289,40.770385979967692,40.9177200290297,41.065054078094228,41.212388127161354,41.359722176231017,41.507056225303273,41.199270994291737,41.046689525113251,40.894108055937345,40.741526586764067,40.588945117593369,40.4363636484253,40.283782179259873,40.131200710097048,39.81554028693391,39.36644882605124,38.917357365171249,38.468265904293922,38.019174443419253,37.570082982547291,37.120991521677944,36.6719000608113,36.222808599947335,35.77371713908606,35.151047245162729,34.412655661385244,33.674264077610495,32.935872493838509,32.197480910069224,31.459089326302671,30.720697742538889,29.982306158777817,29.243914575019478,28.505522991263849,27.585474645896682,26.567608479592874,25.549742313291933,24.531876146993774,23.514009980698443,22.4961438144059,21.478277648116144,20.460411481829226,19.442545315545079,18.424679149263763,17.219069167140539,15.932994380756666,14.646919594375628,13.360844807997561,12.074770021622314,10.788695235250001,9.5026204488805686,8.216545662514001,6.9304708761503493,5.6443960897895762,4.16582742642781,2.6230917114307326,1.0803559964366041,-0.46237971855457494,-2.0051154335427759,-3.5478511485280739,-5.0905868635103433,-6.6333225784896932,-8.17605829346613,-9.7187940084395485,-11.458058780795026,-13.246458139517218,-15.034857498236306,-16.823256856952248,-18.611656215665057,-20.400055574374708,-22.188454933081257,-23.976854291784655,-25.765253650484915,-27.553653009182078,-29.543052208571616,-31.567924203229964,-33.5927961978852,-35.617668192537508,-37.642540187186626,-39.667412181832731,-41.692284176475745,-43.717156171115704,-45.7420281657526,-47.766900160386442,-49.997922143158782,-52.251851845228749,-54.50578154729542,-56.7597112493587,-59.0136409514187,-61.267570653475275,-63.521500355528524,-65.775430057578291,-68.029359759624867,-70.283289461668076,-72.7507156842978,-75.22938069010992,-77.708045695918784,-80.186710701724053,-82.66537570752601,-85.144040713324557,-87.622705719119665,-90.101370724911177,-92.580035730699464,-95.058700736484155,0.50372587812023262,0.50372587812023262,0.50372587812023262,0.50372587812023262,0.50372587812023262,0.50372587812023262,0.50372587812023262,0.50372587812023262,0.50372587812023262,0.50372587812023262,0.50372587812023262,0.50372587812023262
DP 134,190.39111179086407,0.0017805119971251889,-66.431851403289627,-64.691737928746221,-62.951624454201379,-61.2115109796552,-59.471397505107561,-57.731284030558484,-55.991170556007994,-54.251057081456111,-52.51094360690275,-50.770830132348053,-49.033583921234658,-47.350816257572355,-45.668048593908757,-43.985280930243732,-42.302513266577272,-40.6197456029094,-38.936977939240151,-37.254210275569449,-35.571442611897346,-33.88867494822388,-32.2175189549903,-30.65086909328264,-29.084219231573641,-27.517569369863295,-25.950919508151561,-24.384269646438447,-22.817619784723973,-21.250969923008121,-19.684320061290919,-18.117670199572341,-16.575811073172279,-15.174434342426068,-13.77305761167845,-12.371680880929425,-10.970304150179027,-9.5689274194272222,-8.16755068867403,-6.7661739579194293,-5.3647972271634465,-3.9634204964060671,-2.6030160615930931,-1.4065027469457132,-0.20998943229697,0.98652388235314947,2.1830371970046283,3.3795505116574849,4.5760638263117128,5.7725771409673117,6.9690904556242748,8.1656037702826083,9.3038015523831739,10.267050531978105,11.230299511574403,12.193548491172081,13.156797470771144,14.120046450371554,15.083295429973363,16.046544409576533,17.009793389181088,17.973042368787024,18.861264332877582,19.574420305903715,20.287576278931233,21.000732251960095,21.713888224990356,22.427044198022,23.140200171055039,23.853356144089414,24.566512117125214,25.279668090162378,25.903275116813553,26.3605745389468,26.817873961081457,27.275173383217474,27.732472805354874,28.1897722274937,28.647071649633869,29.104371071775478,29.561670493918434,30.018969916062773,30.375515707940774,30.58092867357303,30.786341639206697,30.991754604841777,31.197167570478197,31.402580536116034,31.607993501755296,31.813406467395957,32.018819433038004,32.22423239868143,32.321631895926579,32.287012662997377,32.252393430069588,32.217774197143271,32.183154964218353,32.148535731294828,32.113916498372696,32.079297265452,32.044678032532744,32.010058799614896,31.350209596750307,31.093193341768561,30.836177086788265,30.579160831809347,30.322144576831921,30.065128321855862,29.808112066881268,29.551095811908162,29.183475073572321,28.72535785712261,28.267240640674398,27.809123424227604,27.351006207782284,26.892888991338435,26.434771774896021,25.976654558455113,25.518537342015602,25.060420125577604,24.495449305780017,23.859241067083925,23.223032828389307,22.586824589696196,21.950616351004562,21.314408112314407,20.678199873625754,20.041991634938579,19.405783396252911,18.76957515756871,18.032596447928551,17.241355250086929,16.450114052246825,15.658872854408235,14.86763165657117,14.076390458735622,13.285149260901585,12.493908063069091,11.702666865238111,10.91142566740865,10.026912727227884,9.10242460886227,8.1779364904981531,7.2534483721356482,6.3289602537746736,5.4044721354152765,4.479984017057431,3.555495898701126,2.631007780346398,1.7065196619932264,0.69672507415362428,-0.34150607861784116,-1.3797372313877225,-2.4179683841560218,-3.4561995369227114,-4.4944306896878539,-5.5326618424513621,-6.5708929952132884,-7.6091241479736658,-8.647355300732416,-9.76328602310115,-10.89864255590447,-12.033999088706143,-13.169355621506137,-14.304712154304463,-15.440068687101085,-16.575425219896058,-17.710781752689332,-18.84613828548094,-19.981494818270907,-21.188279470033315,-22.407669878257721,-23.62706028648039,-24.84645069470152,-26.065841102920942,-27.285231511138793,-28.504621919354914,-29.724012327569472,-30.943402735782378,-32.16279314399366,-33.449127083379658,-34.742899895960164,-36.036672708538987,-37.330445521115891,-38.624218333691161,-39.917991146264526,-41.211763958836194,-42.505536771406035,-43.799309583974129,-45.093082396540439,-46.452127694772,-47.81460903642018,-49.177090378066524,-50.539571719711027,-51.902053061353769,-53.264534402994649,-54.627015744633759,-55.989497086271008,-57.351978427906452,-58.714459769540035,0.26931139874088411,0.26931139874088411,0.26931139874088411,0.26931139874088411,0.26931139874088411,0.26931139874088411,0.26931139874088411,0.26931139874088411,0.26931139874088411,0.26931139874088411,0.26931139874088411,0.26931139874088411
DP 135,277.23444162723257,0.00427609681255999,-209.00895597993312,-203.14603990091865,-197.28312382190066,-191.42020774287948,-185.55729166385453,-179.69437558482642,-173.83145950579495,-167.96854342676002,-162.10562734772176,-156.24271126868021,-150.39184000858131,-144.76982258546627,-139.14780516234774,-133.52578773922596,-127.90377031610079,-122.28175289297238,-116.65973546984058,-111.03771804670544,-105.41570062356695,-99.793683200425178,-94.219709673156572,-89.078135749967657,-83.936561826775446,-78.794987903580036,-73.653413980381387,-68.511840057179469,-63.3702661339743,-58.228692210765985,-53.087118287554347,-47.94554436433954,-42.904116416724989,-38.430188641509055,-33.956260866289831,-29.482333091067343,-25.008405315841554,-20.534477540612482,-16.0605497653801,-11.586621990144423,-7.1126942149054875,-2.6387664396632609,1.6750370250365245,5.3483356799524362,9.02163433487155,12.694932989793912,16.368231644719458,20.041530299648269,23.714828954580277,27.388127609515553,31.061426264454028,34.734724919395681,38.189378190293709,40.988087042374708,43.786795894458912,46.5855047465464,49.384213598637089,52.182922450731,54.981631302828156,57.780340154928531,60.579049007032118,63.377757859138995,65.908752560410576,67.815070366084015,69.72138817176068,71.627705977440527,73.534023783123644,75.440341588810014,77.3466593944997,79.25297720019249,81.159295005888509,83.065612811587854,84.67008722024687,85.713987168488984,86.757887116734281,87.801787064983017,88.845687013234851,89.88958696148994,90.933486909748311,91.97738685800995,93.021286806274787,94.065186754542808,94.790486700323257,95.037879113734363,95.285271527148822,95.5326639405664,95.7800563539873,96.0274487674115,96.274841180838976,96.5222335942696,96.769626007703579,97.017018421140889,96.94604961963698,96.485965979433061,96.02588233923241,95.565798699035014,95.105715058841,94.64563141865024,94.185547778462819,93.725464138278724,93.2653804980978,92.805296857920212,89.9068798662225,88.839528649598847,87.772177432978523,86.704826216361639,85.637474999747937,84.57012378313766,83.502772566530737,82.4354213499271,81.089933960483933,79.516875831475517,77.943817702470568,76.370759573468973,74.797701444470718,73.2246433154759,71.6515851864845,70.07852705749643,68.505468928511817,66.932410799530587,65.113360570940443,63.130311734024616,61.147262897112206,59.164214060203307,57.181165223297782,55.198116386395668,53.215067549497086,51.232018712601878,49.248969875710181,47.2659210388219,45.071819159779416,42.764070265881074,40.456321371986334,38.148572478095033,35.840823584207207,33.5330746903229,31.225325796442043,28.917576902564786,26.609828008690926,24.302079114820586,21.817812525186021,19.257892515092319,16.69797250500211,14.138052494915627,11.578132484832668,9.0182124747533621,6.4582924646776387,3.898372454605441,1.3384524445369166,-1.2214675655280351,-3.9262279487644434,-6.6792702817895027,-9.43231261481092,-12.185354947828683,-14.938397280842734,-17.69143961385322,-20.44448194685992,-23.197524279863007,-25.950566612862527,-28.703608945858264,-31.574203460019852,-34.474187408368515,-37.374171356713404,-40.274155305054386,-43.17413925339158,-46.074123201724838,-48.974107150054252,-51.874091098379907,-54.774075046701604,-57.674058995019514,-60.670141688386316,-63.683184052450464,-66.696226416510655,-69.7092687805672,-72.722311144619908,-75.735353508669007,-78.7483958727141,-81.761438236755566,-84.774480600793169,-87.787522964827133,-90.881156914326922,-93.983746330832872,-97.086335747334743,-100.18892516383252,-103.29151458032641,-106.394103996816,-109.49669341330154,-112.59928282978301,-115.70187224626045,-118.8044616627337,-121.9794814521956,-125.15831408720199,-128.3371467222041,-131.51597935720196,-134.69481199219578,-137.87364462718548,-141.05247726217098,-144.23130989715219,-147.4101425321295,-150.58897516710243,0.61807381652198357,0.61807381652198357,0.61807381652198357,0.61807381652198357,0.61807381652198357,0.61807381652198357,0.61807381652198357,0.61807381652198357,0.61807381652198357,0.61807381652198357,0.61807381652198357,0.61807381652198357
DP 136,311.0434502240015,0.0010634653772342818,-56.016424321381386,-54.40927951576974,-52.802134710157226,-51.194989904543981,-49.587845098929904,-47.980700293314968,-46.37355548769925,-44.766410682082636,-43.159265876465248,-41.552121070847022,-39.948529895338311,-38.412458363719622,-36.876386832100174,-35.340315300479922,-33.80424376885879,-32.26817223723689,-30.732100705614148,-29.196029173990588,-27.65995764236623,-26.123886110741051,-24.601908753483183,-23.206780297743993,-21.811651842004022,-20.416523386263268,-19.021394930521698,-17.626266474779325,-16.231138019036177,-14.836009563292235,-13.440881107547487,-12.045752651801958,-10.679732140016235,-9.4786584782289989,-8.277584816440962,-7.0765111546521231,-5.875437492862476,-4.6743638310720206,-3.4732901692807574,-2.2722165074886891,-1.0711428456958187,0.12993081609785392,1.2850499884531292,2.2563490312061103,3.2276480739598754,4.1989471167144394,5.1702461594697775,6.1415452022259176,7.1128442449828464,8.0841432877405577,9.0554423304990657,10.026741373258352,10.93627818342828,11.660525960683964,12.384773737940424,13.109021515197686,13.833269292455732,14.557517069714576,15.281764846974207,16.006012624234614,16.730260401495826,17.454508178757845,18.104541048056433,18.581402875895037,19.058264703734412,19.535126531574594,20.011988359415565,20.48885018725732,20.965712015099857,21.442573842943208,21.919435670787337,22.396297498632254,22.791259786394797,23.03412071649899,23.276981646603979,23.51984257670976,23.762703506816333,24.005564436923688,24.248425367031867,24.49128629714081,24.73414722725056,24.977008157361105,25.135461721870584,25.167302243400748,25.199142764931711,25.230983286463488,25.26282380799605,25.294664329529429,25.326504851063568,25.358345372598524,25.390185894134298,25.42202641567086,25.37168940097531,25.220911449208803,25.070133497443109,24.919355545678222,24.768577593914156,24.617799642150889,24.46702169038841,24.316243738626756,24.165465786865877,24.014687835105828,23.181287192239438,22.878082237296489,22.574877282354333,22.271672327413015,21.968467372472517,21.665262417532819,21.362057462593956,21.058852507655878,20.687881909171413,20.261465528638841,19.835049148107078,19.408632767576144,18.982216387046023,18.555800006516751,18.1293836259883,17.70296724546067,17.276550864933892,16.850134484407906,16.365641920272854,15.842430985491326,15.319220050710642,14.796009115930797,14.272798181151806,13.749587246373634,13.226376311596317,12.703165376819834,12.179954442044211,11.656743507269397,11.085333857482276,10.487970352564133,9.8906068476468612,9.2932433427304364,8.6958798378148749,8.09851633290017,7.5011528279863091,6.9037893230733287,6.3064258181611832,5.709062313249901,5.0727799262862661,4.4198173615366319,3.766854796787845,3.1138922320399658,2.4609296672929433,1.8079671025468149,1.1550045378015574,0.50204197305716147,-0.15092059168633998,-0.80388315642897135,-1.4876075250866889,-2.1815862160683817,-2.8755649070491898,-3.5695435980291048,-4.2635222890081188,-4.9575009799862624,-5.6514796709634876,-6.3454583619398273,-7.0394370529152894,-7.7334157438898465,-8.4513771276275875,-9.1753344679149169,-9.8992918082013279,-10.62324914848679,-11.347206488771324,-12.071163829054903,-12.795121169337548,-13.519078509619254,-14.243035849900032,-14.966993190179879,-15.709748311001254,-16.455820896245775,-17.201893481489346,-17.947966066732029,-18.6940386519738,-19.440111237214651,-20.186183822454545,-20.932256407693565,-21.678328992931647,-22.424401578168833,-23.185580666783121,-23.948438414425873,-24.711296162067629,-25.474153909708374,-26.237011657348145,-26.999869404986889,-27.762727152624691,-28.525584900261425,-29.28844264789721,-30.051300395532021,-30.827292591901159,-31.603976205727456,-32.38065981955279,-33.157343433377072,-33.934027047200367,-34.710710661022638,-35.487394274843929,-36.264077888664161,-37.040761502483427,-37.817445116301613,0.15043574580060956,0.15043574580060956,0.15043574580060956,0.15043574580060956,0.15043574580060956,0.15043574580060956,0.15043574580060956,0.15043574580060956,0.15043574580060956,0.15043574580060956,0.15043574580060956,0.15043574580060956
DP 137,166.89908321894083,0.0028408673464332562,-95.722723866206636,-93.27224855636851,-90.8217732465282,-88.371297936685636,-85.920822626840717,-83.470347316993681,-81.019872007144315,-78.5693966972928,-76.11892138743903,-73.668446077582985,-71.221731743850555,-68.846476667500482,-66.471221591148165,-64.095966514793673,-61.720711438436922,-59.3454563620779,-56.970201285716669,-54.59494620935326,-52.219691132987556,-49.844436056619713,-47.484478580926165,-45.262200957275837,-43.039923333623385,-40.817645709968765,-38.595368086311979,-36.373090462653032,-34.1508128389919,-31.928535215328608,-29.706257591663164,-27.483979967995552,-25.294577819606708,-23.29147210277268,-21.288366385936477,-19.285260669098047,-17.282154952257429,-15.279049235414609,-13.27594351856956,-11.272837801722307,-9.26973208487285,-7.2666263680211829,-5.3183578887527965,-3.5894409514762473,-1.8605240141975334,-0.13160707691664017,1.5973098603664111,3.3262267976516515,5.0551437349390556,6.7840606722286365,8.5129776095203855,10.241894546814304,11.891853786343422,13.304936947292433,14.718020108243634,16.131103269197002,17.544186430152543,18.957269591110293,20.370352752070225,21.783435913032349,23.196519073996626,24.609602234963095,25.919676638331495,26.989393217077613,28.059109795825936,29.128826374576427,30.198542953329142,31.268259532084,32.33797611084109,33.407692689600331,34.477409268361839,35.547125847125479,36.491893703203942,37.204610557053975,37.917327410906232,38.6300442647607,39.342761118617368,40.05547797247619,40.768194826337286,41.480911680200578,42.193628534066043,42.906345387933726,43.475879208782892,43.830635096634978,44.18539098448931,44.540146872345886,44.894902760204694,45.249658648065733,45.604414535928989,45.959170423794468,46.31392631166225,46.668682199532107,46.866772008153383,46.873377762512732,46.879983516874411,46.886589271238215,46.893195025604356,46.899800779972779,46.906406534343411,46.913012288716324,46.919618043091461,46.926223797468879,46.121265522063418,45.797960437362313,45.47465535266349,45.151350267966912,44.828045183272685,44.50474009858069,44.18143501389104,43.858129929203621,43.366669309319363,42.737623998037208,42.108578686757411,41.479533375479917,40.850488064204782,40.221442752931978,39.59239744166149,38.963352130393332,38.334306819127512,37.70526150786403,36.909365377657046,36.0022327396588,35.095100101662979,34.187967463669438,33.280834825678362,32.373702187689588,31.466569549703252,30.559436911719249,29.652304273737645,28.745171635758414,27.676075020705948,26.519764678143517,25.363454335583569,24.20714399302603,23.050833650470935,21.894523307918281,20.738212965368056,19.581902622820298,18.425592280274934,17.269281937732028,15.95833186355461,14.581105008535285,13.203878153518394,11.826651298504071,10.449424443492179,9.0721975884828225,7.6949707334759534,6.3177438784715463,4.9405170234696678,3.56329016847027,2.0398956873885612,0.4677768221533441,-1.104342043079338,-2.67646090830948,-4.2485797735370587,-5.820698638762142,-7.3928175039846105,-8.96493636920456,-10.537055234422018,-12.109174099636871,-13.819027401845554,-15.56331594065597,-17.307604479463748,-19.051893018268828,-20.796181557071247,-22.540470095870923,-24.284758634667927,-26.029047173462232,-27.773335712253918,-29.517624251042896,-31.392769703356318,-33.2910090073209,-35.189248311282846,-37.087487615242217,-38.985726919198918,-40.883966223153,-42.782205527104409,-44.680444831053236,-46.578684134999477,-48.476923438943061,-50.501410983152589,-52.539927435516752,-54.578443887878095,-56.616960340236531,-58.655476792592168,-60.69399324494492,-62.73250969729488,-64.771026149641884,-66.809542601986138,-68.848059054327521,-71.012156105869764,-73.1828639121086,-75.353571718344583,-77.52427952457758,-79.69498733080772,-81.865695137035061,-84.036402943259361,-86.207110749480719,-88.3778185556993,-90.548526361914881,0.43196295586656164,0.43196295586656164,0.43196295586656164,0.43196295586656164,0.43196295586656164,0.43196295586656164,0.43196295586656164,0.43196295586656164,0.43196295586656164,0.43196295586656164,0.43196295586656164,0.43196295586656164
DP 138,77.0357178486863,0.0031652217816351426,-59.163932172995239,-57.844252456861348,-56.524572740725574,-55.20489302458784,-53.8852133084483,-52.565533592306849,-51.245853876163459,-49.926174160018206,-48.606494443871043,-47.286814727721996,-45.968543245279307,-44.677028469511058,-43.385513693740819,-42.093998917968719,-40.802484142194707,-39.510969366418813,-38.219454590640979,-36.927939814861276,-35.636425039079676,-34.34491026329615,-33.059237316598065,-31.826141383863895,-30.593045451127832,-29.3599495183899,-28.126853585650071,-26.893757652908391,-25.660661720164789,-24.427565787419315,-23.194469854671972,-21.961373921922757,-20.741193773573347,-19.594203884046667,-18.447213994518059,-17.300224104987521,-16.153234215455079,-15.006244325920688,-13.859254436384367,-12.712264546846134,-11.565274657305981,-10.418284767763897,-9.2937041058089243,-8.2587614132863454,-7.2238187207618543,-6.1888760282354305,-5.1539333357070891,-4.1189906431768195,-3.0840479506446314,-2.0491052581105142,-1.0141625655744779,0.020780126963481561,1.0218055034860984,1.9210776495920496,2.82034979569996,3.7196219418098195,4.61889408792164,5.5181662340354141,6.4174383801511405,7.3167105262688246,8.21598267238846,9.1152548185100617,9.9675234678445968,10.710115440160054,11.452707412477482,12.195299384796902,12.937891357118314,13.680483329441708,14.423075301767065,15.165667274094439,15.908259246423793,16.650851218755108,17.332249711763424,17.900001519141938,18.467753326522452,19.035505133905023,19.603256941289612,20.1710087486762,20.738760556064829,21.306512363455472,21.874264170848146,22.442015978242832,22.933744465322594,23.311436175469783,23.689127885619005,24.066819595770287,24.444511305923651,24.822203016079087,25.199894726236593,25.577586436396121,25.955278146557774,26.332969856721459,26.619594370300842,26.794912619653228,26.970230869007718,27.145549118364357,27.320867367723107,27.496185617083984,27.67150386644694,27.846822115812049,28.022140365179219,28.197458614548538,28.193621924043814,28.157023197361294,28.120424470680948,28.083825744002805,28.047227017326829,28.010628290653006,27.974029563981361,27.937430837311904,27.780414873515689,27.524873646250491,27.269332418987556,27.013791191726842,26.758249964468394,26.502708737212124,26.247167509958143,25.991626282706328,25.736085055456794,25.48054382820948,25.090752644871646,24.611459375891162,24.132166106912997,23.652872837937124,23.173579568963547,22.69428629999225,22.214993031023294,21.7356997620566,21.256406493092246,20.777113224130169,20.150447127934765,19.444424289401102,18.738401450869851,18.032378612340995,17.326355773814534,16.62033293529046,15.914310096768768,15.208287258249497,14.502264419732587,13.796241581218084,12.930446550689796,11.996175026813249,11.061903502939106,10.127631979067473,9.1933604551982686,8.25908893133153,7.3248174074672452,6.390545883605391,5.4562743597460193,4.5220028358891,3.4161652906479585,2.2531369093939841,1.0901085281425231,-0.072919853106421531,-1.2359482343528267,-2.3989766155967525,-3.5620049968381058,-4.72503337807696,-5.8880617593133282,-7.0510901405471316,-8.396899018713853,-9.78840518069381,-11.179911342671121,-12.571417504645707,-13.962923666617627,-15.354429828586834,-16.74593599055336,-18.1374421525172,-19.528948314478342,-20.920454476436831,-22.505866110748485,-24.125498514084871,-25.745130917418589,-27.364763320749777,-28.984395724078251,-30.604028127404128,-32.223660530727358,-33.843292934047966,-35.462925337365952,-37.082557740681338,-38.906785003984446,-40.753747178236381,-42.600709352485431,-44.447671526731561,-46.294633700974806,-48.141595875215067,-49.988558049452593,-51.835520223687055,-53.682482397918726,-55.529444572147405,-57.592114988387642,-59.666140616207336,-61.740166244024095,-63.814191871837835,-65.888217499648576,-67.9622431274565,-70.036268755261375,-72.110294383063192,-74.184320010862123,-76.258345638658,0.42926618945087297,0.42926618945087297,0.42926618945087297,0.42926618945087297,0.42926618945087297,0.42926618945087297,0.42926618945087297,0.42926618945087297,0.42926618945087297,0.42926618945087297,0.42926618945087297,0.42926618945087297
DP 139,103.67919048360865,0.0034294257743027411,-79.522761273469811,-77.650463980093733,-75.778166686715267,-73.905869393334484,-72.033572099951172,-70.1612748065655,-68.288977513177471,-66.416680219787,-64.544382926394192,-62.672085632999,-60.802056844278646,-58.975130073274322,-57.148203302267582,-55.321276531258405,-53.49434976024687,-51.667422989232911,-49.840496218216614,-48.013569447197817,-46.18664267617666,-44.359715905153074,-42.542136570247834,-40.808685043962264,-39.07523351767437,-37.341781991384089,-35.6083304650915,-33.874878938796542,-32.141427412499219,-30.407975886199541,-28.674524359897546,-26.941072833593154,-25.228096816615874,-23.631149976090203,-22.034203135562166,-20.437256295031684,-18.840309454498843,-17.243362613963562,-15.646415773425883,-14.049468932885814,-12.452522092343333,-10.855575251798456,-9.29370357110245,-7.8721341874895847,-6.4505648038743466,-5.028995420256722,-3.60742603663673,-2.1858566530143375,-0.76428726938957037,0.65728211423758387,2.0788514978671095,3.5004208814990205,4.8697609736933023,6.0824112168526874,7.2950614600144723,8.50771170317868,9.7203619463452764,10.933012189514285,12.145662432685699,13.358312675859512,14.570962919035725,15.78361316221436,16.925288870072343,17.90135453359213,18.877420197114358,19.85348586063899,20.829551524166078,21.805617187695557,22.781682851227497,23.757748514761865,24.733814178298655,25.709879841837861,26.595642548648986,27.31369732565733,28.031752102668111,28.74980687968138,29.467861656697078,30.185916433715274,30.903971210735911,31.622025987758985,32.340080764784517,33.058135541812526,33.666899556481731,34.11172484503038,34.556550133581467,35.001375422135084,35.446200710691208,35.891025999249834,36.335851287810911,36.780676576374532,37.225501864940625,37.670327153509234,37.987991404317782,38.150233937986094,38.312476471656929,38.474719005330272,38.636961539006172,38.799204072684667,38.961446606365655,39.12368914004918,39.285931673735263,39.448174207423889,39.21828406888072,39.09387896484801,38.9694738608179,38.845068756790383,38.720663652765431,38.59625854874308,38.471853444723294,38.347448340706144,38.065615225330127,37.654974667874917,37.2443341104224,36.8336935529725,36.423052995525239,36.012412438080652,35.6017718806387,35.191131323199393,34.780490765762764,34.369850208328806,33.789852300509459,33.09694682445086,32.404041348394969,31.711135872341796,31.018230396291376,30.325324920243634,29.63241944419865,28.939513968156323,28.246608492116785,27.553703016079922,26.681567935834604,25.712922000857198,24.744276065882612,23.775630130910784,22.806984195941741,21.838338260975497,20.869692326012004,19.901046391051359,18.93240045609345,17.963754521138345,16.807749577523488,15.571444753507055,14.335139929493417,13.098835105482729,11.862530281474864,10.626225457469918,9.3899206334678453,8.1536158094686062,6.91731098547229,5.6810061614788374,4.2504290301807215,2.7550920147327993,1.2597549992878079,-0.23558201615424232,-1.7309190315933249,-3.2262560470295152,-4.7215930624626949,-6.2169300778929539,-7.7122670933203192,-9.2076041087446772,-10.903396135322936,-12.649304283096663,-14.395212430867309,-16.1411205786348,-17.887028726399194,-19.632936874160411,-21.378845021918533,-23.124753169673514,-24.870661317425359,-26.61656946517413,-28.569399906157805,-30.558748346952868,-32.548096787744818,-34.5374452285338,-36.526793669319645,-38.516142110102493,-40.505490550882243,-42.494838991658966,-44.484187432432606,-46.473535873203254,-48.676667028771647,-50.903554064539343,-53.130441100303692,-55.357328136064609,-57.584215171822365,-59.811102207576681,-62.037989243327608,-64.264876279075168,-66.491763314819551,-68.718650350560381,-71.1679699422612,-73.628998723705735,-76.090027505146921,-78.551056286584583,-81.01208506801899,-83.4731138494499,-85.934142630877474,-88.395171412301508,-90.8562001937222,-93.317228975139344,0.50198350348176357,0.50198350348176357,0.50198350348176357,0.50198350348176357,0.50198350348176357,0.50198350348176357,0.50198350348176357,0.50198350348176357,0.50198350348176357,0.50198350348176357,0.50198350348176357,0.50198350348176357
DP 140,99.963246788814189,0.0016069394693524689,-36.246976361574923,-35.399166473103051,-34.551356584630142,-33.7035466961561,-32.855736807680941,-32.007926919204671,-31.160117030727296,-30.312307142248812,-29.464497253769235,-28.616687365288506,-27.769887462469189,-26.942277478168489,-26.114667493866655,-25.287057509563709,-24.459447525259655,-23.631837540954532,-22.804227556648254,-21.976617572340878,-21.1490075880324,-20.321397603722808,-19.497953604207705,-18.712003861628254,-17.926054119047667,-17.140104376466024,-16.354154633883283,-15.568204891299466,-14.78225514871454,-13.99630540612854,-13.210355663541458,-12.424405920953285,-11.647592997462963,-10.922555957950939,-10.197518918437805,-9.4724818789235652,-8.7474448394082156,-8.0224077998917576,-7.2973707603741813,-6.5723337208554957,-5.8472966813357052,-5.122259641814801,-4.4129014202084864,-3.766259211257462,-3.1196170023053438,-2.4729747933521167,-1.8263325843977953,-1.1796903754423649,-0.53304816648583675,0.1135940424717958,0.76023625143052631,1.4068784603903579,2.0301234884478205,2.5831760891809314,3.1362286899151561,3.689281290650491,4.24233389138694,4.7953864921245062,5.3484390928631793,5.90149169360297,6.4545442943438731,7.0075968950858867,7.5287696680085805,7.97555492046639,8.4223401729253418,8.8691254253853984,9.3159106778465919,9.7626959303089063,10.209481182772338,10.656266435236903,11.1030516877026,11.549836940169413,11.955934801613813,12.286469266634841,12.617003731656991,12.947538196680286,13.278072661704734,13.608607126730311,13.939141591757034,14.269676056784888,14.600210521813878,14.93074498684401,15.211860364329937,15.418845942707678,15.625831521086559,15.832817099466588,16.039802677847785,16.24678825623014,16.453773834613646,16.660759412998313,16.867744991384136,17.07473056977113,17.223986573413274,17.302682995326045,17.381379417240016,17.460075839155163,17.538772261071486,17.617468682988992,17.696165104907671,17.774861526827532,17.85355794874857,17.93225437067079,17.841569664027038,17.789556249891703,17.737542835757576,17.685529421624622,17.633516007492894,17.581502593362359,17.529489179233035,17.477475765104902,17.353332611941685,17.170172978148628,16.987013344356786,16.803853710566187,16.620694076776829,16.43753444298871,16.254374809201792,16.071215175416135,15.888055541631688,15.704895907848496,15.443746007398824,15.130601367213284,14.817456727029017,14.504312086846005,14.191167446664263,13.878022806483786,13.564878166304569,13.251733526126609,12.938588885949919,12.62544424577448,12.229325786472463,11.788527910286948,11.347730034102748,10.90693215791984,10.466134281738231,10.02533640555793,9.58453852937891,9.1437406532012115,8.7029427770248038,8.2621449008496946,7.7341441134166269,7.1687691778452676,6.6033942422752192,6.038019306706544,5.4726443711391868,4.9072694355731752,4.3418945000085065,3.7765195644451581,3.2111446288831629,2.6457696933225003,1.9894999822098147,1.3029308670480393,0.61636175188762821,-0.070207363271414913,-0.75677647842907791,-1.4433455935853947,-2.1299147087403116,-2.8164838238938703,-3.5030529390460785,-4.189622054196894,-4.9704370508547084,-5.7748146314189741,-6.579192211981808,-7.383569792543172,-8.1879473731030838,-8.9923249536615337,-9.7967025342185252,-10.60108011477406,-11.405457695328151,-12.209835275880783,-13.111911631141854,-14.031230033069866,-14.950548434996405,-15.869866836921569,-16.789185238845281,-17.708503640767592,-18.627822042688454,-19.547140444607923,-20.466458846525956,-21.385777248442565,-22.406368359144736,-23.438213056647175,-24.470057754148055,-25.501902451647364,-26.533747149145174,-27.565591846641325,-28.597436544136006,-29.629281241629073,-30.661125939120613,-31.692970636610564,-32.830406712759242,-33.973401280481639,-35.11639584820248,-36.259390415921679,-37.402384983639294,-38.545379551355367,-39.688374119069806,-40.831368686782639,-41.9743632544939,-43.117357822203537,0.23356531715034912,0.23356531715034912,0.23356531715034912,0.23356531715034912,0.23356531715034912,0.23356531715034912,0.23356531715034912,0.23356531715034912,0.23356531715034912,0.23356531715034912,0.23356531715034912,0.23356531715034912
DP 141,168.37506067721233,0.005902980458353765,-200.2758397845339,-195.14098776872137,-190.00613575290441,-184.87128373708262,-179.73643172125622,-174.60157970542517,-169.46672768958945,-164.3318756737491,-159.19702365790397,-154.06217164205435,-148.93523768923583,-143.95874843096436,-138.982259172688,-134.00576991440704,-129.0292806561215,-124.05279139783134,-119.07630213953659,-114.09981288123718,-109.12332362293299,-104.14683436462431,-99.202540384920752,-94.548006955854945,-89.893473526784518,-85.238940097709673,-80.584406668630336,-75.9298732395465,-71.275339810458121,-66.620806381365171,-61.966272952267865,-57.31173952316594,-52.72637017745361,-48.532934995976611,-44.339499814494978,-40.14606463300877,-35.952629451517971,-31.759194270022583,-27.565759088522586,-23.372323907017972,-19.178888725508816,-14.985453543995066,-10.907316048075485,-7.2903747436081217,-3.6734334391362626,-0.05649213465986818,3.5604491698210121,7.1773904743064465,10.794331778796369,14.411273083290835,18.0282143877898,21.645155692293276,25.096208176952928,28.049587930045231,31.002967683142082,33.956347436243462,36.909727189349368,39.863106942459822,42.816486695574866,45.769866448694373,48.723246201818419,51.67662595494707,54.413775019113444,56.646377293012314,58.87897956691571,61.111581840823682,63.344184114736173,65.5767863886533,67.809388662574932,70.041990936501136,72.27459321043186,74.507195484367173,76.477783137368945,77.961765132629722,79.445747127895132,80.929729123165117,82.413711118439636,83.8976931137188,85.381675109002515,86.865657104290861,88.34963909958374,89.833621094881252,91.017703697405054,91.751930124032427,92.4861565506644,93.220382977301043,93.954609403942328,94.688835830588189,95.423062257238726,96.157288683893967,96.8915151105537,97.625741537218175,98.032256651683937,98.038228834404464,98.044201017129765,98.050173199859771,98.056145382594451,98.06211756533375,98.068089748077867,98.074061930826559,98.08003411357997,98.086006296338027,96.3811732531201,95.698044296604436,95.014915340093552,94.331786383587385,93.648657427085922,92.965528470589291,92.282399514097435,91.599270557610268,90.565462998559937,89.244730556204388,87.923998113853571,86.603265671507714,85.282533229166617,83.9618007868304,82.641068344499,81.320335902172516,79.9996034598508,78.678871017534021,77.0107810402329,75.111113900821962,73.211446761415957,71.311779622014924,69.412112482618838,67.512445343227682,65.612778203841444,63.713111064460143,61.81344392508381,59.913776785712415,57.67755564925632,55.26010823567038,52.842660822089677,50.425213408513891,48.007765994943213,45.590318581377588,43.172871167817014,40.755423754261557,38.3379763407111,35.920528927165762,33.182389221664629,30.306804549550353,27.431219877441151,24.555635205337289,21.680050533238482,18.804465861144926,15.928881189056565,13.05329651697329,10.177711844895285,7.3021271728224368,4.1240597636983418,0.845160963417992,-2.4337378368570919,-5.7126366371269039,-8.9915354373913665,-12.270434237650674,-15.549333037904546,-18.828231838153176,-22.107130638396622,-25.386029438634662,-28.949345455064204,-32.583769135974187,-36.218192816878684,-39.852616497777561,-43.48704017867091,-47.121463859558531,-50.755887540440661,-54.390311221317248,-58.024734902188207,-61.659158583053653,-65.563240837176721,-69.514912896985791,-73.466584956789134,-77.418257016587276,-81.3699290763798,-85.321601136167,-89.273273195948647,-93.224945255724847,-97.176617315495534,-101.128289375261,-105.3396582929215,-109.57988514444165,-113.82011199595577,-118.06033884746388,-122.30056569896622,-126.54079255046257,-130.78101940195302,-135.02124625343734,-139.26147310491595,-143.50169995638859,-147.99993626796282,-152.51175459189395,-157.02357291581913,-161.53539123973809,-166.047209563651,-170.55902788755813,-175.07084621145907,-179.58266453535379,-184.09448285924276,-188.6063011831254,0.89742488764957362,0.89742488764957362,0.89742488764957362,0.89742488764957362,0.89742488764957362,0.89742488764957362,0.89742488764957362,0.89742488764957362,0.89742488764957362,0.89742488764957362,0.89742488764957362,0.89742488764957362
DP 142,165.02897212435101,0.0034426782563674128,-114.9805695564899,-112.04284880407448,-109.10512805165632,-106.16740729923561,-103.2296865468121,-100.29196579438593,-97.354245041956929,-94.416524289525356,-91.478803537091025,-88.541082784654,-85.6078442407267,-82.75976850587044,-79.911692771011658,-77.063617036150092,-74.215541301285782,-71.367465566418844,-68.519389831549162,-65.671314096676767,-62.823238361801714,-59.975162626923918,-57.145323257486474,-54.479612900766128,-51.813902544043216,-49.148192187317676,-46.482481830589521,-43.816771473858765,-41.151061117125344,-38.4853507603893,-35.819640403650624,-33.153930046909366,-30.527433814154964,-28.123153421730127,-25.71887302930261,-23.314592636872423,-20.910312244439574,-18.506031852004039,-16.101751459565847,-13.697471067124965,-11.293190674681416,-8.8889102822352033,-6.5500874700113325,-4.4730980722630056,-2.3961086745120572,-0.31911927675846657,1.7578701209977359,3.83485951875659,5.9118489165180605,7.9888383142821686,10.065827712048899,12.142817109818257,14.125469956395088,15.825109582654528,17.524749208916607,19.224388835181319,20.9240284614487,22.623668087718716,24.32330771399139,26.022947340266644,27.722586966544593,29.422226592825165,30.998655215635914,32.287586644479013,33.576518073324756,34.865449502173178,36.154380931024257,37.443312359877972,38.732243788734337,40.021175217593381,41.310106646455047,42.599038075319392,43.738318591007882,44.599671940731263,45.461025290457265,46.322378640186031,47.1837319899173,48.045085339651386,48.906438689388125,49.767792039127563,50.629145388869595,51.490498738614285,52.180108081418986,52.612097355437733,53.044086629459166,53.47607590348337,53.9080651775102,54.340054451539821,54.772043725572011,55.20403299960703,55.636022273644684,56.068011547684961,56.311768927706929,56.325461150159988,56.339153372615748,56.352845595074285,56.366537817535566,56.380230039999581,56.393922262466312,56.407614484935721,56.421306707407908,56.434998929882831,55.4832997574253,55.099880893248482,54.716462029074485,54.333043164903252,53.949624300734783,53.56620543656912,53.182786572406123,52.799367708245981,52.213132023797826,51.460951819016373,50.708771614237754,49.956591409462042,49.204411204689023,48.452230999918932,47.7000507951516,46.94787059038714,46.19569038562549,45.443510180866646,44.489644061170516,43.401317487576968,42.312990913986326,41.224664340398505,40.136337766813583,39.048011193231538,37.959684619652343,36.871358046076047,35.783031472502664,34.694704898932137,33.410133556680094,32.019889100626372,30.629644644575638,29.239400188527835,27.849155732482977,26.458911276441079,25.068666820402104,23.678422364366146,22.288177908333079,20.897933452302983,19.31984076705746,17.661238527199849,16.002636287345165,14.344034047493599,12.685431807645013,11.026829567799483,9.3682273279569515,7.7096250881174218,6.0510228482809421,4.3924206084474777,2.555784300316704,0.65980105901998976,-1.2361821822736532,-3.1321654235642202,-5.0281486648516731,-6.9241319061361057,-8.820115147417372,-10.716098388695592,-12.612081629970774,-14.508064871242825,-16.572269715610286,-18.67853194831542,-20.784794181017357,-22.891056413716015,-24.997318646411429,-27.103580879103522,-29.209843111792424,-31.316105344478039,-33.422367577160443,-35.528629809839607,-37.795131938400687,-40.08991347753657,-42.384695016669141,-44.6794765557987,-46.974258094924949,-49.2690396340481,-51.563821173167959,-53.858602712284714,-56.153384251398293,-58.448165790508632,-60.897892776233363,-63.3648375499839,-65.831782323731218,-68.29872709747481,-70.76567187121519,-73.232616644951847,-75.699561418685249,-78.166506192414971,-80.633450966141368,-83.100395739864354,-85.721702179813107,-88.351134453819512,-90.980566727822463,-93.609999001821848,-96.23943127581768,-98.868863549810143,-101.49829582379898,-104.12772809778416,-106.75716037176598,-109.38659264574417,0.52355450455675634,0.52355450455675634,0.52355450455675634,0.52355450455675634,0.52355450455675634,0.52355450455675634,0.52355450455675634,0.52355450455675634,0.52355450455675634,0.52355450455675634,0.52355450455675634,0.52355450455675634
DP 143,213.84253968462818,0.0045452666670842854,-185.04899039887877,-180.10124077860985,-175.15349115833712,-170.20574153806103,-165.25799191778117,-160.31024229749755,-155.36249267721058,-150.41474305691983,-145.46699343662547,-140.51924381632745,-135.58019530464847,-130.80646950169259,-126.03274369873314,-121.25901789577006,-116.48529209280358,-111.71156628983331,-106.93784048685951,-102.16411468388213,-97.390388880901057,-92.616663077916442,-87.87802880926732,-83.455221666580314,-79.032414523889912,-74.609607381195872,-70.186800238498492,-65.763993095797574,-61.341185953093174,-56.91837881038515,-52.495571667673786,-48.072764524958771,-43.7243891211123,-39.7977982611489,-35.871207401181884,-31.944616541211378,-28.018025681237251,-24.091434821259554,-20.164843961278322,-16.238253101293509,-12.311662241305164,-8.3850713813132547,-4.58038851781721,-1.2633434017856751,2.0537017142493359,5.3707468302878567,8.6877919463298419,12.004837062375364,15.321882178424367,18.638927294476876,21.955972410532844,25.273017526592348,28.418508936308527,31.049332740779505,33.68015654525405,36.310980349732048,38.941804154213578,41.572627958698618,44.203451763187154,46.8342755676792,49.465099372174713,52.095923176673786,54.509012841479489,56.414047605098155,58.319082368720331,60.224117132346045,62.129151895975262,64.034186659607954,65.9392214232442,67.844256186883939,69.749290950527239,71.654325714174,73.303536457651134,74.477638540562523,75.65174062347738,76.825842706395775,77.9999447893177,79.174046872243181,80.348148955172178,81.522251038104685,82.696353121040758,83.870455203980327,84.761778969557867,85.228928576934408,85.6960781843144,86.163227791698034,86.630377399085162,87.097527006475943,87.564676613870176,88.031826221267977,88.498975828669373,88.966125436074321,89.136017842318807,88.942589647769,88.749161453222712,88.55573325868005,88.362305064140926,88.168876869605469,87.975448675073622,87.782020480545384,87.5885922860207,87.395164091499623,85.317301616699993,84.524841133272957,83.732380649849588,82.939920166429744,82.147459683013579,81.354999199601025,80.562538716192179,79.770078232786986,78.686574064714378,77.364938243756356,76.043302422801986,74.721666601851382,73.4000307809044,72.07839495996113,70.756759139021611,69.435123318085815,68.113487497153628,66.791851676225264,65.1960454978488,63.417454762012461,61.63886402617991,59.860273290351081,58.081682554526068,56.303091818704793,54.524501082887305,52.745910347073561,50.967319611263655,49.188728875457457,47.158516835069292,44.99281274089202,42.827108646718628,40.661404552549087,38.49570045838334,36.329996364221529,34.164292270063513,31.998588175909383,29.832884081759044,27.66717998761262,25.275300726501477,22.786485433399172,20.297670140300664,17.808854847206263,15.320039554115702,12.831224261029149,10.342408967946541,7.8535936748678106,5.3647783817930979,2.8759630887223091,0.18666516756405643,-2.569462822938597,-5.32559081343724,-8.0817188039318744,-10.83784679442245,-13.59397478490909,-16.35010277539158,-19.106230765870091,-21.862358756344673,-24.618486746815119,-27.551312646403527,-30.52831511098341,-33.50531757555914,-36.48232004013056,-39.459322504697823,-42.436324969260745,-45.413327433819468,-48.390329898373928,-51.367332362924209,-54.34433482747027,-57.478547541663943,-60.640504989288367,-63.802462436908463,-66.964419884524588,-70.126377332136471,-73.2883347797443,-76.450292227347845,-79.612249674947307,-82.7742071225427,-85.936164570133911,-89.241140824841125,-92.562009560149022,-95.882878295452471,-99.20374703075133,-102.52461576604583,-105.84548450133558,-109.16635323662109,-112.48722197190177,-115.80809070717832,-119.12895944245025,-122.58636878823303,-126.05096584045924,-129.5155628926808,-132.98015994489785,-136.44475699711032,-139.90935404931841,-143.3739511015217,-146.83854815372035,-150.30314520591455,-153.76774225810408,0.68098040933719628,0.68098040933719628,0.68098040933719628,0.68098040933719628,0.68098040933719628,0.68098040933719628,0.68098040933719628,0.68098040933719628,0.68098040933719628,0.68098040933719628,0.68098040933719628,0.68098040933719628
DP 144,182.864226092304,0.00394346866816711,-142.65175372469889,-138.94140788319365,-135.23106204168539,-131.52071620017392,-127.81037035865926,-124.10002451714156,-120.38967867562054,-116.67933283409654,-112.96898699256937,-109.25864115103911,-105.55427550359826,-101.96353467443967,-98.372793845278011,-94.782053016113224,-91.19131218694541,-87.600571357774371,-84.009830528600247,-80.419089699423,-76.828348870242621,-73.2376080410591,-69.671119384352167,-66.322902572316863,-62.974685760278554,-59.626468948237168,-56.278252136192755,-52.930035324145358,-49.581818512094848,-46.233601700041383,-42.8853848879849,-39.537168075925386,-36.240838694584433,-33.238541356990183,-30.236244019392839,-27.233946681792389,-24.23164934418892,-21.229352006582314,-18.22705466897262,-15.224757331359847,-12.222459993743998,-9.2201626561250762,-6.30387212814128,-3.731612903458577,-1.1593536787728622,1.4129055459158983,3.9851647706076676,6.5574239953024946,9.12968322000034,11.701942444701224,14.274201669405125,16.846460894112056,19.2958567494066,21.376657851163863,23.457458952924185,25.538260054687541,27.619061156453959,29.699862258223394,31.780663359995859,33.861464461771426,35.942265563549988,38.023066665331619,39.945093552627554,41.496641019630445,43.048188486636327,44.599735953645279,46.151283420657322,47.70283088767242,49.254378354690523,50.805925821711661,52.357473288735882,53.909020755763194,55.2700890729062,56.277405253297815,57.284721433692546,58.292037614090354,59.29935379449109,60.306669974895073,61.313986155302011,62.321302335712119,63.328618516125232,64.335934696541372,65.127692756268459,65.596108541242032,66.064524326218688,66.532940111198386,67.001355896181352,67.469771681167288,67.938187466156307,68.406603251148468,68.875019036143783,69.343434821142111,69.579264944858124,69.5308188193752,69.482372693895428,69.433926568418755,69.385480442945223,69.337034317474874,69.28858819200758,69.240142066543513,69.191695941082529,69.143249815624642,67.792176693891633,67.261435758559543,66.730694823230735,66.199953887905053,65.669212952582527,65.138472017263226,64.607731081947108,64.076990146634131,63.304530483123436,62.334296796978016,61.364063110835858,60.39382942469696,59.423595738561282,58.4533620524288,57.483128366299631,56.51289468017363,55.54266099405087,54.572427307931406,53.366704970570119,52.003986489261351,50.6412680079559,49.278549526653642,47.915831045354786,46.553112564059141,45.1903940827669,43.827675601477871,42.464957120192182,41.102238638909789,39.5154154030957,37.807917117504523,36.100418831916762,34.392920546332384,32.685422260751366,30.97792397517372,29.27042568959941,27.562927404028542,25.855429118460989,24.147930832896794,22.230970905184304,20.224238166793167,18.217505428405396,16.210772690021177,14.204039951640352,12.197307213263036,10.190574474889173,8.1838417365186977,6.1771089981517493,4.1703762597882328,1.9700697425007503,-0.29476380733914731,-2.5595973571755333,-4.8244309070084048,-7.0892644568377108,-9.35409800666358,-11.618931556485812,-13.883765106304564,-16.148598656119848,-18.413432205931542,-20.856491304861837,-23.344108896833511,-25.831726488801529,-28.319344080765784,-30.806961672726377,-33.2945792646832,-35.782196856636311,-38.269814448585741,-40.757432040531413,-43.245049632473446,-45.898246646599745,-48.580665400024309,-51.263084153445185,-53.945502906862508,-56.627921660276073,-59.31034041368612,-61.992759167092409,-64.675177920495159,-67.357596673894221,-70.040015427289688,-72.879083821587884,-75.735559376730436,-78.592034931869222,-81.448510487003944,-84.3049860421348,-87.161461597261649,-90.0179371523846,-92.8744127075035,-95.730888262618492,-98.5873638177295,-101.59758113842999,-104.61589166067061,-107.63420218290722,-110.65251270513977,-113.67082322736832,-116.68913374959287,-119.70744427181327,-122.7257547940296,-125.74406531624201,-128.7623758384502,0.59781848854242248,0.59781848854242248,0.59781848854242248,0.59781848854242248,0.59781848854242248,0.59781848854242248,0.59781848854242248,0.59781848854242248,0.59781848854242248,0.59781848854242248,0.59781848854242248,0.59781848854242248
DP 145,177.8681744815872,0.0032053716710708849,-113.49661148111777,-110.55880447621765,-107.62099747131472,-104.68319046640944,-101.74538346150159,-98.807576456591221,-95.869769451678167,-92.931962446762725,-89.994155441844654,-87.056348436924111,-84.1232061299125,-81.2786939650527,-78.4341818001903,-75.589669635325478,-72.745157470458082,-69.900645305588114,-67.056133140715716,-64.211620975840759,-61.367108810963231,-58.52259664608323,-55.697019102439846,-53.041854939680121,-50.386690776917995,-47.731526614153417,-45.076362451386395,-42.421198288616864,-39.766034125844904,-37.110869963070478,-34.455705800293615,-31.800541637514304,-29.185943900863457,-26.801225135225142,-24.416506369584344,-22.031787603941005,-19.647068838295198,-17.262350072646875,-14.877631306996028,-12.492912541342692,-10.108193775686848,-7.7234750100285208,-5.4061298692015685,-3.3582824118396162,-1.3104349544752139,0.73741250289165938,2.7852599602609756,4.8331074176327729,6.88095487500702,8.9288023323837411,10.976649789762909,13.024497247144533,14.975861976157937,16.637774872183261,18.299687768211047,19.961600664241324,21.623513560274048,23.285426456309267,24.947339352346926,26.609252248387076,28.271165144429716,29.933078040474783,31.469941083871785,32.715016212796904,33.9600913417245,35.205166470654582,36.450241599587152,37.695316728522165,38.94039185745968,40.185466986399682,41.430542115342178,42.675617244287125,43.770155482482878,44.585121143864754,45.400086805249131,46.215052466636031,47.030018128025375,47.844983789417277,48.659949450811624,49.474915112208478,50.289880773607791,51.104846435009662,51.7487919643491,52.136203254324592,52.523614544302625,52.91102583428318,53.298437124266293,53.685848414251858,54.073259704239966,54.460670994230583,54.848082284223736,55.235493574219383,55.437576145074452,55.413141944191906,55.38870774331194,55.3642735424345,55.339839341559625,55.31540514068724,55.290970939817456,55.266536738950236,55.242102538085511,55.217668337223358,54.179027042242929,53.768456634471079,53.3578862267019,52.947315818935195,52.536745411171161,52.126175003409713,51.715604595650852,51.305034187894513,50.699927620771838,49.935651761833647,49.171375902898006,48.407100043965094,47.642824185034783,46.878548326107087,46.114272467182047,45.349996608259595,44.585720749339814,43.821444890422619,42.866573626686979,41.784635757181441,40.702697887678639,39.620760018178416,38.538822148680971,37.456884279186177,36.374946409694033,35.293008540204596,34.211070670717859,33.129132801233766,31.864700485004843,30.501999274432272,29.139298063862515,27.776596853295437,26.413895642731124,25.051194432169574,23.688493221610745,22.325792011054705,20.963090800501362,19.600389589950787,18.06599268772386,16.458009019609406,14.850025351497678,13.242041683388853,11.634058015282791,10.026074347179573,8.4180906790791568,6.81010701098151,5.2021233428867282,3.59413967479474,1.8263724689943119,0.0053420702326762385,-1.8156883285261036,-3.6367187272820236,-5.45774912603504,-7.2787795247852571,-9.0998099235325256,-10.920840322276963,-12.741870721018582,-14.562901119757271,-16.532111702907429,-18.53836908293172,-20.544626462953055,-22.550883842971341,-24.557141222986623,-26.563398602998824,-28.569655983008026,-30.575913363014198,-32.58217074301735,-34.58842812301755,-36.733319940152512,-38.90267819959216,-41.072036459028794,-43.241394718462615,-45.410752977893374,-47.580111237321212,-49.749469496746087,-51.918827756167985,-54.088186015586921,-56.257544275002907,-58.558874310233314,-60.874869262123,-63.190864214009544,-65.506859165892791,-67.822854117772948,-70.138849069649737,-72.454844021523428,-74.770838973393779,-77.086833925261075,-79.402828877124989,-81.84890026950022,-84.301819084530436,-86.754737899557256,-89.207656714580821,-91.660575529601147,-94.1134943446182,-96.566413159631892,-99.019331974642213,-101.47225078964935,-103.92516960465316,0.4865208428039684,0.4865208428039684,0.4865208428039684,0.4865208428039684,0.4865208428039684,0.4865208428039684,0.4865208428039684,0.4865208428039684,0.4865208428039684,0.4865208428039684,0.4865208428039684,0.4865208428039684
DP 146,75.8640702587223,0.003811949819686061,-70.506880750128062,-68.938612527932477,-67.370344305734577,-65.8020760835344,-64.233807861332039,-62.665539639127338,-61.097271416920421,-59.529003194711258,-57.960734972499822,-56.392466750286104,-54.825862473400136,-53.290873472341332,-51.755884471280268,-50.2208954702169,-48.6859064691513,-47.150917468083456,-45.61592846701334,-44.080939465940922,-42.545950464866287,-41.010961463789364,-39.482876723928811,-38.01693098763679,-36.550985251342482,-35.085039515045921,-33.619093778747164,-32.153148042446119,-30.687202306142819,-29.221256569837315,-27.75531083352956,-26.289365097219569,-24.838689686837732,-23.474547085644737,-22.110404484449429,-20.746261883251812,-19.382119282051931,-18.017976680849735,-16.653834079645232,-15.289691478438455,-13.925548877229357,-12.56140627601798,-11.223775895436534,-9.9921956503706788,-8.7606154053025413,-7.5290351602320982,-6.2974549151593671,-5.0658746700843222,-3.8342944250069921,-2.6027141799273554,-1.3711339348454297,-0.13955368976120375,1.0518733365336213,2.1228391883180113,3.1938050401047344,4.264770891893793,5.3357367436851852,6.4067025954789107,7.4776684472749713,8.5486342990733721,9.6196001508740867,10.690566002677159,11.705835027065827,12.591142593928291,13.476450160793094,14.361757727660287,15.247065294529841,16.132372861401784,17.017680428276073,17.902987995152753,18.788295562031802,19.673603128913214,20.486325399761629,21.164244446298081,21.842163492836953,22.520082539378226,23.198001585921954,23.87592063246807,24.5538396790166,25.231758725567552,25.909677772120933,26.587596818676733,27.175236213163306,27.627453996203265,28.079671779245746,28.53188956229064,28.984107345338,29.436325128387853,29.888542911440183,30.34076069449501,30.792978477552261,31.245196260612015,31.589132307884174,31.800721736982243,32.012311166082881,32.223900595186009,32.435490024291695,32.647079453399911,32.858668882510628,33.070258311623945,33.281847740739757,33.493437169858069,33.497402894251685,33.456670821198252,33.415938748147425,33.375206675099172,33.334474602053568,33.293742529010487,33.253010455970021,33.21227838293219,33.02796471364838,32.7261727253383,32.42438073703093,32.122588748726194,31.820796760424123,31.519004772124781,31.217212783828085,30.915420795534043,30.613628807242648,30.311836818953992,29.849728882438107,29.280741121556161,28.711753360676944,28.142765599800505,27.5737778389268,27.004790078055873,26.435802317187676,25.866814556322229,25.297826795459557,24.728839034599602,23.983605252838721,23.143467204590266,22.303329156344713,21.463191108101984,20.623053059862148,19.782915011625182,18.942776963391037,18.102638915159812,17.262500866931433,16.422362818705924,15.390873814230554,14.277374027292643,13.163874240357591,12.050374453425556,10.936874666496427,9.8233748795702578,8.709875092647021,7.596375305726708,6.4828755188093634,5.36937573189495,4.0501184917964936,2.6622728408429883,1.2744271898924948,-0.11341846105498328,-1.5012641119994179,-2.8891097629408793,-4.2769554138792643,-5.6648010648146467,-7.0526467157470591,-8.4404923666763931,-10.0478087581519,-11.7099954278449,-13.372182097534729,-15.034368767221313,-16.696555436904688,-18.358742106584792,-20.020928776261709,-21.683115445935375,-23.345302115605808,-25.007488785273104,-26.902740730756655,-28.839124434279867,-30.775508137799847,-32.711891841316792,-34.648275544830547,-36.58465924834114,-38.52104295184855,-40.457426655352819,-42.393810358853983,-44.330194062351993,-46.5126828821232,-48.722519299497,-50.932355716867448,-53.142192134234293,-55.352028551597819,-57.561864968957728,-59.77170138631422,-61.981537803667131,-64.19137422101673,-66.40121063836277,-68.870640151376691,-71.353735041746731,-73.836829932113218,-76.319924822476068,-78.803019712835422,-81.286114603191223,-83.769209493543428,-86.252304383891968,-88.735399274236983,-91.218494164578473,0.51431905711818726,0.51431905711818726,0.51431905711818726,0.51431905711818726,0.51431905711818726,0.51431905711818726,0.51431905711818726,0.51431905711818726,0.51431905711818726,0.51431905711818726,0.51431905711818726,0.51431905711818726
DP 147,72.128816544548187,0.0018176579831012498,-32.487838613740919,-31.771907792808278,-31.055976971874607,-30.3400461509399,-29.624115330004173,-28.908184509067425,-28.192253688129618,-27.4763228671908,-26.760392046250939,-26.04446122531003,-25.3292762124518,-24.628261694173492,-23.92724717589417,-23.226232657613792,-22.525218139332388,-21.824203621049953,-21.123189102766446,-20.422174584481905,-19.721160066196326,-19.020145547909696,-18.322227954917057,-17.652182982305149,-16.982138009692203,-16.312093037078217,-15.642048064463198,-14.972003091847141,-14.301958119230065,-13.631913146611934,-12.961868173992784,-12.291823201372587,-11.6286379222595,-11.004324671951698,-10.380011421642827,-9.7556981713328987,-9.1313849210219136,-8.5070716707098679,-7.8827584203967564,-7.2584451700825792,-6.6341319197673494,-6.0098186694510654,-5.3974358769761892,-4.8327754797132041,-4.2681150824491549,-3.7034546851840453,-3.1387942879178747,-2.5741338906506361,-2.0094734933823371,-1.4448130961129733,-0.88015269884254987,-0.31549230157106439,0.23105559969456566,0.72326532813209032,1.2154750565706947,1.7076847850103807,2.1998945134511487,2.6921042418930003,3.1843139703359298,3.676523698779945,4.1687334272250318,4.6609431556712044,5.1279595200968888,5.5361903762615876,5.9444212324273851,6.3526520885942848,6.7608829447622911,7.1691138009313935,7.5773446571016,7.9855755132729049,8.3938063694453149,8.8020372256188146,9.17732883671425,9.4914466745304473,9.8055645123477664,10.119682350166213,10.433800187985788,10.747918025806479,11.062035863628301,11.376153701451241,11.690271539275303,12.004389377100496,12.277388225752468,12.488707618987146,12.700027012222955,12.911346405459941,13.122665798698044,13.33398519193733,13.545304585177741,13.756623978419313,13.96794337166204,14.179262764905895,14.341066575331309,14.442350300026011,14.543634024721872,14.644917749418914,14.746201474117138,14.847485198816537,14.94876892351712,15.050052648218875,15.151336372921804,15.252620097625911,15.26676778433929,15.252169895021865,15.237572005705646,15.222974116390626,15.208376227076833,15.193778337764254,15.179180448452874,15.164582559142721,15.083745093392176,14.948710472179657,14.813675850968353,14.678641229758322,14.543606608549526,14.408571987341984,14.273537366135688,14.138502744930639,14.003468123726833,13.868433502524278,13.659097474743305,13.400226005397922,13.141354536053806,12.882483066710986,12.623611597369448,12.364740128029204,12.105868658690261,11.84699718935259,11.588125720016206,11.329254250681107,10.988318210289512,10.603192361351192,10.218066512414193,9.8329406634785173,9.4478148145441718,9.0626889656111373,8.677563116679428,8.292437267749051,7.9073114188199805,7.5221855698922422,7.0475604644504486,6.5345770241437133,6.02159358383833,5.5086101435343426,4.9956267032317214,4.4826432629304884,3.9696598226306286,3.4566763823321369,2.9436929420350344,2.4307095017393063,1.821087204229654,1.1792507363918847,0.53741426855552665,-0.10442219927941809,-0.74625866711293587,-1.3880951349450594,-2.0299316027757426,-2.6717680706050158,-3.3136045384328949,-3.9554410062593308,-4.70074474357003,-5.4719165207336919,-6.2430882978958584,-7.0142600750565069,-7.785431852215642,-8.5566036293732548,-9.3277754065293568,-10.098947183683949,-10.870118960837031,-11.641290737988605,-12.522680463155837,-13.423521640082798,-14.324362817008257,-15.225203993932258,-16.126045170854763,-17.026886347775797,-17.927727524695353,-18.828568701613435,-19.729409878530021,-20.630251055445154,-21.647749975163244,-22.678212091484987,-23.708674207805085,-24.739136324123557,-25.769598440440411,-26.800060556755582,-27.830522673069197,-28.86098478938106,-29.89144690569141,-30.921909022000079,-32.075601806914257,-33.235781642587611,-34.395961478259323,-35.556141313929317,-36.716321149597661,-37.876500985264371,-39.036680820929405,-40.196860656592683,-41.357040492254342,-42.517220327914266,0.24090585524512267,0.24090585524512267,0.24090585524512267,0.24090585524512267,0.24090585524512267,0.24090585524512267,0.24090585524512267,0.24090585524512267,0.24090585524512267,0.24090585524512267,0.24090585524512267,0.24090585524512267
DP 148,192.09208073251042,0.0010478418072420051,-39.361517260975511,-38.328872994972869,-37.296228728969375,-36.263584462965056,-35.230940196959892,-34.198295930953904,-33.165651664947049,-32.133007398939412,-31.100363132930912,-30.067718866921528,-29.03678450318781,-28.038338605953424,-27.039892708718128,-26.041446811482079,-25.043000914245169,-24.044555017007433,-23.046109119768879,-22.047663222529494,-21.049217325289277,-20.050771428048222,-19.059248171920064,-18.130029340154625,-17.200810508388379,-16.271591676621348,-15.342372844853491,-14.413154013084855,-13.483935181315392,-12.554716349545119,-11.625497517774049,-10.696278686002183,-9.78183201420459,-8.9510951797920075,-8.1203583453786052,-7.2896215109643894,-6.4588846765493475,-5.62814784213349,-4.7974110077168044,-3.9666741732992969,-3.1359373388809768,-2.3052005044618347,-1.4988624557406338,-0.79012070291998193,-0.081378950098527941,0.62736280272373579,1.3361045555468005,2.0448463083706776,2.7535880611953578,3.4623298140208494,4.1710715668471394,4.8798133196742421,5.5538577770936355,6.1238090364315649,6.6937602957703062,7.2637115551098557,7.8336628144502143,8.4036140737913811,8.97356533313336,9.5435165924761485,10.113467851819738,10.68341911116414,11.208773691108425,11.63006759605806,12.05136150100849,12.472655405959749,12.893949310911822,13.315243215864687,13.736537120818385,14.157831025772881,14.579124930728199,15.000418835684325,15.368545653319597,15.637932158663421,15.90731866400805,16.176705169353504,16.446091674699773,16.715478180046858,16.984864685394761,17.254251190743467,17.523637696092997,17.793024201443366,18.002669038406026,18.12269996106906,18.242730883732914,18.362761806397593,18.482792729063092,18.60282365172943,18.722854574396557,18.842885497064543,18.962916419733325,19.082947342402949,19.139024569561396,19.116934825539897,19.094845081519235,19.072755337499395,19.050665593480382,19.028575849462218,19.006486105444878,18.98439636142837,18.962306617412697,18.940216873397848,18.54527097498389,18.391710315888524,18.238149656794011,18.084588997700351,17.931028338607522,17.777467679515556,17.623907020424415,17.470346361334144,17.251514860969841,16.97927882329164,16.707042785614302,16.434806747937831,16.1625707102622,15.890334672587437,15.618098634913544,15.345862597240508,15.073626559568309,14.801390521896977,14.466214787344962,14.089078263347707,13.711941739351346,13.334805215355836,12.957668691361226,12.580532167367476,12.2033956433746,11.826259119382602,11.449122595391486,11.071986071401234,10.635613219120104,10.167343020974737,9.69907282283029,9.2308026246867279,8.7625324265440554,8.2942622284022853,7.8259920302614,7.357721832121416,6.8894516339823291,6.42118143584414,5.8982023343849725,5.3517756366504425,4.8053489389168016,4.2589222411841083,3.7124955434523135,3.1660688457214459,2.6196421479914935,2.0732154502624436,1.5267887525343258,0.98036205480711935,0.38401469946737304,-0.2289735042181846,-0.84196170790281066,-1.4549499115865046,-2.0679381152692549,-2.6809263189510917,-3.2939145226319657,-3.9069027263119156,-4.5198909299909529,-5.1328791336690252,-5.7912264830996607,-6.4609141548935405,-7.1306018266864637,-7.8002894984783877,-8.4699771702693418,-9.1396648420592843,-9.8093525138482551,-10.479040185636237,-11.148727857423236,-11.818415529209259,-12.529701908855396,-13.248329699530681,-13.966957490204972,-14.685585280878348,-15.404213071550728,-16.122840862222159,-16.841468652892605,-17.560096443562106,-18.278724234230637,-18.997352024898209,-19.754883480375153,-20.516737973855019,-21.278592467333866,-22.040446960811632,-22.802301454288379,-23.564155947764061,-24.326010441238719,-25.08786493471229,-25.849719428184834,-26.611573921656333,-27.411304330052982,-28.213028584505878,-29.014752838957694,-29.81647709340843,-30.618201347858108,-31.419925602306723,-32.221649856754254,-33.023374111200688,-33.825098365646113,-34.626822620090387,0.15840061875718439,0.15840061875718439,0.15840061875718439,0.15840061875718439,0.15840061875718439,0.15840061875718439,0.15840061875718439,0.15840061875718439,0.15840061875718439,0.15840061875718439,0.15840061875718439,0.15840061875718439
DP 149,183.0431299151771,0.005180852009897101,-187.55435913867248,-182.67526576569196,-177.79617239270729,-172.9170790197185,-168.03798564672547,-163.15889227372847,-158.27979890072749,-153.40070552772207,-148.5216121547127,-143.64251878169927,-138.77129384411887,-134.04957066732445,-129.32784749052604,-124.6061243137235,-119.88440113691705,-115.16267796010631,-110.44095478329157,-105.71923160647277,-100.9975084296498,-96.275785252822786,-91.58596992595551,-87.183328264745214,-82.780686603530967,-78.3780449423128,-73.975403281090578,-69.57276161986438,-65.170119958634231,-60.767478297400096,-56.364836636162018,-51.962194974919917,-47.627815358454683,-43.68025829724214,-39.732701236025619,-35.785144174804962,-31.837587113580266,-27.89003005235158,-23.942472991118784,-19.994915929881923,-16.047358868641052,-12.099801807396117,-8.2653852972940687,-4.8835363388895665,-1.5016873804810942,1.8801615779313718,5.2620105363477885,8.64385949476822,12.025708453192623,15.407557411621015,18.789406370053378,22.17125532848971,25.39149190911694,28.126885245968364,30.8622785828238,33.5976719196832,36.333065256546625,39.068458593414071,41.803851930285461,44.539245267160922,47.274638604040348,50.010031940923774,52.53659916671144,54.575897242205741,56.615195317704021,58.654493393206359,60.693791468712732,62.733089544223091,64.772387619737387,66.811685695255818,68.850983770778228,70.890281846304646,72.679086002063272,74.002680399090565,75.3262747961218,76.649869193157116,77.973463590196459,79.297057987239768,80.62065238428724,81.944246781338663,83.26784117839415,84.5914355754537,85.631592593920686,86.246586846766647,86.861581099616785,87.476575352470874,88.09156960532907,88.706563858191316,89.321558111057684,89.936552363928115,90.551546616802739,91.166540869681185,91.475756554382656,91.411236455168634,91.3467163559587,91.282196256753011,91.217676157551324,91.153156058353787,91.088635959160413,91.024115859971161,90.959595760786073,90.8950756616049,89.116616059360624,88.418135039859067,87.719654020361631,87.021173000868416,86.322691981379393,85.624210961894477,84.925729942413767,84.22724892293725,83.211094380601381,81.935019678297451,80.658944975997883,79.382870273702451,78.106795571411325,76.8307208691245,75.554646166841877,74.278571464563512,73.002496762289368,71.726422060019544,70.140924088162947,68.349139062061568,66.5573540359645,64.76556900987174,62.973783983783328,61.18199895769925,59.390213931619563,57.598428905544104,55.806643879473086,54.01485885340621,51.928673222622514,49.683959908198666,47.43924659377938,45.194533279364464,42.94981996495391,40.705106650547833,38.460393336146183,36.215680021749044,33.970966707356219,31.726253392967898,29.206439180507648,26.568719939771754,23.931000699040343,21.293281458313572,18.655562217591275,16.017842976873563,13.380123736160396,10.742404495451696,8.1046852547476078,5.4669660140480465,2.5750762942979928,-0.40154012173665721,-3.3781565377666944,-6.35477295379211,-9.3313893698128449,-12.30800578582906,-15.284622201840518,-18.261238617847383,-21.2378550338497,-24.214471449847291,-27.425044945380506,-30.694110475035721,-33.963176004686161,-37.232241534331727,-40.5013070639724,-43.770372593608151,-47.039438123239016,-50.308503652864992,-53.577569182486137,-56.846634712102443,-60.333002890319463,-63.857721011195245,-67.382439132066025,-70.907157252932279,-74.431875373793559,-77.956593494650136,-81.48131161550188,-85.006029736348964,-88.530747857191159,-92.055465978028664,-95.785721205313536,-99.538816047492048,-103.29191088966554,-107.04500573183348,-110.79810057399661,-114.55119541615441,-118.30429025830699,-122.05738510045425,-125.81047994259652,-129.56357478473353,-133.51836031401302,-137.48376314935467,-141.44916598469109,-145.4145688200222,-149.379971655348,-153.34537449066869,-157.31077732598393,-161.2761801612935,-165.24158299659825,-169.20698583189736,0.78536442558969888,0.78536442558969888,0.78536442558969888,0.78536442558969888,0.78536442558969888,0.78536442558969888,0.78536442558969888,0.78536442558969888,0.78536442558969888,0.78536442558969888,0.78536442558969888,0.78536442558969888
DP 150,223.64539575985768,0.00155420027627815,-65.388286201021771,-63.625841101810813,-61.863396002598542,-60.100950903385154,-58.3385058041704,-56.57606070495445,-54.813615605737283,-53.0511705065189,-51.288725407299253,-49.52628030807832,-47.767015972182534,-46.068186740791987,-44.369357509400182,-42.670528278007161,-40.971699046612876,-39.272869815217391,-37.574040583820683,-35.875211352422689,-34.176382121023529,-32.477552889623084,-30.791528149854251,-29.220745045082698,-27.6499619403099,-26.079178835535917,-24.508395730760789,-22.937612625984446,-21.366829521206895,-19.796046416428148,-18.22526331164822,-16.654480206867092,-15.110784232707887,-13.720583705627329,-12.330383178545532,-10.940182651462521,-9.5499821243782979,-8.159781597292854,-6.7695810702061916,-5.3793805431183177,-3.9891800160292337,-2.5989794889389328,-1.2529769871536287,-0.08376867542633136,1.0854396363021523,2.2546479480318351,3.4238562597627005,4.5930645714947689,5.7622728832280288,6.931481194962485,8.1006895066981315,9.2698978184349716,10.377200773429642,11.298785317639537,12.22036986185063,13.141954406062924,14.063538950276408,14.985123494491095,15.906708038706975,16.82829258292405,17.749877127142323,18.671461671361794,19.51491748693,20.176069858625286,20.837222230321771,21.498374602019435,22.159526973718304,22.82067934541837,23.481831717119658,24.142984088822118,24.804136460525775,25.465288832230669,26.035236931272141,26.435803203719558,26.836369476168208,27.236935748618045,27.637502021069086,28.038068293521324,28.43863456597478,28.839200838429431,29.239767110885285,29.640333383342359,29.940818351914984,30.091178999702166,30.241539647490537,30.391900295280145,30.542260943070978,30.692621590863006,30.842982238656251,30.99334288645073,31.143703534246384,31.294064182043268,31.340060956504882,31.258499693639298,31.176938430774953,31.095377167911852,31.013815905049974,30.932254642189303,30.850693379329865,30.769132116471667,30.687570853614694,30.606009590758958,29.840128587164656,29.5500880441885,29.260047501213581,28.970006958239956,28.679966415267543,28.389925872296381,28.09988532932644,27.809844786357772,27.4194680568612,26.946996359492719,26.474524662125457,26.002052964759496,25.529581267394775,25.057109570031308,24.584637872669127,24.112166175308204,23.639694477948527,23.167222780590127,22.601190432690817,21.972782843850222,21.344375255010902,20.715967666172851,20.087560077336111,19.45915248850061,18.830744899666456,18.202337310833553,17.573929722001957,16.945522133171615,16.232183941175073,15.473112650895567,14.714041360617379,13.954970070340485,13.195898780064923,12.43682748979068,11.677756199517727,10.918684909246119,10.159613618975788,9.4005423287067966,8.5660232654056738,7.699168168761668,6.832313072118974,5.96545797547766,5.0986028788376663,4.2317477821990339,3.3648926855617378,2.4980375889257695,1.6311824922911689,0.76432739565790331,-0.16856596875695223,-1.1234729213680683,-2.0783798739778212,-3.0332868265862096,-3.9881937791932085,-4.9431007317988733,-5.8980076844031251,-6.8529146370060232,-7.8078215896075811,-8.7627285422077357,-9.7750655165171381,-10.801760674798011,-11.828455833077465,-12.855150991355464,-13.881846149632043,-14.908541307907161,-15.935236466180843,-16.961931624453069,-17.988626782723859,-19.015321940993221,-20.092427875731531,-21.178430390421173,-22.264432905109373,-23.350435419796206,-24.436437934481585,-25.52244044916559,-26.608442963848152,-27.694445478529307,-28.780447993209069,-29.866450507887404,-30.997740195247122,-32.134062266303687,-33.270384337358777,-34.406706408412269,-35.543028479464304,-36.679350550514762,-37.815672621563721,-38.951994692611045,-40.088316763656977,-41.224638834701317,-42.403806397722391,-43.585229412931469,-44.766652428139075,-45.948075443345047,-47.129498458549506,-48.310921473752437,-49.492344488953776,-50.6737675041536,-51.855190519351851,-53.036613534548486,0.23173517510068067,0.23173517510068067,0.23173517510068067,0.23173517510068067,0.23173517510068067,0.23173517510068067,0.23173517510068067,0.23173517510068067,0.23173517510068067,0.23173517510068067,0.23173517510068067,0.23173517510068067
DP 151,157.67698959027956,0.0049918135452142708,-160.84774032808107,-156.770500016552,-152.69325970501919,-148.61601939348225,-144.53877908194144,-140.4615387703968,-136.38429845884826,-132.30705814729572,-128.2298178357392,-124.15257752417897,-120.08141097963129,-116.12564715660785,-112.16988333358043,-108.21411951054914,-104.25835568751405,-100.30259186447496,-96.346828041431991,-92.391064218385225,-88.435300395334437,-84.479536572279812,-80.54852056718704,-76.840237262989035,-73.131953958787335,-69.423670654581755,-65.7153873503724,-62.007104046159256,-58.298820741942322,-54.590537437721643,-50.88225413349717,-47.173970829268889,-43.519015864536456,-40.166258184090019,-36.813500503639723,-33.460742823185548,-30.107985142727518,-26.755227462265662,-23.402469781799905,-20.049712101330307,-16.696954420856859,-13.344196740379548,-10.080715916192325,-7.1743467364733613,-4.2679775567506191,-1.3616083770240643,1.544760802706264,4.4511299824404214,7.3574991621783594,10.263868341920103,13.170237521665628,16.076606701414963,18.853834410488282,21.243632824865639,23.633431239246814,26.023229653631809,28.413028068020591,30.802826482413245,33.192624896809662,35.582423311209929,37.972221725613977,40.362020140021905,42.582394940523109,44.407441302668637,46.232487664818009,48.05753402697119,49.882580389128215,51.707626751289048,53.5326731134538,55.357719475622289,57.182765837794655,59.007812199970822,60.6260099600627,61.860054730098064,63.094099500137361,64.328144270180488,65.562189040227508,66.796233810278338,68.030278580333089,69.264323350391692,70.498368120454032,71.7324128905204,72.72766077896334,73.364707702110664,74.00175462526191,74.63880154841705,75.275848471576111,75.912895394739053,76.549942317905945,77.186989241076674,77.824036164251268,78.461083087429856,78.834673324586859,78.886255411646758,78.937837498710579,78.9894195857784,79.041001672850157,79.092583759925844,79.144165847005553,79.195747934089127,79.247330021176779,79.298912108268226,78.0539049239578,77.545584574375823,77.037264224798008,76.528943875224115,76.0206235256543,75.512303176088352,75.003982826526567,74.4956624769688,73.699076501197268,72.6666318771999,71.634187253206619,70.601742629217469,69.569298005232412,68.536853381251433,67.504408757274518,66.471964133301711,65.439519509333,64.407074885368374,63.085452922034932,61.5710415102141,60.056630098397548,58.542218686585073,57.02780727477689,55.513395862972786,53.998984451172909,52.484573039377153,50.9701616275856,49.455750215798247,47.657286569525212,45.7058675894509,43.754448609380923,41.803029629315155,39.851610649253679,37.900191669196488,35.948772689143532,33.9973537090949,32.04593472905043,30.094515749010334,27.868431450914052,25.524628809043705,23.180826167177642,20.837023525316059,18.493220883458772,16.149418241605936,13.805615599757452,11.461812957913283,9.11801031607357,6.7742076742382134,4.1673090359098781,1.4727084163291055,-1.2218922032472168,-3.9164928228190803,-6.6110934423864274,-9.3056940619494046,-12.0002946815078,-14.694895301061756,-17.389495920611353,-20.084096540156352,-23.029987072279756,-26.03870305157638,-29.047419030868308,-32.056135010155536,-35.064850989438064,-38.0735669687158,-41.082282947988844,-44.090998927257189,-47.099714906520745,-50.108430885779725,-53.3589747324334,-56.652196774257305,-59.945418816076419,-63.238640857891127,-66.53186289970111,-69.825084941506532,-73.118306983307178,-76.41152902510332,-79.704751066894829,-82.997973108681776,-86.527092715297968,-90.082425639929227,-93.637758564555511,-97.193091489176709,-100.74842441379295,-104.30375733840405,-107.85909026301022,-111.41442318761131,-114.96975611220753,-118.52508903679853,-122.31682670427217,-126.12100907876486,-129.92519145325258,-133.72937382773495,-137.5335562022122,-141.33773857668456,-145.14192095115163,-148.94610332561348,-152.75028570007032,-156.55446807452188,0.75926990183172549,0.75926990183172549,0.75926990183172549,0.75926990183172549,0.75926990183172549,0.75926990183172549,0.75926990183172549,0.75926990183172549,0.75926990183172549,0.75926990183172549,0.75926990183172549,0.75926990183172549
DP 152,265.7532150613003,0.00106042803187621,-50.376301112794373,-48.974545346279115,-47.572789579763025,-46.171033813246126,-44.769278046728417,-43.367522280209762,-41.965766513690326,-40.564010747170045,-39.16225498064891,-37.760499214126952,-36.36154838902538,-35.015891981186385,-33.67023557334651,-32.324579165505781,-30.978922757664222,-29.633266349821866,-28.287609941978697,-26.94195353413464,-25.596297126289777,-24.250640718444078,-22.916194896016489,-21.682645402002667,-20.449095907987996,-19.215546413972532,-17.98199691995627,-16.748447425939215,-15.514897931921331,-14.281348437902649,-13.047798943883162,-11.814249449862869,-10.604141528671441,-9.5268706640063456,-8.44959979934043,-7.3723289346736847,-6.295058070006136,-5.217787205337757,-4.1405163406685546,-3.0632454759985333,-1.985974611327703,-0.908703746656051,0.13092369291227138,1.0199756530061403,1.9090276131008104,2.7980795731962829,3.6871315332925572,4.5761834933896388,5.4652354534875229,6.3542874135862109,7.2433393736857,8.1323913337859945,8.9697630514424063,9.6520920878070964,10.334421124172602,11.016750160538907,11.699079196906021,12.381408233273953,13.063737269642662,13.746066306012194,14.428395342382521,15.110724378753655,15.72936668570421,16.199404115769834,16.669441545836246,17.139478975903454,17.609516405971487,18.079553836040304,18.549591266109928,19.019628696180384,19.489666126251638,19.959703556323674,20.357404381555952,20.620763844266897,20.884123306978655,21.147482769691223,21.410842232404597,21.6742016951188,21.937561157833787,22.200920620549585,22.464280083266225,22.727639545983632,22.914017712054036,22.984922114056989,23.055826516060755,23.126730918065356,23.197635320070727,23.268539722076962,23.339444124084,23.410348526091806,23.481252928100474,23.552157330109942,23.5454441372585,23.443863364792527,23.342282592327393,23.240701819863087,23.139121047399609,23.037540274936926,22.935959502475072,22.834378730014063,22.732797957553863,22.631217185094481,21.952739509426898,21.701664311047146,21.450589112668208,21.199513914290122,20.948438715912868,20.697363517536431,20.446288319160843,20.195213120786065,19.874955595196329,19.498093158391988,19.1212307215885,18.74436828478585,18.367505847984031,17.99064341118309,17.613780974382951,17.2369185375837,16.860056100785261,16.483193663987688,16.044468129904146,15.564499556398781,15.084530982894297,14.604562409390658,14.12459383588789,13.644625262385961,13.164656688884918,12.684688115384718,12.204719541885394,11.724750968386905,11.19108363284573,10.628500798407579,10.065917963970323,9.5033351295339319,8.9407522950984166,8.3781694606637682,7.8155866262299938,7.2530037917971093,6.6904209573650757,6.1278381229339294,5.5197830033054576,4.89223899392934,4.2646949845540876,3.6371509751797624,3.0096069658063187,2.3820629564337863,1.7545189470621474,1.1269749376913913,0.49943092832155106,-0.12811308104739791,-0.79346672641201754,-1.4714240602835233,-2.1493813941541173,-2.8273387280238023,-3.5052960618925622,-4.1832533957604285,-4.8612107296273495,-5.5391680634933742,-6.2171253973584966,-6.8950827312226863,-7.6041660216082629,-8.32103116888181,-9.037896316154411,-9.7547614634260373,-10.471626610696726,-11.188491757966428,-11.905356905235166,-12.622222052502956,-13.339087199769756,-14.055952347035651,-14.798642505101839,-15.545890305192527,-16.293138105282221,-17.040385905371018,-17.787633705458848,-18.534881505545762,-19.2821293056317,-20.029377105716708,-20.776624905800787,-21.523872705883939,-22.29309817516625,-23.06476583850958,-23.836433501851925,-24.6081011651932,-25.379768828533468,-26.151436491872754,-26.923104155210982,-27.694771818548183,-28.466439481884407,-29.238107145219587,-30.029748905445086,-30.822442132661461,-31.615135359876831,-32.40782858709111,-33.200521814304409,-33.99321504151667,-34.785908268727859,-35.578601495938017,-36.371294723147159,-37.163987950355178,0.15436878305544893,0.15436878305544893,0.15436878305544893,0.15436878305544893,0.15436878305544893,0.15436878305544893,0.15436878305544893,0.15436878305544893,0.15436878305544893,0.15436878305544893,0.15436878305544893,0.15436878305544893
DP 153,200.61565910811936,0.0018858888316533684,-73.209604456967185,-71.2742282979355,-69.33885213890234,-67.403475979867565,-65.46809982083137,-63.532723661793639,-61.597347502754346,-59.6619713437137,-57.726595184671361,-55.791219025627591,-53.859125822655514,-51.989409405698346,-50.119692988739658,-48.249976571779492,-46.38026015481779,-44.510543737854611,-42.640827320889954,-40.771110903923777,-38.901394486956143,-37.031678069986981,-35.175231993546156,-33.43822023620794,-31.70120847886826,-29.964196721527152,-28.227184964184591,-26.490173206840574,-24.7531614494951,-23.016149692148186,-21.279137934799817,-19.542126177449997,-17.833366460678839,-16.284703420815134,-14.736040380949962,-13.187377341083314,-11.638714301215174,-10.090051261345566,-8.5413882214744774,-6.9927251816019051,-5.4440621417278612,-3.8953991018523459,-2.39324412498734,-1.0771235981774505,0.23899692863388386,1.5551174554466758,2.8712379822609075,4.1873585090766063,5.5034790358937444,6.8195995627123507,8.1357200895323931,9.4518406163538859,10.702094650427034,11.754746715931308,12.807398781437021,13.860050846944194,14.912702912452824,15.965354977962916,17.018007043474473,18.070659108987456,19.123311174501929,20.175963240017836,21.144376644270025,21.916229854587037,22.688083064905516,23.459936275225424,24.231789485546813,25.003642695869654,25.775495906193957,26.547349116519726,27.319202326846984,28.091055537175674,28.763056214087133,29.249613775162498,29.736171336239302,30.222728897317609,30.709286458397351,31.195844019478553,31.682401580561262,32.1689591416454,32.655516702731063,33.142074263818138,33.5171560843255,33.72502165974953,33.932887235175038,34.140752810602017,34.348618386030452,34.55648396146038,34.764349536891821,34.9722151123247,35.180080687759073,35.387946263194941,35.477332647346,35.421908642409136,35.366484637473775,35.311060632539935,35.255636627607586,35.200212622676759,35.144788617747366,35.089364612819494,35.033940607893108,34.978516602968277,34.208126644101171,33.911055004728333,33.613983365357072,33.316911725987282,33.019840086619041,32.722768447252307,32.425696807887086,32.128625168523357,31.712607872910763,31.199269359837427,30.685930846765626,30.172592333695352,29.659253820626631,29.145915307559438,28.632576794493819,28.119238281429737,27.605899768367209,27.09256125530619,26.465584992606,25.762848439946382,25.060111887288304,24.357375334631811,23.654638781976889,22.951902229323526,22.249165676671769,21.546429124021561,20.843692571372937,20.140956018725856,19.332334526425328,18.46669652686673,17.601058527309725,16.735420527754318,15.86978252820054,15.004144528648361,14.13850652909778,13.272868529548823,12.407230530001463,11.5415925304557,10.579212047247932,9.57536886671127,8.5715256861762015,7.5676825056428338,6.56383932511108,5.5599961445809951,4.556152964052548,3.5523097835257191,2.548466603000568,1.5446234224770523,0.45351608124802706,-0.6666804133249743,-1.7868769078963049,-2.9070734024659615,-4.0272698970339231,-5.1474663916002426,-6.2676628861648407,-7.3878593807277779,-8.5080558752890738,-9.6282523698486369,-10.82678865933249,-12.044910823143784,-13.263032986953334,-14.48115515076111,-15.699277314567139,-16.917399478371347,-18.135521642173817,-19.353643805974524,-20.571765969773434,-21.789888133570624,-23.079003910882204,-24.38064876239012,-25.682293613896238,-26.983938465400716,-28.285583316903395,-29.587228168404376,-30.88887301990361,-32.19051787140112,-33.492162722896893,-34.793807574390982,-36.161135423647153,-37.535762073591108,-38.910388723533224,-40.285015373473421,-41.65964202341177,-43.034268673348215,-44.408895323282806,-45.783521973215493,-47.1581486231463,-48.532775273075245,-49.970867295849729,-51.4123002328595,-52.853733169867432,-54.2951661068734,-55.736599043877433,-57.178031980879652,-58.619464917879924,-60.060897854878178,-61.5023307918746,-62.943763728869023,0.28418374085851777,0.28418374085851777,0.28418374085851777,0.28418374085851777,0.28418374085851777,0.28418374085851777,0.28418374085851777,0.28418374085851777,0.28418374085851777,0.28418374085851777,0.28418374085851777,0.28418374085851777
DP 154,235.11071970869097,0.0055890731048598109,-243.77217988919503,-237.14176884150092,-230.51135779380172,-223.88094674609854,-217.25053569839073,-210.62012465067858,-203.98971360296184,-197.35930255524087,-190.72889150751527,-184.09848045978515,-177.48039071003595,-171.09640795127865,-164.71242519251652,-158.3284424337503,-151.94445967497944,-145.56047691620421,-139.17649415742457,-132.79251139864047,-126.40852863985212,-120.0245458810592,-113.69006809167453,-107.80113970629627,-101.91221132091371,-96.0232829355269,-90.1343545501358,-84.245426164740365,-78.356497779340657,-72.467569393936643,-66.578641008528379,-60.689712623115845,-54.905175439665044,-49.712194978843584,-44.519214518017804,-39.326234057187627,-34.133253596353164,-28.940273135514275,-23.747292674671055,-18.55431221382344,-13.361331752971488,-8.1683512921151973,-3.1449646742047244,1.2000385567673051,5.5450417877435871,9.8900450187241713,14.235048249709003,18.580051480698145,22.925054711691551,27.270057942689267,31.615061173691206,35.960064404697484,40.068826528787625,43.4688564001716,46.868886271559866,50.268916142952421,53.668946014349267,57.068975885750419,60.469005757155784,63.869035628565534,67.269065499979448,70.669095371397773,73.772914135773178,76.18556198441027,78.598209833051541,81.010857681697289,83.423505530347228,85.836153379001473,88.248801227660024,90.661449076322882,93.074096924990059,95.486744773661471,97.556203657289913,98.98830233762574,100.42040101796589,101.8524996983102,103.28459837865907,104.71669705901209,106.14879573936943,107.58089441973108,109.01299310009713,110.44509178046749,111.50376040248341,112.00227511267532,112.50078982287158,112.99930453307221,113.497819243277,113.99633395348636,114.49484866369994,114.99336337391797,115.49187808414015,115.99039279436685,116.1031035702884,115.74426810055681,115.38543263082958,115.026597161107,114.66776169138858,114.30892622167461,113.95009075196494,113.59125528225992,113.23241981255899,112.87358434286267,109.88972764502257,108.7679506175598,107.64617359010141,106.5243965626475,105.40261953519797,104.280842507753,103.15906548031239,102.0372884528762,100.55230449727523,98.770144994841147,96.987985492411653,95.205825989986693,93.423666487566237,91.641506985150244,89.859347482738826,88.077187980331971,86.295028477929492,84.512868975531632,82.395965768012275,80.055894817004315,77.715823866000861,75.37575291500211,73.035681964007892,70.695611013018251,68.355540062033356,66.015469111052909,63.675398160077123,61.335327209105991,58.695174579592631,55.8934351440747,53.091695708561431,50.289956273052894,47.488216837549025,44.686477402049832,41.884737966555285,39.082998531065542,36.281259095580388,33.479519660099946,30.414766188677035,27.237287976759887,24.059809764847397,20.882331552939881,17.704853341037076,14.527375129139122,11.349896917245998,8.1724187053575754,4.9949404934740622,1.8174622815953252,-1.5869298956856841,-5.0669629211921254,-8.5469959466936878,-12.027028972190365,-15.507061997682079,-18.987095023169029,-22.46712804865092,-25.947161074127987,-29.427194099600225,-32.90722712506745,-36.581587632861975,-40.304532307245893,-44.02747698162478,-47.750421655998437,-51.473366330366986,-55.1963110047303,-58.919255679088486,-62.642200353441581,-66.365145027789382,-70.088089702132208,-73.978965316674021,-77.899477670429533,-81.819990024179859,-85.740502377925267,-89.661014731665546,-93.5815270854009,-97.502039439131025,-101.42255179285623,-105.34306414657641,-109.26357650029152,-113.33274354022406,-117.41842932873557,-121.50411511724162,-125.58980090574201,-129.67548669423718,-133.76117248272672,-137.84685827121095,-141.93254405968938,-146.01822984816275,-150.10391563663029,-154.32873474237982,-158.56087803861914,-162.79302133485311,-167.02516463108117,-171.25730792730397,-175.48945122352109,-179.72159451973263,-183.95373781593855,-188.185881112139,-192.41802440833362,0.82829496191538787,0.82829496191538787,0.82829496191538787,0.82829496191538787,0.82829496191538787,0.82829496191538787,0.82829496191538787,0.82829496191538787,0.82829496191538787,0.82829496191538787,0.82829496191538787,0.82829496191538787
DP 155,91.770940213251663,0.0026736293504740346,-56.594614006264379,-55.291215946715489,-53.987817887164816,-52.684419827612352,-51.381021768058183,-50.077623708502159,-48.7742256489444,-47.470827589384868,-46.1674295298235,-44.864031470260457,-43.5621281808227,-42.288625806376579,-41.015123431928707,-39.74162105747903,-38.4681186830276,-37.19461630857441,-35.921113934119418,-34.647611559662678,-33.374109185204134,-32.100606810743827,-30.833281125091187,-29.62154622255299,-28.409811320013048,-27.1980764174714,-25.986341514927993,-24.774606612382815,-23.562871709835917,-22.351136807287254,-21.139401904736882,-19.927667002184752,-18.729517071815252,-17.608349506538961,-16.487181941260896,-15.366014375981042,-14.244846810699418,-13.123679245415998,-12.002511680130793,-10.881344114843809,-9.76017654955504,-8.639008984264489,-7.5412444612587866,-6.53709321344451,-5.5329419656284609,-4.5287907178106357,-3.52463946999105,-2.5204882221696807,-1.5163369743465496,-0.51218572652163918,0.49196552130503574,1.4961167691334836,2.4651717700521041,3.3289367032971562,4.1927016365440055,5.056466569792649,5.9202315030430857,6.7839964362953156,7.6477613695493334,8.5115263028051515,9.37529123606276,10.239056169322145,11.054716039425287,11.75812886759735,12.461541695771242,13.164954523946944,13.868367352124455,14.5717801803038,15.275193008484935,15.978605836667892,16.682018664852684,17.385431493039256,18.027016764615563,18.553777761333265,19.080538758052811,19.607299754774193,20.134060751497422,20.660821748222492,21.187582744949378,21.714343741678139,22.241104738408737,22.767865735141154,23.218928257306665,23.556441278837923,23.89395430037106,24.231467321906059,24.568980343442945,24.906493364981703,25.244006386522326,25.581519408064839,25.91903242960921,26.256545451155436,26.504837847600442,26.644080939306917,26.783324031015265,26.922567122725571,27.061810214437759,27.201053306151866,27.340296397867856,27.479539489585775,27.618782581305624,27.758025673027344,27.665740191333484,27.600976994658946,27.53621379798637,27.471450601315727,27.406687404647052,27.341924207980352,27.2771610113156,27.212397814652807,27.033864098679771,26.762243457134442,26.490622815591053,26.219002174049724,25.947381532510352,25.675760890973006,25.404140249437638,25.132519607904332,24.860898966372989,24.58927832484363,24.193260634392356,23.714309618295879,23.235358602201465,22.756407586109106,22.277456570018806,21.798505553930543,21.319554537844361,20.840603521760226,20.361652505678141,19.882701489598119,19.269870789896146,18.584949082937463,17.9000273759809,17.215105669026446,16.530183962074087,15.845262255123837,15.160340548175695,14.475418841229679,13.790497134285742,13.105575427343918,12.278312407482185,11.390043565239942,10.501774722999849,9.6135058807619984,8.7252370385262843,7.8369681962927684,6.9486993540614481,6.0604305118322683,5.1721616696053125,4.2838928273805257,3.24558385412474,2.1572596129277724,1.0689353717330345,-0.019388869459472911,-1.1077131106497253,-2.1960373518377794,-3.2843615930235495,-4.3726858342071013,-5.4610100753884527,-6.5493343165675251,-7.7948463845045772,-9.0796572663297077,-10.364468148152497,-11.649279029972886,-12.934089911790913,-14.218900793606529,-15.503711675419787,-16.788522557230664,-18.073333439039146,-19.358144320845298,-20.807357297059159,-22.285584235754953,-23.763811174448378,-25.242038113139539,-26.7202650518283,-28.198491990514793,-29.676718929198966,-31.154945867880773,-32.633172806560268,-34.111399745237485,-35.761223180642482,-37.43011469562893,-39.09900621061287,-40.767897725594217,-42.436789240573091,-44.105680755549294,-45.774572270523095,-47.443463785494139,-49.1123553004628,-50.781246815428851,-52.629830934942937,-54.48787434782875,-56.345917760711913,-58.203961173592496,-60.062004586470465,-61.920047999345854,-63.778091412218593,-65.636134825088675,-67.4941782379562,-69.352221650821065,0.3812892047750292,0.3812892047750292,0.3812892047750292,0.3812892047750292,0.3812892047750292,0.3812892047750292,0.3812892047750292,0.3812892047750292,0.3812892047750292,0.3812892047750292,0.3812892047750292,0.3812892047750292
DP 156,132.43074759256433,0.0016332630342063279,-45.833890376857433,-44.706850834006232,-43.579811291153796,-42.45277174830008,-41.325732205445142,-40.198692662589011,-39.071653119731572,-37.944613576872925,-36.817574034013035,-35.690534491151922,-34.565031136566368,-33.468715649648004,-32.372400162728361,-31.276084675807514,-30.179769188885455,-29.083453701962114,-27.987138215037557,-26.890822728111779,-25.794507241184771,-24.698191754256502,-23.608167454966438,-22.574764439084095,-21.541361423200541,-20.507958407315812,-19.474555391429845,-18.4411523755427,-17.407749359654336,-16.374346343764778,-15.340943327874008,-14.307540311982047,-13.287793810212998,-12.345435082371052,-11.403076354527922,-10.460717626683543,-9.5183588988379384,-8.5760001709911151,-7.6336414431430546,-6.6912827152937675,-5.7489239874432583,-4.80656525959152,-3.8873070928707771,-3.0604522624288446,-2.233597431985709,-1.4067426015413558,-0.57988777109579959,0.24696705935097524,1.0738218897989567,1.9006767202481527,2.7275315506985547,3.554386381150167,4.3473876026621312,5.0388267173945991,5.7302658321282829,6.4217049468631888,7.1131440615993133,7.8045831763366627,8.4960222910752226,9.1874614058150037,9.8789005205560052,10.570339635298224,11.216658828939863,11.757696429679191,12.29873403041975,12.83977163116154,13.380809231904541,13.921846832648795,14.462884433394249,15.003922034140949,15.544959634888862,16.085997235638018,16.570920500432706,16.951629911593628,17.332339322755828,17.713048733919234,18.093758145083893,18.474467556249781,18.855176967416913,19.235886378585292,19.616595789754879,19.99730520092572,20.311852103300136,20.527153679034768,20.742455254770647,20.95775683050778,21.173058406246145,21.388359981985793,21.603661557726664,21.8189631334688,22.034264709212202,22.249566284956828,22.390119432979809,22.439311821491213,22.488504210003907,22.537696598517861,22.58688898703307,22.636081375549534,22.685273764067333,22.734466152586371,22.783658541106671,22.83285092962825,22.572690914928941,22.458788123030043,22.344885331132435,22.2309825392361,22.117079747341073,22.003176955447319,21.889274163554891,21.775371371663717,21.575034035862835,21.303976042332742,21.03291804880396,20.761860055276493,20.490802061750333,20.219744068225541,19.948686074702003,19.677628081179826,19.406570087658963,19.135512094139411,18.774972286629296,18.354776526801064,17.934580766974175,17.514385007148626,17.094189247324412,16.673993487501562,16.253797727680059,15.833601967859902,15.413406208041087,14.993210448223641,14.482087195778703,13.922001663520245,13.361916131263165,12.801830599007465,12.241745066753147,11.681659534500216,11.121574002248655,10.561488469998494,10.001402937749699,9.4413174055022857,8.7900916555179514,8.09980427387556,7.4095168922345493,6.7192295105949844,6.028942128956829,5.3386547473201009,4.64836736568479,3.9580799840508876,3.2677926024184152,2.5775052207873577,1.7966096617032135,0.98551023488162792,0.17441080806148784,-0.63668861875720639,-1.4477880455744381,-2.2588874723902479,-3.0699868992045762,-3.8810863260174608,-4.6921857528289284,-5.5032851796389126,-6.4041876126770632,-7.3275418583085807,-8.2508961039385831,-9.174250349567048,-10.097604595193989,-11.020958840819366,-11.94431308644322,-12.867667332065542,-13.791021577686315,-14.714375823305589,-15.727166392427886,-16.755740836712814,-17.784315280996211,-18.812889725278151,-19.841464169558567,-20.870038613837494,-21.898613058114893,-22.927187502390812,-23.955761946665248,-24.984336390938179,-26.102692360725605,-27.231024998487353,-28.359357636247495,-29.48769027400596,-30.616022911762833,-31.744355549518072,-32.87268818727167,-34.001020825023552,-35.129353462773913,-36.257686100522548,-37.477719863531107,-38.702580913942306,-39.927441964351843,-41.1523030147597,-42.377164065165914,-43.602025115570491,-44.826886165973342,-46.051747216374466,-47.276608266774012,-48.501469317171825,0.24672021932519789,0.24672021932519789,0.24672021932519789,0.24672021932519789,0.24672021932519789,0.24672021932519789,0.24672021932519789,0.24672021932519789,0.24672021932519789,0.24672021932519789,0.24672021932519789,0.24672021932519789
DP 157,158.69414236141421,0.004719674639464367,-152.85182849837435,-148.972948032305,-145.09406756623193,-141.21518710015513,-137.33630663407465,-133.45742616799043,-129.57854570190253,-125.69966523581095,-121.82078476971574,-117.94190430361668,-114.06882130730024,-110.30589133290067,-106.54296135849739,-102.78003138409056,-99.0171014096799,-95.25417143526569,-91.491241460847647,-87.72831148642608,-83.965381512000775,-80.202451537571761,-76.463140320322537,-72.9364001502081,-69.409659980090083,-65.8829198099685,-62.356179639843333,-58.829439469714551,-55.302699299582166,-51.775959129446193,-48.24921895930671,-44.72247878916361,-41.24661719150906,-38.059070710727582,-34.871524229942438,-31.683977749153655,-28.49643126836121,-25.308884787565127,-22.121338306765363,-18.933791825961954,-15.746245345154914,-12.558698864344219,-9.4562951786566813,-6.6944666973899514,-3.9326382161196451,-1.1708097348457289,1.5910187464317544,4.35284722771286,7.11467570899754,9.87650419028583,12.638332671577691,15.400161152873153,18.038891523596025,20.30832290842471,22.577754293256984,24.847185678092909,27.116617062932391,29.386048447775529,31.655479832622223,33.924911217472591,36.194342602326529,38.463773987184105,40.57181100914547,42.303254827999076,44.034698646856306,45.7661424657172,47.497586284581722,49.229030103449823,50.960473922321626,52.691917741196995,54.42336156007601,56.154805378958656,57.689345198143847,58.858200843128017,60.027056488115768,61.195912133107228,62.36476777810234,63.533623423101112,64.702479068103443,65.871334713109576,67.040190358119276,68.209046003132656,69.150773797414786,69.751804448482915,70.352835099554724,70.953865750630243,71.5548964017095,72.155927052792492,72.75695770387901,73.357988354969365,73.9590190060633,74.560049657160988,74.910726644246338,74.955410561138677,75.000094478034754,75.044778394934582,75.089462311838147,75.13414622874545,75.178830145656462,75.2235140625712,75.26819797948977,75.312881896412009,74.118164321202059,73.631339502969652,73.144514684741011,72.657689866516165,72.17086504829517,71.68404023007794,71.197215411864576,70.710390593654935,69.950224470454444,68.9664107637865,67.9825970571224,66.998783350462219,66.014969643805912,65.031155937153429,64.047342230504782,63.063528523860093,62.079714817219212,61.095901110582219,59.838216353571937,58.397946581866648,56.95767681016536,55.517407038467958,54.077137266774535,52.636867495085006,51.196597723399549,49.7563279517179,48.316058180040265,46.875788408366553,45.166855969342535,43.313255110304475,41.459654251270415,39.606053392240447,37.752452533214488,35.898851674192549,34.045250815174661,32.191649956160859,30.338049097151053,28.4844482381453,26.37143002843656,24.1472285754737,21.923027122514878,19.698825669560311,17.474624216609815,15.250422763663504,13.026221310721317,10.802019857783231,8.5778184048493316,6.3536169519195678,3.8812919751123935,1.3262560299535378,-1.2287799152011045,-3.7838158603515337,-6.3388518054976908,-8.89388775063972,-11.448923695777399,-14.003959640910901,-16.558995586040258,-19.114031531165296,-21.905703626192178,-24.756537554586732,-27.607371482976866,-30.458205411362528,-33.309039339743741,-36.159873268120414,-39.010707196492717,-41.8615411248605,-44.712375053223823,-47.563208981582754,-50.641447485281596,-53.759818736928459,-56.878189988570782,-59.996561240208919,-63.114932491842623,-66.23330374347195,-69.351674995096943,-72.4700462467175,-75.5884174983337,-78.706788749945645,-82.046720768478025,-85.411272976909856,-88.775825185337126,-92.1403773937596,-95.50492960217737,-98.869481810590315,-102.23403401899863,-105.59858622740202,-108.96313843580079,-112.32769064419469,-115.91410065302448,-119.51218959558706,-123.11027853814502,-126.70836748069803,-130.30645642324626,-133.90454536578969,-137.50263430832828,-141.10072325086179,-144.69881219339075,-148.29690113591451,0.71789401480708637,0.71789401480708637,0.71789401480708637,0.71789401480708637,0.71789401480708637,0.71789401480708637,0.71789401480708637,0.71789401480708637,0.71789401480708637,0.71789401480708637,0.71789401480708637,0.71789401480708637
DP 158,304.65777054098152,0.0033714821277602692,-175.2623030049397,-170.25466057026449,-165.2470181355869,-160.23937570090663,-155.23173326622378,-150.22409083153821,-145.21644839684998,-140.2088059621592,-135.2011635274657,-130.19352109276977,-125.19680325332753,-120.40765478898768,-115.61850632464545,-110.82935786030049,-106.04020939595307,-101.25106093160298,-96.461912467250315,-91.672764002894951,-86.883615538537128,-82.09446707417662,-77.348692415311135,-72.9932861056897,-68.637879796065675,-64.282473486439216,-59.9270671768102,-55.571660867178664,-51.216254557544573,-46.86084824790796,-42.505441938268859,-38.150035628627258,-33.884365869519037,-30.127208884816085,-26.370051900110564,-22.612894915402478,-18.855737930691848,-15.098580945978643,-11.341423961262869,-7.5842669765445345,-3.8271099918236517,-0.069953007100212627,3.5451951448796351,6.5923012544252755,9.63940736397342,12.686513473524087,15.73361958307723,18.780725692632934,21.827831802191117,24.874937911751829,27.922044021315038,30.969150130880738,33.824825581335588,36.106201816724415,38.387578052115728,40.668954287509571,42.9503305229059,45.23170675830476,47.5130829937062,49.794459229110004,52.075835464516459,54.357211699925394,56.407746891735719,57.91964389037615,59.43154088901904,60.943437887664395,62.455334886312414,63.96723188496285,65.479128883615815,66.991025882271316,68.5029228809293,70.014819879589822,71.270944674341166,72.0520570401247,72.833169405910823,73.614281771699325,74.3953941374905,75.176506503284088,75.957618869080264,76.738731234878983,77.519843600680261,78.30095596648394,78.817281299968812,78.936419827958531,79.055558355950637,79.174696883945373,79.293835411942609,79.412973939942461,79.532112467944785,79.651250995949709,79.770389523957149,79.889528051967147,79.74961667363749,79.293083301830208,78.8365499300256,78.380016558223474,77.923483186424,77.466949814627029,77.010416442832579,76.553883071040744,76.097349699251424,75.640816327464734,73.0636733106529,72.124121865186879,71.1845704197235,70.245018974262649,69.305467528804527,68.36591608334885,67.426364637895816,66.48681319244541,65.331327793780645,63.999165449688391,62.6670031055987,61.334840761511721,60.002678417427347,58.670516073345588,57.338353729266487,56.006191385190057,54.674029041116142,53.341866697044971,51.823558652659528,50.181150542272526,48.538742431888146,46.89633432150643,45.253926211127443,43.611518100751063,41.969109990377433,40.326701880006432,38.684293769638153,37.0418856592725,35.244036140193188,33.3624851406473,31.480934141104186,29.599383141563749,27.71783214202609,25.836281142491117,23.954730142958855,22.0731791434294,20.1916281439026,18.31007714437855,16.302193970142877,14.240166302973305,12.17813863580643,10.116110968642444,8.0540833014811728,5.9920556343227487,3.9300279671671081,1.8680003000142005,-0.19402736713585828,-2.2560550342831465,-4.4186277264251492,-6.6147166940500783,-8.8108056616721786,-11.006894629291452,-13.202983596907854,-15.399072564521466,-17.595161532132174,-19.791250499740045,-21.987339467345155,-24.183428434947359,-26.458487380005771,-28.753289752469421,-31.048092124930129,-33.3428944973878,-35.637696869842557,-37.932499242294249,-40.227301614742991,-42.522103987188736,-44.8169063596315,-47.111708732071271,-49.468891285047732,-51.837082798852506,-54.205274312654296,-56.573465826453308,-58.941657340249236,-61.309848854042336,-63.678040367832487,-66.046231881619747,-68.414423395404057,-70.782614909185455,-73.201338547454114,-75.625677396925482,-78.050016246393739,-80.474355095858783,-82.898693945320744,-85.323032794779436,-87.747371644235116,-90.171710493687456,-92.596049343136727,-95.020388192582871,-97.48893858254965,-99.959816335586382,-102.43069408862,-104.90157184165034,-107.37244959467745,-109.84332734770138,-112.31420510072209,-114.78508285373944,-117.25596060675365,-119.72683835976466,0.47889211758770439,0.47889211758770439,0.47889211758770439,0.47889211758770439,0.47889211758770439,0.47889211758770439,0.47889211758770439,0.47889211758770439,0.47889211758770439,0.47889211758770439,0.47889211758770439,0.47889211758770439
DP 159,74.907074207148781,0.0055915635579812713,-102.53028589007609,-100.25504852510667,-97.979811160133792,-95.704573795157742,-93.429336430178466,-91.15409906519578,-88.878861700209882,-86.603624335220744,-84.328386970228237,-82.05314960523242,-79.780315032110224,-77.553133958880338,-75.325952885647183,-73.098771812410646,-70.871590739170841,-68.644409665927768,-66.417228592681411,-64.190047519431744,-61.962866446178836,-59.735685372922539,-57.518475536465665,-55.3910077737282,-53.263540010987413,-51.136072248243366,-49.008604485496129,-46.881136722745573,-44.753668959991771,-42.626201197234657,-40.498733434474353,-38.371265671710752,-36.26586003869793,-34.285474531188946,-32.305089023676622,-30.324703516160913,-28.34431800864191,-26.363932501119539,-24.383546993593839,-22.4031614860648,-20.422775978532414,-18.442390470996674,-16.500328212078767,-14.711560758829789,-12.922793305577475,-11.134025852321818,-9.3452583990628284,-7.5564909458004736,-5.7677234925347873,-3.9789560392657446,-2.1901885859933734,-0.40142113271765273,1.3292702844500341,2.8857313975123735,4.44219251057811,5.9986536236472485,7.5551147367197933,9.11157584979574,10.668036962875084,12.224498075957831,13.780959189043957,15.337420302133506,16.813267575009686,18.101012712498388,19.388757849990519,20.676502987486128,21.964248124985197,23.251993262487723,24.539738399993684,25.827483537503102,27.115228675015977,28.402973812532387,29.585574012600141,30.572902203558765,31.560230394520989,32.547558585486712,33.534886776455942,34.522214967428674,35.509543158404952,36.49687134938479,37.484199540368124,38.471527731354996,39.327952434432284,39.988018812345693,40.648085190262684,41.30815156818327,41.96821794610748,42.628284324035263,43.288350701966678,43.948417079901667,44.608483457840286,45.2685498357825,45.771453271213048,46.082265364623531,46.3930774580377,46.703889551455539,47.014701644877086,47.325513738302313,47.636325831731263,47.947137925163879,48.257950018600205,48.568762112040133,48.584596351043004,48.528766934859057,48.472937518678854,48.417108102502446,48.361278686329847,48.305449270160985,48.249619853995959,48.193790437834672,47.9290859076677,47.493479967282369,47.057874026901032,46.622268086523583,46.186662146149992,45.751056205780358,45.3154502654146,44.879844325052758,44.444238384694778,44.008632444340762,43.339524006268384,42.514743557886675,41.689963109508973,40.865182661135307,40.040402212765692,39.215621764400048,38.39084131603844,37.566060867680825,36.741280419327275,35.916499970977725,34.834709685873044,33.614525751296689,32.394341816724619,31.174157882156674,29.953973947592928,28.733790013033357,27.513606078477952,26.293422143926797,25.073238209379763,23.853054274836946,22.353501597370677,20.73421474322793,19.114927889089376,17.495641034955213,15.876354180825302,14.257067326699719,12.63778047257842,11.018493618461379,9.3992067643486727,7.7799199102402516,5.8599084433613458,3.8396516489098849,1.8193948544628298,-0.20086193997982227,-2.2211187344180296,-4.2413755288519,-6.2616323232812654,-8.2818891177062586,-10.302145912126893,-12.322402706543039,-14.663742887277397,-17.085357708241464,-19.506972529200912,-21.928587350155595,-24.350202171105611,-26.771816992050841,-29.193431812991388,-31.615046633927207,-34.03666145485834,-36.45827627578479,-39.221142461199847,-42.044233270406167,-44.867324079607776,-47.690414888804995,-50.513505697997424,-53.336596507185348,-56.159687316368576,-58.982778125547306,-61.805868934721339,-64.628959743890874,-67.812614653474327,-71.036336027653959,-74.260057401828618,-77.48377877599799,-80.707500150162531,-83.931221524321813,-87.154942898476065,-90.378664272625159,-93.602385646769292,-96.826107020908282,-100.43029870317025,-104.05451892401815,-107.67873914486103,-111.3029593656985,-114.92717958653097,-118.55139980735819,-122.17562002818013,-125.79984024899683,-129.4240604698085,-133.04828069061469,0.75114729292310256,0.75114729292310256,0.75114729292310256,0.75114729292310256,0.75114729292310256,0.75114729292310256,0.75114729292310256,0.75114729292310256,0.75114729292310256,0.75114729292310256,0.75114729292310256,0.75114729292310256
DP 160,75.190143519768043,0.0024375948186293062,-44.812335848626219,-43.817219002699808,-42.82210215677194,-41.826985310842687,-40.831868464911928,-39.8367516189798,-38.841634773046174,-37.846517927111144,-36.851401081174643,-35.856284235236764,-34.862219742417153,-33.888150157812433,-32.914080573206292,-31.940010988598715,-30.965941403989692,-29.991871819379242,-29.017802234767387,-28.043732650154027,-27.069663065539253,-26.09559348092305,-25.125891088935237,-24.195493843409317,-23.265096597881953,-22.33469935235318,-21.404302106822954,-20.473904861291327,-19.543507615758251,-18.613110370223762,-17.682713124687844,-16.752315879150498,-15.831579798914571,-14.965590930853455,-14.099602062790888,-13.233613194726864,-12.367624326661375,-11.501635458594434,-10.635646590526026,-9.7696577224561434,-8.9036688543848186,-8.0376799863120318,-7.18847040038155,-6.406378736027091,-5.6242870716711693,-4.8421954073137838,-4.0601037429549445,-3.2780120785946374,-2.495920414232871,-1.7138287498696447,-0.9317370855049586,-0.14964542113881169,0.60702233399759564,1.2874174001990304,1.9678124664019505,2.6482075326063561,3.328602598812247,4.0089976650196251,4.6893927312284891,5.369787797438839,6.0501828636506723,6.7305779298639985,7.3756910050038194,7.9384780447621193,8.50126508452193,9.064052124283247,9.6268391640460713,10.189626203810416,10.752413243576262,11.315200283343614,11.877987323112485,12.440774362882863,12.957553036871071,13.388886360468465,13.8202196840674,14.251553007667898,14.682886331269918,15.114219654873487,15.545552978478579,15.976886302085207,16.408219625693377,16.839552949303108,17.213624219934893,17.501801057975545,17.789977896017778,18.078154734061588,18.366331572106962,18.654508410153902,18.942685248202434,19.230862086252518,19.519038924304184,19.807215762357423,20.02666265309783,20.162104831243127,20.297547009390055,20.432989187538581,20.5684313656887,20.703873543840466,20.839315721993831,20.974757900148795,21.110200078305382,21.245642256463576,21.251264597586573,21.226424795407951,21.201584993230959,21.176745191055645,21.151905388881975,21.127065586709946,21.102225784539591,21.0773859823709,20.961263629307457,20.770453984028865,20.579644338751979,20.388834693476795,20.198025048203323,20.007215402931553,19.816405757661474,19.625596112393112,19.434786467126454,19.243976821861477,18.95116031063694,18.590337615134075,18.229514919632969,17.8686922241336,17.507869528636,17.147046833140163,16.786224137646066,16.42540144215371,16.064578746663148,15.703756051174306,15.230694301864229,14.697194506805841,14.163694711749288,13.630194916694565,13.096695121641671,12.5631953265906,12.02969553154135,11.496195736493943,10.962695941448326,10.429196146404569,9.77373693249821,9.0660073376874841,8.3582777428785882,7.6505481480716142,6.9428185532664957,6.2350889584632609,5.5273593636618958,4.819629768862395,4.1119001740647878,3.4041705792690449,2.5652000488580278,1.6824808859008475,0.79976172294558689,-0.082957440007748573,-0.96567660295914448,-1.8483957659086474,-2.7311149288561865,-3.613834091801809,-4.4965532547455416,-5.3792724176873055,-6.4020778645408818,-7.4599065375136524,-8.51773521048441,-9.5755638834530821,-10.633392556419718,-11.691221229384256,-12.749049902346771,-13.806878575307232,-14.864707248265619,-15.922535921221955,-17.129212532771231,-18.362158082811916,-19.595103632850545,-20.828049182887256,-22.060994732921849,-23.29394028295453,-24.526885832985137,-25.759831383013712,-26.99277693304035,-28.225722483064967,-29.615912166556072,-31.0235750718661,-32.431237977173936,-33.838900882479528,-35.246563787782961,-36.654226693084119,-38.0618895983831,-39.4695525036798,-40.87721540897433,-42.284878314266635,-43.858449220383292,-45.4407537772613,-47.02305833413714,-48.605362891010678,-50.187667447881907,-51.769972004750947,-53.352276561617678,-54.934581118482029,-56.516885675344248,-58.099190232204023,0.32788369206353957,0.32788369206353957,0.32788369206353957,0.32788369206353957,0.32788369206353957,0.32788369206353957,0.32788369206353957,0.32788369206353957,0.32788369206353957,0.32788369206353957,0.32788369206353957,0.32788369206353957
DP 161,96.368462462552372,0.003874921451036531,-85.04007370297785,-83.064123979258284,-81.088174255536074,-79.112224531811279,-77.136274808083868,-75.160325084353687,-73.184375360620948,-71.208425636885551,-69.232475913147582,-67.256526189406912,-65.282891833168023,-63.353249897217324,-61.423607961263833,-59.493966025307877,-57.564324089349249,-55.634682153387978,-53.705040217424077,-51.775398281457534,-49.8457563454884,-47.916114409516595,-45.996030943153713,-44.161974606775146,-42.327918270394058,-40.493861934010319,-38.659805597624064,-36.825749261235217,-34.991692924843768,-33.157636588449748,-31.323580252053148,-29.489523915653958,-27.676455556942955,-25.982320394357274,-24.288185231768946,-22.59405006917801,-20.899914906584424,-19.205779743988195,-17.511644581389323,-15.817509418787814,-14.123374256183665,-12.429239093576873,-10.771181622703358,-9.2574366238316532,-7.7436916249573464,-6.2299466260804062,-4.7162016272008627,-3.2024566283186813,-1.6887116294338878,-0.17496663054647149,1.3387783683435575,2.8525233672362056,4.3123152143784678,5.61024556637032,6.9081759183648224,8.2061062703619676,9.5040366223617667,10.801966974364207,12.099897326369311,13.397827678377062,14.695758030387431,15.993688382400483,17.217913413166887,18.270156458219009,19.322399503273815,20.374642548331277,21.426885593391439,22.479128638454256,23.531371683519779,24.58361472858795,25.635857773658842,26.688100818732373,27.645989799332281,28.428647254911198,29.211304710492811,29.993962166077186,30.776619621664221,31.559277077254027,32.3419345328465,33.1245919884417,33.907249444039635,34.689906899640256,35.357559729269,35.852702902336617,36.347846075407027,36.842989248480166,37.338132421556026,37.833275594634721,38.328418767716144,38.823561940800325,39.31870511388729,39.813848286976963,40.174123514168642,40.369557307947268,40.564991101728658,40.760424895512926,40.955858689299951,41.151292483089804,41.346726276882464,41.542160070677944,41.737593864476217,41.933027658277325,41.75262802074576,41.641380827224339,41.530133633705795,41.418886440190114,41.307639246677311,41.196392053167379,41.085144859660325,40.973897666156184,40.692629046140425,40.272249064311971,39.851869082486452,39.431489100663875,39.0111091188442,38.590729137027594,38.170349155213806,37.749969173402995,37.329589191595133,36.909209209790205,36.304088296434188,35.575803851715463,34.847519406999851,34.119234962287166,33.390950517577515,32.662666072870913,31.934381628167323,31.206097183466749,30.477812738769167,29.749528294074643,28.823697323366034,27.791492273669967,26.759287223977029,25.727082174287194,24.69487712460047,23.662672074916852,22.630467025236332,21.598261975558952,20.566056925884642,19.533851876213468,18.292963993600946,16.962637088830174,15.632310184062531,14.301983279298161,12.97165637453694,11.641329469778963,10.311002565024179,8.9806756602725617,7.6503487555241811,6.3200218507789891,4.7710926831467182,3.1492933395440845,1.5274939959447233,-0.094305347651367333,-1.7161046912441538,-3.3379040348337181,-4.9597033784199365,-6.5815027220029023,-8.2033020655826441,-9.8251014091590338,-11.674611468997309,-13.581051898338471,-15.487492327676199,-17.393932757010404,-19.300373186341155,-21.2068136156684,-23.113254044992146,-25.0196944743124,-26.926134903629183,-28.832575332942525,-30.976008238161285,-33.1612659804005,-35.3465237226362,-37.531781464868622,-39.717039207097557,-41.90229694932313,-44.087554691545208,-46.272812433763974,-48.458070175979323,-50.643327918191247,-53.075011445424074,-55.534078203487859,-57.993144961547969,-60.452211719604371,-62.911278477657071,-65.370345235705884,-67.829411993751066,-70.2884787517924,-72.7475455098302,-75.206612267864145,-77.923115535877272,-80.6531706552791,-83.383225774677157,-86.113280894071337,-88.843336013461709,-91.573391132848329,-94.3034462522311,-97.033501371609916,-99.763556490985081,-102.49361161035628,0.5588874456431896,0.5588874456431896,0.5588874456431896,0.5588874456431896,0.5588874456431896,0.5588874456431896,0.5588874456431896,0.5588874456431896,0.5588874456431896,0.5588874456431896,0.5588874456431896,0.5588874456431896
DP 162,255.91250574828021,0.0024798701241964408,-114.80061628509522,-111.62881507951403,-108.45701387393088,-105.28521266834572,-102.11341146275862,-98.941610257169458,-95.7698090515784,-92.598007845985464,-89.426206640390376,-86.254405434793526,-83.088806058687538,-80.041042615369051,-76.993279172048645,-73.945515728726221,-70.897752285401893,-67.849988842075646,-64.802225398747353,-61.754461955417142,-58.706698512085005,-55.658935068750885,-52.635999720174404,-49.836519571227079,-47.037039422277886,-44.237559273326795,-41.4380791243738,-38.63859897541893,-35.83911882646219,-33.039638677503511,-30.240158528542992,-27.440678379580547,-24.693255192753647,-22.240824738380482,-19.788394284005392,-17.335963829628373,-14.883533375249456,-12.431102920868593,-9.9786724664858113,-7.5262420121010951,-5.073811557714472,-2.6213811033259296,-0.25285694352008814,1.7800380724699199,3.8129330884618033,5.8458281044555855,7.8787231204512294,9.9116181364487836,11.944513152448215,13.977408168449545,16.010303184452734,18.043198200457827,19.96036200251617,21.530327787093412,23.10029357167253,24.670259356253538,26.240225140836461,27.81019092542126,29.380156710007952,30.950122494596521,32.520088279186965,34.090054063779363,35.516609605396631,36.608535598672731,37.700461591950678,38.792387585230536,39.884313578512248,40.976239571795894,42.0681655650814,43.160091558368826,44.252017551658149,45.343943544949319,46.271945381845107,46.89551221561765,47.519079049392019,48.142645883168363,48.7662127169466,49.389779550726686,50.013346384508736,50.636913218292619,51.260480052078471,51.884046885866162,52.33192374106661,52.516261476766019,52.700599212467289,52.884936948170541,53.069274683875648,53.253612419582652,53.4379501552916,53.622287891002408,53.806625626715231,53.990963362429937,53.996779465154646,53.784398711085004,53.572017957017273,53.359637202951532,53.14725644888766,52.934875694825813,52.722494940765806,52.510114186707824,52.297733432651654,52.085352678597509,50.58137638869691,50.022261368080358,49.463146347465809,48.904031326853129,48.344916306242389,47.785801285633653,47.226686265026842,46.667571244422042,45.946549940346415,45.093057076410332,44.239564212476239,43.3860713485441,42.532578484613971,41.679085620685846,40.825592756759683,39.97209989283553,39.118607028913324,38.265114164993143,37.265454209830864,36.168347224520758,35.071240239212628,33.9741332539065,32.877026268602428,31.779919283300359,30.682812298000353,29.585705312702331,28.488598327406351,27.391491342112367,26.166211475586213,24.871913578384721,23.577615681185364,22.283317783988014,20.989019886792725,19.694721989599525,18.40042409240835,17.106126195219289,15.811828298032225,14.517530400847258,13.113512779123873,11.662470566369107,10.211428353616384,8.7603861408658421,7.3093439281173715,5.8583017153710379,4.4072595026268147,2.9562172898846604,1.5051750771446593,0.054132864406755639,-1.4892041853893341,-3.0633073440474741,-4.6374105027034691,-6.2115136613573236,-7.7856168200090012,-9.35971997865859,-10.93382313730595,-12.507926295951179,-14.08202945459432,-15.656132613235247,-17.30716669734203,-18.977434421765224,-20.647702146186209,-22.3179698706049,-23.988237595021335,-25.658505319435495,-27.328773043847406,-28.999040768257071,-30.669308492664431,-32.33957621706957,-34.074501008621134,-35.820836589840319,-37.567172171057244,-39.313507752272052,-41.059843333484544,-42.806178914694904,-44.552514495903026,-46.298850077108888,-48.0451856583126,-49.79152123951409,-51.5935805394491,-53.401831948916652,-55.210083358381944,-57.018334767844685,-58.826586177305174,-60.634837586763119,-62.443088996218819,-64.251340405672,-66.059591815122886,-67.867843224571246,-69.727222746421077,-71.589293730257651,-73.451364714091923,-75.313435697923609,-77.175506681752921,-79.0375776655799,-80.8996486494043,-82.761719633226264,-84.623790617045714,-86.485861600862776,0.36315235590302175,0.36315235590302175,0.36315235590302175,0.36315235590302175,0.36315235590302175,0.36315235590302175,0.36315235590302175,0.36315235590302175,0.36315235590302175,0.36315235590302175,0.36315235590302175,0.36315235590302175
DP 163,142.68715055307175,0.0031916793985841104,-95.024537326796192,-92.657263992793844,-90.28999065878898,-87.922717324781786,-85.555443990772034,-83.188170656759766,-80.820897322745083,-78.4536239887281,-76.086350654708468,-73.719077320686537,-71.355154383269749,-69.054889614771341,-66.75462484627063,-64.45436007776739,-62.154095309261777,-59.853830540753655,-57.553565772243132,-55.253301003730108,-52.953036235214626,-50.652771466696777,-48.366196301592481,-46.202828861195165,-44.039461420795554,-41.876093980393591,-39.712726539989191,-37.549359099582411,-35.38599165917325,-33.222624218761737,-31.059256778347805,-28.895889337931507,-26.7621507760233,-24.796311059387868,-22.83047134275003,-20.864631626109748,-18.898791909467054,-16.932952192821908,-14.967112476174336,-13.00127275952431,-11.035433042871867,-9.0695933262169959,-7.1536568608111839,-5.4373357588768414,-3.7210146569401132,-2.0046935550009755,-0.28837245305945536,1.4279486488844755,3.1442697508307988,4.8605908527795263,6.5769119547306349,8.29323305668415,9.9368112061222629,11.362157747698987,12.78750428927812,14.212850830859656,15.638197372443617,17.063543914029975,18.488890455618765,19.914236997209969,21.339583538803563,22.76493008039958,24.093957529101228,25.19823663428868,26.302515739478572,27.406794844670863,28.511073949865594,29.6153530550628,30.719632160262368,31.823911265464378,32.928190370668823,34.032469475875686,35.017870585488289,35.782495064273867,36.54711954306179,37.311744021852235,38.0763685006451,38.840992979440415,39.605617458238171,40.370241937038394,41.134866415840989,41.899490894646085,42.525170031775644,42.942427873060822,43.359685714348451,43.776943555638574,44.194201396931156,44.611459238226246,45.028717079523723,45.445974920823737,45.863232762126245,46.280490603431147,46.542311431988139,46.614150424489104,46.685989416992577,46.757828409498522,46.829667402007004,46.901506394517966,46.973345387031394,47.045184379547422,47.117023372065937,47.188862364586946,46.565727207725004,46.302104712319959,46.0384822169175,45.774859721517537,45.511237226120116,45.247614730725296,44.983992235333012,44.720369739943266,44.281088960686461,43.698084748543408,43.115080536402921,42.532076324265113,41.949072112129819,41.366067899997191,40.783063687867106,40.20005947573965,39.617055263614787,39.034051051492504,38.271555702605767,37.389396768250293,36.50723783389747,35.625078899547262,34.742919965199768,33.860761030854881,32.978602096512695,32.096443162173074,31.214284227836202,30.332125293501953,29.270118018499332,28.111266713981053,26.952415409465495,25.793564104952623,24.634712800442482,23.475861495935039,22.317010191430303,21.158158886928305,19.99930758242899,18.84045627793239,17.503983455781,16.091384128015871,14.678784800253476,13.266185472493925,11.853586144737132,10.440986816983152,9.0283874892319513,7.6157881614835166,6.2031888337379035,4.7905895059950581,3.2040685200247752,1.5595714560730731,-0.084925607875791745,-1.729422671821816,-3.3739197357649653,-5.0184167997053235,-6.6629138636427676,-8.3074109275773811,-9.9519079915092128,-11.596405055438124,-13.410717062412191,-15.267484811537091,-17.124252560659055,-18.981020309777978,-20.837788058893903,-22.694555808006783,-24.551323557116653,-26.408091306223522,-28.26485905532736,-30.121626804428242,-32.1452110845548,-34.198235431061882,-36.251259777566005,-38.304284124067252,-40.357308470565492,-42.4103328170608,-44.463357163553191,-46.516381510042592,-48.569405856529066,-50.622430203012691,-52.841025896902643,-55.078020146059416,-57.315014395213012,-59.552008644363411,-61.78900289351062,-64.025997142654589,-66.2629913917954,-68.499985640932863,-70.736979890067246,-72.973974139198475,-75.378824189023462,-77.7925104247714,-80.2061966605162,-82.619882896257636,-85.033569131995833,-87.44725536773079,-89.860941603462308,-92.274627839190643,-94.688314074915723,-97.102000310637465,0.48428102919581012,0.48428102919581012,0.48428102919581012,0.48428102919581012,0.48428102919581012,0.48428102919581012,0.48428102919581012,0.48428102919581012,0.48428102919581012,0.48428102919581012,0.48428102919581012,0.48428102919581012
DP 164,162.50980023791783,0.0037432564573014479,-123.51825025471423,-120.37080814635489,-117.22336603799263,-114.07592392962736,-110.92848182125925,-107.78103971288813,-104.63359760451416,-101.48615549613717,-98.338713387757267,-95.191271279374419,-92.048592540822,-88.996418729589124,-85.944244918353348,-82.892071107114617,-79.839897295872959,-76.787723484628472,-73.73554967338103,-70.683375862130561,-67.631202050877192,-64.579028239620911,-61.54624464532538,-58.687974836496885,-55.829705027665604,-52.971435218831417,-50.113165409994387,-47.254895601154566,-44.396625792311852,-41.538355983466317,-38.680086174617948,-35.821816365766693,-33.005271915713408,-30.425173794831149,-27.845075673945992,-25.264977553057925,-22.684879432166987,-20.1047813112731,-17.524683190376329,-14.94458506947664,-12.364486948574067,-9.7843888276685949,-7.2740079744232684,-5.0424994867216144,-2.81099099901712,-0.57948251130975581,1.6520259764004446,3.8835344641135232,6.1150429518294436,8.3465514395482359,10.578059927269862,12.80956841499437,14.940472236629459,16.76955825626743,18.598644275908292,20.427730295551992,22.256816315198563,24.085902334848029,25.914988354500348,27.744074374155559,29.573160393813609,31.402246413474511,33.099735824778882,34.49016130045505,35.880586776134052,37.271012251815918,38.66143772750069,40.051863203188347,41.442288678878846,42.83271415457228,44.223139630268591,45.613565105967737,46.843871107777481,47.776808048152724,48.7097449885308,49.6426819289118,50.575618869295745,51.508555809682527,52.441492750072193,53.3744296904648,54.307366630860336,55.240303571258764,55.989110693734638,56.461718738269624,56.934326782807489,57.406934827348287,57.879542871892006,58.352150916438625,58.824758960988191,59.297367005540742,59.769975050096171,60.242583094654528,60.512930990111215,60.5360677882369,60.559204586365475,60.582341384497106,60.605478182631657,60.628614980769157,60.651751778909649,60.67488857705311,60.698025375199464,60.72116217334893,59.721133627499476,59.316494040861471,58.911854454226386,58.507214867594371,58.102575280965382,57.697935694339328,57.293296107716422,56.888656521096436,56.264941333126096,55.461978706352653,54.659016079582308,53.856053452815061,53.053090826050841,52.250128199289783,51.447165572531695,50.644202945776719,49.841240319024813,49.038277692275976,48.016810568088104,46.849670336715555,45.682530105346132,44.515389873979814,43.348249642616622,42.181109411256571,41.013969179899668,39.846828948545884,38.679688717195255,37.5125484858477,36.132112815197431,34.636822652464318,33.141532489734388,31.646242327007716,30.150952164284217,28.655662001563996,27.160371838846892,25.665081676133084,24.169791513422478,22.674501350715037,20.974335970131548,19.186363466685563,17.398390963242765,15.610418459803361,13.822445956367183,12.034473452934336,10.246500949504753,8.4585284460784145,6.670555942655418,4.8825834392356819,2.8997340920679058,0.85192334098391065,-1.1958874100967443,-3.243698161174053,-5.291508912247977,-7.3393196633186166,-9.387130414385819,-11.434941165449692,-13.482751916510292,-15.530562667567445,-17.763190195072983,-20.04202410032892,-22.320858005581389,-24.599691910830288,-26.878525816075648,-29.157359721317452,-31.43619362655571,-33.71502753179044,-35.99386143702165,-38.272695342249321,-40.728196707266783,-43.214876647401908,-45.70155658753346,-48.188236527661672,-50.6749164677863,-53.161596407907624,-55.648276348025327,-58.134956288139655,-60.62163622825048,-63.108316168357916,-65.766342788964081,-68.443409729168252,-71.120476669368728,-73.797543609565309,-76.4746105497583,-79.1516774899473,-81.828744430132744,-84.505811370314191,-87.182878310492143,-89.859945250666144,-92.708063851119149,-95.5651868724281,-98.422309893733257,-101.27943291503463,-104.13655593633213,-106.99367895762585,-109.8508019789158,-112.7079250002017,-115.56504802148396,-118.42217104276226,0.56934747202463321,0.56934747202463321,0.56934747202463321,0.56934747202463321,0.56934747202463321,0.56934747202463321,0.56934747202463321,0.56934747202463321,0.56934747202463321,0.56934747202463321,0.56934747202463321,0.56934747202463321
DP 165,159.03111309116511,0.0033305400027587285,-108.04366816426082,-105.3008615909017,-102.55805501753993,-99.815248444175651,-97.072441870808717,-94.3296352974392,-91.586828724066962,-88.844022150692155,-86.1012155773148,-83.358409003934881,-80.619706577807889,-77.958983725403442,-75.298260872996423,-72.637538020586845,-69.976815168174582,-67.316092315759761,-64.655369463342353,-61.994646610922331,-59.333923758499694,-56.673200906074477,-54.02919638968666,-51.535658477903127,-49.042120566117013,-46.548582654328385,-44.055044742537248,-41.561506830743575,-39.067968918947372,-36.574431007148632,-34.080893095347385,-31.587355183543611,-29.129828508330469,-26.876367776372827,-24.622907044412603,-22.369446312449806,-20.115985580484459,-17.862524848516511,-15.609064116545975,-13.355603384572857,-11.102142652597191,-8.848681920618942,-6.65547519180147,-4.7032873232876886,-2.7510994547713818,-0.79891158625253078,1.1532762822688385,3.1054641507927641,5.0576520193192174,7.0098398878482149,8.962027756379733,10.914215624913789,12.779303038460247,14.383085793891066,15.986868549324448,17.590651304760385,19.194434060198866,20.79821681563989,22.401999571083465,24.005782326529612,25.609565081978289,27.213347837429506,28.702958034161874,29.926161097314626,31.149364160469954,32.372567223627819,33.595770286788266,34.818973349951243,36.04217641311682,37.265379476284906,38.488582539455614,39.711785602628851,40.795727242984519,41.6210367657634,42.446346288544866,43.271655811328849,44.096965334115446,44.922274856904657,45.747584379696391,46.572893902490719,47.39820342528764,48.223512948087119,48.888229516572849,49.31205285871566,49.735876200861092,50.159699543009083,50.583522885159709,51.007346227312958,51.431169569468821,51.854992911627193,52.27881625378825,52.702639595951936,52.949502275514909,52.980075983769275,53.010649692026327,53.041223400286007,53.07179710854826,53.10237081681322,53.132944525080745,53.163518233351,53.194091941623896,53.224665649899336,52.377471640102208,52.032478584556934,51.687485529014388,51.342492473474465,50.997499417937235,50.652506362402733,50.307513306870838,49.962520251341672,49.424455167309233,48.728418741874975,48.032382316443488,47.33634589101473,46.640309465588714,45.9442730401654,45.2482366147448,44.552200189326989,43.856163763911887,43.160127338499471,42.270721419777828,41.25239945925729,40.234077498739481,39.21575553822445,38.197433577712268,37.179111617202821,36.160789656696167,35.142467696192313,34.124145735691243,33.105823775192945,31.897894390319472,30.587865942789339,29.277837495262123,27.96780904773772,26.657780600216146,25.347752152697492,24.037723705181616,22.727695257668646,21.417666810158469,20.107638362651166,18.614611277910775,17.043153116977706,15.471694956047518,13.900236795120327,12.328778634195993,10.757320473274632,9.1858623123561767,7.6144041514406018,6.0429459905279934,4.4714878296182965,2.7250839682173029,0.92036266850784954,-0.88435863119863312,-2.6890799309021394,-4.4938012306026343,-6.2985225303002119,-8.1032438299947263,-9.90796512968629,-11.712686429374925,-13.517407729060501,-15.488892449108938,-17.502069994583263,-19.515247540054503,-21.528425085522592,-23.541602630987523,-25.554780176449277,-27.567957721907895,-29.581135267363365,-31.594312812815662,-33.607490358264904,-35.780851220249474,-37.982481507589156,-40.184111794925677,-42.385742082259235,-44.587372369589644,-46.789002656916985,-48.99063294424127,-51.19226323156245,-53.393893518880532,-55.595523806195565,-57.953158299352232,-60.32812823156852,-62.703098163781569,-65.0780680959911,-67.4530380281975,-69.828007960400313,-72.202977892599975,-74.57794782479607,-76.952917756988924,-79.327887689178525,-81.859029122042571,-84.398391661416312,-86.937754200786742,-89.477116740153576,-92.016479279517085,-94.555841818877283,-97.095204358234042,-99.634566897587177,-102.17392943693712,-104.71329197628361,0.50659963201446279,0.50659963201446279,0.50659963201446279,0.50659963201446279,0.50659963201446279,0.50659963201446279,0.50659963201446279,0.50659963201446279,0.50659963201446279,0.50659963201446279,0.50659963201446279,0.50659963201446279
DP 166,259.96572152808824,0.0018057140027595952,-84.50118175986178,-82.159625920028645,-79.818070080193948,-77.476514240357886,-75.13495840052046,-72.793402560681528,-70.451846720841189,-68.110290880999372,-65.76873504115612,-63.427179201311461,-61.090245890730444,-58.841141510047493,-56.592037129363177,-54.3429327486774,-52.093828367990284,-49.844723987301684,-47.595619606611677,-45.346515225920278,-43.097410845227408,-40.848306464533138,-38.617695209037734,-36.553523828346279,-34.489352447653417,-32.425181066959183,-30.361009686263564,-28.296838305566588,-26.232666924868226,-24.168495544168476,-22.104324163467354,-20.040152782764888,-18.014712417191618,-16.208750244639283,-14.402788072085555,-12.59682589953043,-10.790863726973903,-8.9849015544159769,-7.1789393818566447,-5.3729772092959172,-3.5670150367337987,-1.7610528641702867,-0.017422636782339771,1.4768768640410572,2.9711763648658129,4.4654758656919533,5.9597753665194508,7.4540748673483312,8.9483743681785768,10.442673869010203,11.936973369843184,13.431272870677549,14.839763025400623,15.990821897454493,17.141880769509712,18.292939641566317,19.44399851362428,20.595057385683646,21.746116257744372,22.89717512980646,24.048234001869922,25.199292873934798,26.244262278943438,27.041685415928857,27.839108552915615,28.636531689903787,29.43395482689332,30.231377963884242,31.028801100876493,31.826224237870193,32.623647374865229,33.421070511861657,34.097546058560624,34.54940138552147,35.001256712483681,35.453112039447269,35.904967366412258,36.356822693378632,36.808678020346342,37.260533347315466,37.712388674285982,38.164244001257849,38.48684848330555,38.615573643720936,38.744298804137713,38.873023964555927,39.001749124975468,39.130474285396431,39.259199445818766,39.387924606242528,39.516649766667634,39.64537492709416,39.643185851428314,39.48098773738112,39.318789623335348,39.156591509290969,38.994393395247982,38.83219528120641,38.669997167166272,38.507799053127478,38.345600939090133,38.183402825054181,37.063337610098138,36.647750667916085,36.2321637257355,35.816576783556343,35.400989841378561,34.985402899202207,34.5698159570273,34.1542290148538,33.620760754010334,32.990842115653,32.360923477297085,31.731004838942628,31.101086200589602,30.47116756223804,29.841248923887914,29.211330285539216,28.58141164719196,27.951493008846175,27.215572289869915,26.408981847229079,25.602391404589714,24.795800961951826,23.989210519315431,23.18262007668045,22.376029634046983,21.56943919141494,20.762848748784403,19.956258306155306,19.057105463436375,18.108109982342064,17.159114501249302,16.210119020158011,15.261123539068214,14.312128057979914,13.3631325768931,12.41413709580781,11.465141614723985,10.516146133641676,9.4882693925279451,8.4265850656895509,7.3649007388526515,6.3032164120173286,5.2415320851835059,4.1798477583512428,3.1181634315205105,2.05647910469128,0.99479477786361359,-0.066889548962527509,-1.1946098037058102,-2.3443428666609196,-3.4940759296144752,-4.6438089925664734,-5.7935420555168848,-6.943275118465781,-8.0930081814130634,-9.2427412443588057,-10.392474307303017,-11.542207370245608,-12.746700794713686,-13.964884956564658,-15.183069118413998,-16.401253280261678,-17.619437442107753,-18.83762160395214,-20.055805765794904,-21.273989927636016,-22.492174089475476,-23.710358251313338,-24.974321381193164,-26.246363661560022,-27.518405941925273,-28.790448222288962,-30.06249050265097,-31.334532783011408,-32.606575063370215,-33.878617343727456,-35.15065962408304,-36.422701904437055,-37.7339933384276,-39.0496462016964,-40.365299064963423,-41.680951928228687,-42.996604791492281,-44.312257654754077,-45.627910518014161,-46.943563381272462,-48.259216244529085,-49.57486910778389,-50.92639348302707,-52.279806189491296,-53.633218895953775,-54.986631602414477,-56.340044308873431,-57.693457015330608,-59.046869721785974,-60.400282428239571,-61.753695134691455,-63.107107841141428,0.26378717246999794,0.26378717246999794,0.26378717246999794,0.26378717246999794,0.26378717246999794,0.26378717246999794,0.26378717246999794,0.26378717246999794,0.26378717246999794,0.26378717246999794,0.26378717246999794,0.26378717246999794
DP 167,171.06583263987523,0.0015286703597080149,-52.511004681205755,-51.160968923408625,-49.810933165610194,-48.460897407810684,-47.110861650009859,-45.760825892207883,-44.410790134404671,-43.0607543766003,-41.7107186187947,-40.360682860987865,-39.0127463748779,-37.704696447886086,-36.396646520893015,-35.08859659389875,-33.780546666903312,-32.472496739906667,-31.164446812908821,-29.856396885909781,-28.548346958909491,-27.240297031908064,-25.94077931183979,-24.718052260658983,-23.495325209477016,-22.272598158293871,-21.049871107109571,-19.8271440559241,-18.604417004737453,-17.381689953549653,-16.15896290236067,-14.936235851170519,-13.731823508828654,-12.631195670724756,-11.530567832619669,-10.429939994513386,-9.3293121564059316,-8.2286843182972671,-7.1280564801874107,-6.027428642076365,-4.9268008039641389,-3.8261729658507222,-2.756044122247177,-1.8079126980938329,-0.85978127393932324,0.0883501502163628,1.0364815743732112,1.9846129985312402,2.9327444226904347,3.8808758468508056,4.8290072710123422,5.7771386951750445,6.6814467847446322,7.4542832136328165,8.227119642522176,8.999956071412722,9.7727925003044422,10.545628929197337,11.318465358091411,12.091301786986655,12.864138215883083,13.636974644780686,14.352781695715333,14.935517952026625,15.518254208339092,16.100990464652732,16.683726720967549,17.266462977283553,17.849199233600729,18.431935489919102,19.014671746238651,19.597408002559376,20.111168438181434,20.496829058305739,20.882489678431224,21.26815029855792,21.653810918685782,22.03947153881483,22.425132158945086,22.810792779076518,23.196453399209148,23.582114019342935,23.888993506937275,24.077699434094448,24.26640536125284,24.455111288412425,24.643817215573204,24.832523142735187,25.021229069898354,25.209934997062753,25.398640924228317,25.587346851395097,25.69017038250626,25.688024736720177,25.685879090935305,25.683733445151642,25.681587799369204,25.679442153587964,25.677296507807977,25.675150862029163,25.673005216251571,25.670859570475191,25.214130052529853,25.031867034013072,24.849604015497512,24.667340996983214,24.485077978470123,24.302814959958269,24.120551941447665,23.938288922938263,23.664628568784053,23.31618700564642,22.96774544251004,22.619303879374897,22.270862316241011,21.922420753108412,21.573979189977013,21.225537626846908,20.877096063718042,20.528654500590442,20.089964344845352,19.591107038951304,19.09224973305853,18.593392427167039,18.094535121276834,17.595677815387919,17.096820509500283,16.597963203613894,16.099105897728812,15.600248591845002,15.014245052393113,14.381315350684265,13.748385648976731,13.11545594727051,12.482526245565593,11.849596543861999,11.216666842159718,10.583737140458737,9.9508074387590675,9.317877737060714,8.6022102415289989,7.8510822949782026,7.0999543484287093,6.3488264018805989,5.5976984553338012,4.8465705087883606,4.095442562244263,3.344314615701486,2.5931866691600729,1.8420587226199936,1.013189798677103,0.15840623584345384,-0.69637732698883237,-1.5511608898197531,-2.40594445264929,-3.260728015477488,-4.1155115783042788,-4.9702951411297169,-5.8250787039538121,-6.6798622667765031,-7.6074573905213683,-8.5532562647763939,-9.4990551390300091,-10.444854013282169,-11.390652887532886,-12.336451761782145,-13.282250636029977,-14.228049510276358,-15.173848384521284,-16.11964725876479,-17.134220050252473,-18.1609301801469,-19.187640310039871,-20.214350439931447,-21.241060569821627,-22.267770699710379,-23.294480829597696,-24.321190959483626,-25.347901089368136,-26.374611219251243,-27.467338385976724,-28.567401472351886,-29.667464558725534,-30.767527645097594,-31.867590731468198,-32.967653817837189,-34.067716904204708,-35.167779990570608,-36.267843076935037,-37.367906163297931,-38.53341124590532,-39.702361295225494,-40.871311344544189,-42.040261393861236,-43.209211443176791,-44.37816149249079,-45.54711154180319,-46.716061591114006,-47.885011640423343,-49.05396168973099,0.23231950645168253,0.23231950645168253,0.23231950645168253,0.23231950645168253,0.23231950645168253,0.23231950645168253,0.23231950645168253,0.23231950645168253,0.23231950645168253,0.23231950645168253,0.23231950645168253,0.23231950645168253
DP 168,222.17374815098287,0.0018807602506208663,-78.7478467644063,-76.627838833174991,-74.5078309019423,-72.387822970708086,-70.26781503947231,-68.147807108235085,-66.027799176996353,-63.90779124575613,-61.787783314514371,-59.6677753832711,-57.55157891235789,-55.507800908279378,-53.464022904199339,-51.420244900117815,-49.376466896034792,-47.332688891950255,-45.288910887864276,-43.245132883776776,-41.201354879687848,-39.157576875597336,-37.129146211789411,-35.238843061193911,-33.348539910596976,-31.458236759998581,-29.567933609398736,-27.677630458797466,-25.787327308194719,-23.897024157590543,-22.006721006984925,-20.116417856377847,-18.258594191205276,-16.584822990180022,-14.91105178915333,-13.23728058812514,-11.563509387095497,-9.8897381860643812,-8.2159669850317751,-6.5421957839977054,-4.8684245829621711,-3.1946533819251672,-1.5739089381506171,-0.16527402951768794,1.243360879116677,2.6519957877524947,4.0606306963897421,5.4692656050284487,6.877900513668596,8.286535422310191,9.6951703309532249,11.103805239597703,12.438116900694819,13.549456009087809,14.660795117482236,15.772134225878141,16.883473334275472,17.994812442674267,19.106151551074493,20.217490659476191,21.328829767879331,22.4401688762839,23.457627586283813,24.256028335955634,25.054429085628918,25.852829835303677,26.651230584979835,27.449631334657472,28.248032084336561,29.0464328340171,29.844833583699067,30.643234333382534,31.33193712118922,31.816912160133754,32.301887199079722,32.786862238027126,33.271837276976022,33.756812315926382,34.241787354878163,34.726762393831436,35.211737432786137,35.696712471742337,36.061180917540575,36.244886625985792,36.428592334432508,36.61229804288066,36.796003751330332,36.979709459781411,37.163415168233975,37.347120876688031,37.530826585143544,37.71453229360052,37.772424006710956,37.676540416147695,37.58065682558594,37.484773235025642,37.388889644466857,37.293006053909515,37.1971224633537,37.101238872799364,37.005355282246491,36.90947169169511,35.992678090155451,35.6451368919159,35.297595693677863,34.950054495441314,34.602513297206322,34.254972098972843,33.907430900740778,33.559889702510283,33.0910604700053,32.522993488672384,31.954926507340907,31.386859526011023,30.818792544682633,30.250725563355761,29.682658582030442,29.114591600706671,28.54652461938441,27.978457638063677,27.29712110095155,26.540269742245563,25.783418383541118,25.026567024838254,24.269715666136943,23.512864307437141,22.756012948738942,21.999161590042274,21.242310231347204,20.485458872653648,19.625618250160567,18.710320372592836,17.795022495026696,16.879724617462156,15.964426739899194,15.049128862337833,14.133830984778045,13.218533107219873,12.303235229663272,11.387937352108281,10.38098905164648,9.3347604515562175,8.2885318514675337,7.2423032513805321,6.1960746512951186,5.1498460512113571,4.1036174511292227,3.057388851048684,2.0111602509698057,0.96493165089254429,-0.16166795356755076,-1.3150589057240374,-2.4684498578788721,-3.6218408100320514,-4.7752317621835561,-5.9286227143334411,-7.0820136664816138,-8.2354046186281487,-9.3887955707730626,-10.542186522916266,-11.76561154031733,-13.006545901495652,-14.247480262672267,-15.488414623847111,-16.729348985020216,-17.970283346191557,-19.211217707361165,-20.452152068529024,-21.693086429695114,-22.934020790859517,-24.236553664875277,-25.549957549671895,-26.86336143446675,-28.176765319259982,-29.490169204051472,-30.803573088841279,-32.11697697362932,-33.430380858415681,-34.743784743200322,-36.05718862798328,-37.426035077825965,-38.8010423949518,-40.176049712075823,-41.551057029197928,-42.92606434631832,-44.301071663436751,-45.676078980553385,-47.051086297668078,-48.426093614780996,-49.801100931892016,-51.228633498107776,-52.658931073722357,-54.089228649335212,-55.51952622494607,-56.949823800555151,-58.380121376162379,-59.810418951767645,-61.240716527371021,-62.671014102972521,-64.101311678572117,0.28063571802126452,0.28063571802126452,0.28063571802126452,0.28063571802126452,0.28063571802126452,0.28063571802126452,0.28063571802126452,0.28063571802126452,0.28063571802126452,0.28063571802126452,0.28063571802126452,0.28063571802126452
DP 169,151.96824882483989,0.0021274963660000141,-66.584372586484278,-64.907331077899727,-63.230289569313477,-61.553248060725529,-59.876206552135976,-58.199165043544696,-56.522123534951838,-54.845082026357204,-53.168040517761042,-51.490999009163225,-49.816408533584841,-48.188388148761796,-46.560367763937158,-44.932347379110809,-43.304326994282853,-41.676306609453192,-40.048286224621918,-38.420265839788989,-36.792245454954411,-35.164225070118171,-33.546202270787184,-32.018158686006,-30.4901151012232,-28.962071516438805,-27.43402793165281,-25.905984346865182,-24.377940762075973,-22.849897177285147,-21.321853592492722,-19.793810007698688,-18.287345411136439,-16.903163107684289,-15.518980804230502,-14.134798500775078,-12.750616197318022,-11.366433893859325,-9.9822515903989828,-8.59806928693701,-7.2138869834734036,-5.8297046800081631,-4.481731266484136,-3.2785951239912534,-2.0754589814967686,-0.872322839000665,0.33081330349703952,1.5339494459963674,2.7370855884973011,3.9402217309998564,5.1433578735040122,6.3464940160097818,7.4971016919429694,8.490121982126551,9.48314227231175,10.476162562498574,11.469182852687009,12.462203142877074,13.455223433068744,14.448243723262051,15.441264013456978,16.43428430365352,17.35815019255692,18.120653088201937,18.883155983848585,19.645658879496867,20.408161775146755,21.170664670798296,21.933167566451459,22.695670462106261,23.458173357762675,24.220676253420727,24.898402713465739,25.418684932172258,25.938967150880437,26.459249369590278,26.979531588301718,27.499813807014839,28.020096025729575,28.540378244445957,29.060660463163977,29.580942681883656,30.00289858551373,30.27736269302142,30.551826800530748,30.826290908041752,31.100755015554405,31.375219123068717,31.649683230584682,31.924147338102323,32.19861144562158,32.473075553142529,32.638490742925853,32.670621631593015,32.702752520261789,32.734883408932276,32.767014297604454,32.799145186278309,32.83127607495382,32.863406963631007,32.895537852309886,32.927668740990448,32.441321823185248,32.240356437681974,32.03939105218042,31.838425666680585,31.637460281182427,31.436494895686003,31.235529510191263,31.034564124698235,30.712824269216974,30.292266862695136,29.87170945617504,29.451152049656685,29.030594643140049,28.6100372366252,28.189479830112063,27.768922423600678,27.348365017091005,26.927807610583077,26.385251600961297,25.76136126735037,25.137470933741231,24.513580600133867,23.889690266528291,23.265799932924484,22.641909599322428,22.018019265722156,21.394128932123685,20.770238598526952,20.025612948720745,19.215974219098886,18.406335489478877,17.596696759860674,16.787058030244268,15.977419300629698,15.167780571016937,14.358141841406015,13.548503111796894,12.738864382189616,11.811545037668349,10.833789157584613,9.8560332775026822,8.8782773974226679,7.9005215173444867,6.9227656372681974,5.9450097571937635,4.9672538771211654,3.9894979970504694,3.011742116981619,1.9203196945174632,0.79100699206778691,-0.338305710379993,-1.4676184128258738,-2.5969311152698338,-3.726243817711929,-4.8555565201520725,-5.9848692225903344,-7.1141819250267258,-8.2434946274611676,-9.48228749675655,-10.748451701292066,-12.0146159058256,-13.280780110357098,-14.546944314886616,-15.813108519414097,-17.079272723939567,-18.345436928463037,-19.611601132984475,-20.877765337503945,-22.250121813394259,-23.641219282752182,-25.032316752108109,-26.423414221462142,-27.814511690814157,-29.205609160164229,-30.596706629512322,-31.987804098858462,-33.3789015682026,-34.7699990375448,-36.265380601743246,-37.772350382820392,-39.279320163895434,-40.78628994496826,-42.293259726039018,-43.800229507107545,-45.307199288174054,-46.814169069238304,-48.321138850300507,-49.828108631360521,-51.440056586679987,-53.057530753555689,-54.675004920429309,-56.292479087300585,-57.909953254169785,-59.527427421036826,-61.144901587901643,-62.7623757547642,-64.3798499216246,-65.99732408848277,0.32345471960639571,0.32345471960639571,0.32345471960639571,0.32345471960639571,0.32345471960639571,0.32345471960639571,0.32345471960639571,0.32345471960639571,0.32345471960639571,0.32345471960639571,0.32345471960639571,0.32345471960639571
DP 170,168.19554760621298,0.0036151471616953108,-122.55212030157796,-119.41060097017007,-116.26908163875925,-113.1275623073455,-109.98604297592912,-106.84452364450978,-103.70300431308766,-100.5614849816626,-97.41996565023473,-94.278446318803958,-91.141768467115213,-88.097079645831485,-85.052390824544887,-82.0077020032555,-78.963013181963291,-75.91832436066818,-72.873635539370284,-69.828946718069574,-66.784257896765965,-63.739569075459563,-60.714567205046293,-57.866749753539644,-55.018932302030315,-52.171114850518165,-49.32329739900328,-46.475479947485582,-43.62766249596519,-40.779845044441963,-37.93202759291605,-35.084210141387388,-32.278687170869382,-29.712835591257146,-27.146984011642139,-24.5811324320243,-22.015280852403681,-19.449429272780211,-16.883577693153956,-14.317726113524863,-11.751874533892984,-9.18602295425828,-6.690681352898955,-4.4773829970080117,-2.2640846411143203,-0.050786285217850412,2.1625120706813656,4.3758104265833717,6.589108782488128,8.8024071383956652,11.015705494305948,13.229003850219014,15.340842312108991,17.148297255866019,18.955752199625824,20.7632071433884,22.570662087153753,24.378117030921896,26.185571974692834,27.9930269184665,29.800481862242982,31.607936806022224,33.283130130979409,34.649707803031106,36.016285475085617,37.382863147142864,38.749440819202995,40.116018491265883,41.482596163331515,42.849173835400016,44.215751507471232,45.58232917954529,46.78861925951643,47.697228053973618,48.605836848433555,49.514445642896327,50.423054437361941,51.331663231830333,52.240272026301525,53.148880820775567,54.057489615252329,54.966098409732034,55.691217198471463,56.141096642662653,56.590976086856678,57.040855531053495,57.490734975253226,57.940614419455677,58.390493863661057,58.840373307869271,59.290252752080242,59.740132196294134,59.989474349134447,59.993711155833132,59.997947962534681,60.002184769239086,60.006421575946426,60.010658382656551,60.0148951893696,60.019131996085427,60.023368802804207,60.02760560952585,58.985919653980844,58.568397113124604,58.150874572271327,57.733352031420843,57.315829490573364,56.898306949728742,56.480784408887089,56.063261868048322,55.431068245491048,54.623230957706149,53.815393669924241,53.007556382145331,52.199719094369335,51.391881806596309,50.584044518826282,49.77620723105921,48.968369943295073,48.160532655533956,47.140012902537606,45.977701488876932,44.815390075219277,43.653078661564628,42.490767247913062,41.328455834264439,40.166144420618892,39.003833006976365,37.841521593336878,36.679210179700391,35.310783319047758,33.831368220414653,32.351953121784717,30.872538023157865,29.393122924534165,27.913707825913519,26.434292727295947,24.95487762868154,23.475462530070175,21.996047431461964,20.320184235480337,18.560125681948847,16.800067128420455,15.040008574895319,13.279950021373319,11.51989146785451,9.75983291433888,7.9997743608263781,6.2397158073171033,4.4796572538109736,2.5342574088364325,0.52707479754721975,-1.4801078137387678,-3.4872904250215226,-5.4944730363010121,-7.50165564757732,-9.5088382588503251,-11.516020870120119,-13.523203481386718,-15.530386092650019,-17.711885973462824,-19.936967231247955,-22.162048489029754,-24.387129746808103,-26.61221100458307,-28.837292262354548,-31.062373520122641,-33.287454777887326,-35.5125360356486,-37.737617293406466,-40.128012408670152,-42.547582395924074,-44.967152383174657,-47.386722370421985,-49.806292357665896,-52.225862344906481,-54.645432332143706,-57.065002319377591,-59.484572306608172,-61.904142293835413,-64.482953194464756,-67.079459202319981,-69.675965210171626,-72.272471218019589,-74.868977225864043,-77.465483233704717,-80.061989241541824,-82.658495249375164,-85.255001257205066,-87.851507265031188,-90.6062434301057,-93.369309072518291,-96.132374714927337,-98.895440357332518,-101.65850599973419,-104.42157164213211,-107.18463728452637,-109.94770292691669,-112.71076856930355,-115.47383421168659,0.54961900370563554,0.54961900370563554,0.54961900370563554,0.54961900370563554,0.54961900370563554,0.54961900370563554,0.54961900370563554,0.54961900370563554,0.54961900370563554,0.54961900370563554,0.54961900370563554,0.54961900370563554
DP 171,70.073137860308776,0.0013413122311800928,-23.514488656784138,-22.999064072112773,-22.48363948744062,-21.968214902767727,-21.452790318094102,-20.937365733419732,-20.421941148744626,-19.906516564068738,-19.391091979392137,-18.875667394714771,-18.36077428036959,-17.855979202820837,-17.351184125271331,-16.846389047721093,-16.341593970170088,-15.836798892618328,-15.33200381506583,-14.827208737512553,-14.322413659958546,-13.817618582403785,-13.315032073688242,-12.832322893289616,-12.34961371289023,-11.866904532490114,-11.38419535208924,-10.901486171687614,-10.418776991285242,-9.9360678108821165,-9.4533586304782489,-8.9706494500736262,-8.49283504268866,-8.0427579908601814,-7.592680939030946,-7.14260388720093,-6.6925268353701624,-6.2424497835386212,-5.792372731706311,-5.3422956798732315,-4.8922186280393909,-4.44214157620478,-4.0005871914615918,-3.5931238778745165,-3.1856605642866711,-2.7781972506980543,-2.3707339371086711,-1.9632706235185144,-1.5558073099275864,-1.1483439963358895,-0.740880682743424,-0.33341736915018871,0.061091841814405447,0.41673825511483903,0.77238466841605646,1.1280310817180585,1.4836774950208453,1.8393239083244159,2.194970321628769,2.5506167349339091,2.9062631482398285,3.261909561546537,3.5995089642257732,3.8949979646791411,4.1904869651333021,4.4859759655882643,4.7814649660440258,5.0769539665005876,5.3724429669579488,5.6679319674161057,5.9634209678750674,6.2589099683348257,6.5307623435748186,6.7587174907862835,6.9866726379985664,7.2146277852116683,7.4425829324255783,7.6705380796403189,7.898493226855865,8.1264483740722273,8.3544035212894059,8.582358668507398,8.7807486084909883,8.9347900389857831,9.0888314694814163,9.2428728999778738,9.39691433047518,9.5509557609733111,9.70499719147228,9.859038621972088,10.013080052472734,10.167121482974204,10.285483248699849,10.360235785811648,10.434988322924285,10.509740860037784,10.584493397152157,10.659245934267371,10.733998471383448,10.808751008500391,10.883503545618174,10.958256082736828,10.973276736633952,10.96433433255263,10.955391928472196,10.946449524392634,10.937507120313963,10.928564716236176,10.919622312159264,10.910679908083246,10.853781122333359,10.757644472867478,10.661507823402504,10.565371173938439,10.469234524475283,10.373097875013041,10.276961225551705,10.180824576091277,10.084687926631759,9.9885512771731548,9.8384858657974785,9.6524670969067436,9.4664483280169627,9.280429559128109,9.094410790240202,8.9083920213532313,8.7223732524671984,8.5363544835820928,8.3503357146979535,8.1643169458147362,7.9185902338500407,7.6407122227373563,7.362834211625656,7.0849562005149043,6.8070781894051269,6.5292001782963149,6.2513221671884729,5.9734441560816007,5.695566144975694,5.4176881338707492,5.0745372217858664,4.7034111075495186,4.3322849933141567,3.9611588790798229,3.59003276484648,3.2189066506141519,2.8477805363828277,2.476654422152504,2.105528307923191,1.7344021936948848,1.2926392611195774,0.82732983220450185,0.36202040329045804,-0.10328902562255361,-0.56859845453452329,-1.033907883445476,-1.499217312355374,-1.9645267412642426,-2.4298361701720941,-2.8951455990788917,-3.4362297403316009,-3.9962584549608113,-4.5562871695889324,-5.1163158842159353,-5.6763445988418395,-6.2363733134666273,-6.79640202809032,-7.3564307427128988,-7.9164594573343683,-8.4764881719547471,-9.1173681440871555,-9.7725168842698142,-10.427665624451372,-11.082814364631876,-11.737963104811273,-12.3931118449896,-13.048260585166844,-13.703409325343005,-14.358558065518091,-15.013706805692117,-15.754534611474922,-16.504883213268549,-17.255231815060984,-18.00558041685218,-18.755929018642234,-19.50627762043106,-20.256626222218721,-21.006974824005141,-21.757323425790382,-22.507672027574436,-23.348596744971665,-24.194289527544566,-25.039982310116258,-25.885675092686689,-26.73136787525593,-27.577060657823932,-28.422753440390757,-29.268446222956264,-30.114139005520613,-30.959831788083733,0.17585765576819443,0.17585765576819443,0.17585765576819443,0.17585765576819443,0.17585765576819443,0.17585765576819443,0.17585765576819443,0.17585765576819443,0.17585765576819443,0.17585765576819443,0.17585765576819443,0.17585765576819443
DP 172,72.032965818113567,0.0050166331504521849,-89.584500518058164,-87.610817760296129,-85.637135002531167,-83.663452244763462,-81.6897694869928,-79.71608672921937,-77.7424039714431,-75.768721213663881,-73.795038455881979,-71.821355698097122,-69.849728287234527,-67.917152856498191,-65.984577425759028,-64.052001995016951,-62.119426564272004,-60.186851133524158,-58.254275702773484,-56.321700272019939,-54.389124841263509,-52.456549410504181,-50.532507946771062,-48.685272992942245,-46.838038039110458,-44.990803085275914,-43.143568131438464,-41.29633317759815,-39.449098223754987,-37.601863269908982,-35.754628316060128,-33.907393362208374,-32.07905997762871,-30.357836676676914,-28.636613375722227,-26.915390074764556,-25.19416677380401,-23.472943472840509,-21.7517201718741,-20.030496870904759,-18.3092735699325,-16.588050268957321,-14.899707412192832,-13.342887886236221,-11.786068360276682,-10.229248834314211,-8.672429308348816,-7.1156097823804787,-5.5587902564092131,-4.00197073043501,-2.44515120445789,-0.88833167847783545,0.61857298748120493,1.9757311861595546,3.332889384840882,4.690047583525196,6.04720578221249,7.4043639809027688,8.76152217959603,10.118680378292268,11.475838576991485,12.832996775693685,14.120716951971136,15.246412341183424,16.372107730398753,17.497803119617117,18.623498508838516,19.749193898062941,20.874889287290415,22.000584676520926,23.126280065754464,24.25197545499104,25.286878492466215,26.153164710431032,27.019450928398907,27.8857371463699,28.752023364343984,29.618309582321189,30.48459580030147,31.350882018284867,32.217168236271334,33.0834544542609,33.836390424633059,34.419298345069087,35.002206265508292,35.585114185950744,36.1680221063963,36.75093002684504,37.333837947296935,37.91674586775207,38.499653788210331,39.082561708671726,39.528958922478942,39.808506849665278,40.088054776854818,40.36760270404762,40.647150631243704,40.926698558442986,41.206246485645572,41.485794412851355,41.765342340060407,42.0448902672727,42.084754810237008,42.044790437976005,42.004826065718362,41.964861693464051,41.924897321213074,41.884932948965428,41.844968576721143,41.8050042044802,41.582385316153449,41.210318684708255,40.83825205326648,40.46618542182815,40.094118790393281,39.72205215896183,39.349985527533846,38.97791889610928,38.605852264688188,38.233785633270521,37.656803048178773,36.943206599147196,36.229610150119214,35.516013701094735,34.802417252073845,34.088820803056493,33.375224354042707,32.661627905032432,31.948031456025738,31.234435007022594,30.294491306108416,29.232665024218594,28.170838742332407,27.109012460449893,26.047186178570993,24.985359896695776,23.923533614824173,22.861707332956261,21.799881051091969,20.738054769231336,19.429348320950083,18.014831920005822,16.600315519065326,15.185799118128681,13.771282717195799,12.356766316266738,10.942249915341485,9.5277335144199853,8.1132171135023388,6.6987007125884723,5.0175768537900565,3.2475804823539205,1.4775841109216772,-0.29241226050666835,-2.0624086319310773,-3.8324050033516421,-5.6024013747682258,-7.3723977461809262,-9.1423941175897809,-10.91239048899466,-12.967854906813139,-15.094689709084435,-17.221524511351618,-19.348359313614591,-21.475194115873421,-23.602028918128028,-25.728863720378474,-27.855698522624756,-29.982533324866857,-32.109368127104837,-34.540320864138742,-37.02494485385391,-39.509568843564843,-41.9941928332719,-44.478816822974728,-46.963440812673539,-49.4480648023682,-51.932688792058833,-54.417312781745423,-56.901936771427941,-59.708465525868355,-62.55076485715135,-65.393064188429861,-68.23536351970381,-71.077662850973326,-73.91996218223818,-76.7622615134987,-79.604560844754531,-82.446860176006012,-85.289159507252876,-88.471514574922367,-91.671770696347977,-94.872026817768955,-98.072282939185371,-101.2725390605972,-104.47279518200443,-107.67305130340709,-110.87330742480488,-114.07356354619817,-117.27381966758685,0.66456194089874221,0.66456194089874221,0.66456194089874221,0.66456194089874221,0.66456194089874221,0.66456194089874221,0.66456194089874221,0.66456194089874221,0.66456194089874221,0.66456194089874221,0.66456194089874221,0.66456194089874221
DP 173,94.151105763613089,0.0058557347511013005,-126.31096965978547,-123.38841919127347,-120.46586872275746,-117.54331825423755,-114.6207677857136,-111.69821731718592,-108.77566684865417,-105.85311638011852,-102.93056591157898,-100.00801544303548,-97.0888545047955,-94.234095283166937,-91.379336061534389,-88.524576839897989,-85.669817618257582,-82.815058396613239,-79.96029917496503,-77.105539953312913,-74.250780731656732,-71.396021509996714,-68.555261372359368,-65.840494314175416,-63.125727255987691,-60.410960197796079,-57.696193139600531,-54.981426081401196,-52.266659023197924,-49.55189196499088,-46.837124906779955,-44.122357848565123,-41.438352666175334,-38.928666718589334,-36.41898077099939,-33.909294823405524,-31.399608875807722,-28.889922928205927,-26.380236980600163,-23.870551032990466,-21.360865085376847,-18.851179137759267,-16.39442813013191,-14.149419384225354,-11.904410638314918,-9.659401892400524,-7.4143931464822286,-5.1693844005599994,-2.9243756546338577,-0.67936690870378158,1.5656418372302003,3.8106505831681048,5.9763908967745776,7.9043229163491242,9.8322549359276419,11.760186955510132,13.688118975096575,15.616050994687003,17.5439830142814,19.471915033879746,21.399847053482052,23.327779073088347,25.147248972043826,26.713636317815979,28.280023663592104,29.846411009372268,31.412798355156461,32.979185700944619,34.545573046736855,36.111960392533064,37.678347738333322,39.24473508413756,40.672007768635481,41.840920896611266,43.009834024591079,44.178747152574971,45.347660280562955,46.516573408554962,47.68548653655111,48.854399664551252,50.023312792555529,51.192225920563793,52.191211356446338,52.9353012386839,53.679391120925573,54.423481003171389,55.167570885421334,55.911660767675514,56.655750649933744,57.399840532196109,58.143930414462609,58.888020296733252,59.432349832494992,59.732523637713228,60.032697442935692,60.332871248162441,60.633045053393325,60.933218858628457,61.233392663867875,61.5335664691114,61.833740274359151,62.133914079611145,61.895800355376075,61.740519243641451,61.585238131911218,61.429957020185206,61.274675908463522,61.119394796746221,60.964113685033148,60.808832573324452,60.400331445495361,59.784645952710122,59.168960459929224,58.553274967152795,57.937589474380772,57.321903981613168,56.706218488849984,56.0905329960912,55.474847503336839,54.859162010586907,53.9674977450926,52.891843283451955,51.816188821815913,50.740534360184313,49.6648798985573,48.589225436934761,47.513570975316838,46.437916513703392,45.362262052094543,44.286607590490156,42.914924646953125,41.383837446834036,39.852750246719609,38.321663046609828,36.790575846504659,35.259488646404172,33.728401446308283,32.197314246217125,30.666227046130583,29.135139846048656,27.29035708490651,25.31112807420395,23.331899063506103,21.352670052813153,19.373441042124956,17.39421203144164,15.414983020763071,13.43575401008931,11.45652499942039,9.477295988756266,7.1684627152927378,4.7497572002816346,2.3310516852754462,-0.087653829725829829,-2.5063593447221364,-4.9250648597136006,-7.3437703747000391,-9.7624758896815766,-12.181181404658263,-14.599886919629935,-17.362885813853222,-20.211962120769105,-23.061038427679851,-25.910114734585303,-28.759191041485579,-31.608267348380494,-34.45734365527025,-37.306419962154749,-40.155496269033982,-43.00457257590805,-46.212837755599658,-49.484493201196322,-52.756148646787679,-56.027804092374126,-59.299459537955293,-62.571114983531423,-65.842770429102345,-69.114425874668285,-72.386081320229,-75.657736765784691,-79.303570011288173,-82.9909824976449,-86.678394983996085,-90.365807470341579,-94.05321995668163,-97.740632443015755,-101.42804492934452,-105.11545741566744,-108.80286990198498,-112.49028238829683,-116.56904913735418,-120.66841737300528,-124.76778560865064,-128.86715384429021,-132.96652207992403,-137.06589031555234,-141.16525855117479,-145.26462678679127,-149.36399502240229,-153.46336325800738,0.84017324070644872,0.84017324070644872,0.84017324070644872,0.84017324070644872,0.84017324070644872,0.84017324070644872,0.84017324070644872,0.84017324070644872,0.84017324070644872,0.84017324070644872,0.84017324070644872,0.84017324070644872
DP 174,61.288472047630108,0.0020545274462381888,-33.001588527102008,-32.29607256882678,-31.590556610550568,-30.885040652273357,-30.179524693995102,-29.474008735715827,-28.768492777435533,-28.062976819154244,-27.357460860871946,-26.651944902588582,-25.947126705772877,-25.255566108768249,-24.564005511762634,-23.872444914755977,-23.180884317748284,-22.489323720739556,-21.797763123729798,-21.106202526719,-20.41464192970718,-19.723081332694342,-19.03442599279543,-18.37191824154025,-17.709410490284036,-17.046902739026784,-16.384394987768484,-15.721887236509163,-15.059379485248806,-14.39687173398741,-13.734363982724981,-13.071856231461517,-12.415807624247526,-11.796361240338472,-11.176914856428347,-10.557468472517153,-9.93802208860491,-9.3185757046915985,-8.6991293207772209,-8.07968293686178,-7.4602365529452825,-6.8407901690277129,-6.232636947116502,-5.6696569069578606,-5.1066768667981455,-4.5436968266373556,-3.9807167864754907,-3.4177367463125559,-2.854756706148545,-2.2917766659834609,-1.7287966258173055,-1.1658165856500784,-0.62009294330962561,-0.12613914689216824,0.36781464952638609,0.86176844594603774,1.3557222423667883,1.8496760387886353,2.3436298352115803,2.8375836316356233,3.3315374280607597,3.8254912244869952,4.2952524883076171,4.7085635565857107,5.1218746248649287,5.5351856931452783,5.9484967614267434,6.3618078297093357,6.775118897993047,7.1884299662778934,7.6017410345638519,8.0150521028509374,8.3964461297951143,8.7185647894311487,9.0406834490683341,9.3628021087066688,9.6849207683461582,10.007039427986804,10.329158087628604,10.651276747271552,10.973395406915667,11.29551406656091,11.57738590132274,11.798886547711529,12.020387194101495,12.241887840492646,12.463388486884979,12.684889133278508,12.906389779673203,13.127890426069103,13.349391072466176,13.570891718864447,13.743391347732615,13.855999814808543,13.968608281885704,14.081216748964083,14.193825216043683,14.306433683124512,14.419042150206561,14.531650617289834,14.644259084374319,14.756867551460042,14.804631185469461,14.801214726323289,14.797798267178376,14.794381808034741,14.790965348892351,14.787548889751241,14.784132430611374,14.780715971472777,14.710167814638771,14.58469256962055,14.459217324603637,14.333742079588035,14.20826683457372,14.082791589560721,13.957316344549023,13.831841099538655,13.706365854529563,13.580890609521797,13.37917763070207,13.126638294991544,12.874098959282355,12.621559623574528,12.36902028786805,12.116480952162927,11.863941616459167,11.611402280756746,11.358862945055682,11.10632360935597,10.768550122424427,10.384880083837432,10.001210045251851,9.6175400066676673,9.2338699680848837,8.8501999295034928,8.4665298909234963,8.082859852344928,7.6991898137677408,7.315519775191949,6.8378012618782256,6.31977467196115,5.80174808204551,5.2837214921313516,4.7656949022186375,4.2476683123073924,3.7296417223976084,3.2116151324892686,2.6935885425823991,2.1755619526769836,1.5548809780973527,0.89998058155680627,0.24508018501775852,-0.40982021151978903,-1.0647206080558229,-1.7196210045903777,-2.3745214011234,-3.0294217976549289,-3.6843221941849773,-4.339222590713498,-5.1050795482790585,-5.8986769570729365,-6.6922743658652095,-7.48587177465586,-8.2794691834449,-9.073066592232319,-9.8666640010181244,-10.660261409802306,-11.453858818584882,-12.247456227365863,-13.160186776044251,-14.093942144776214,-15.027697513506563,-15.961452882235397,-16.895208250962597,-17.828963619688249,-18.762718988412317,-19.696474357134807,-20.630229725855731,-21.563985094575081,-22.624575126370768,-23.699259230571016,-24.773943334769537,-25.848627438966272,-26.923311543161326,-27.99799564735455,-29.072679751546058,-30.147363855735779,-31.2220479599238,-32.296732064110053,-33.505888337615886,-34.722123431661693,-35.938358525705716,-37.154593619747914,-38.370828713788292,-39.587063807826951,-40.803298901863776,-42.019533995898762,-43.235769089931978,-44.452004183963389,0.25466868878311522,0.25466868878311522,0.25466868878311522,0.25466868878311522,0.25466868878311522,0.25466868878311522,0.25466868878311522,0.25466868878311522,0.25466868878311522,0.25466868878311522,0.25466868878311522,0.25466868878311522
DP 175,129.04558136041379,0.0014363953301966608,-39.491775180710867,-38.5250877031689,-37.55840022562586,-36.591712748081761,-35.625025270536533,-34.658337792990267,-33.691650315442914,-32.724962837894445,-31.758275360344918,-30.79158788279431,-29.8262012580613,-28.885531082801425,-27.944860907540477,-27.004190732278474,-26.063520557015362,-25.12285038175116,-24.182180206485906,-23.241510031219555,-22.300839855952141,-21.360169680683629,-20.424830435043003,-19.5374700599506,-18.650109684857146,-17.762749309762633,-16.875388934667072,-15.988028559570468,-15.10066818447279,-14.213307809374076,-13.325947434274317,-12.438587059173495,-11.562810413397109,-10.752675630406978,-9.9425408474157813,-9.1324060644235114,-8.3222712814301687,-7.5121364984357459,-6.7020017154402529,-5.8918669324436879,-5.0817321494460472,-4.271597366447339,-3.4810851439789086,-2.769064091012889,-2.057043038045812,-1.3450219850776786,-0.63300093210848674,0.0790201208617701,0.7910411738330827,1.5030622268054572,2.2150832797788884,2.9271043327533794,3.6103164827033019,4.2071008343526461,4.80388518600306,5.4006695376545375,5.9974538893070761,6.5942382409606921,7.1910225926153712,7.787806944271118,8.3845912959279261,8.9813756475858053,9.5396798418248,10.008195486585663,10.4767111313476,10.945226776110609,11.413742420874692,11.882258065639846,12.350773710406072,12.819289355173387,13.287804999941773,13.756320644711233,14.176856348492404,14.508285151827174,14.839713955163038,15.171142758499975,15.502571561838003,15.83400036517712,16.165429168517317,16.496857971858574,16.828286775200937,17.159715578544375,17.434405606647282,17.623986131130604,17.813566655615,18.003147180100516,18.192727704587107,18.38230822907482,18.571888753563613,18.761469278053493,18.951049802544485,19.140630327036561,19.26589631158199,19.312554285280143,19.359212258979404,19.405870232679767,19.452528206381249,19.499186180083836,19.545844153787559,19.592502127492391,19.639160101198325,19.685818074905374,19.473671359224653,19.379480811951151,19.285290264678771,19.191099717407543,19.096909170137458,19.002718622868489,18.908528075600643,18.81433752833393,18.645199516799984,18.41473956465796,18.184279612517088,17.953819660377391,17.723359708238853,17.492899756101441,17.262439803965218,17.031979851830119,16.801519899696206,16.571059947563427,16.262668205356967,15.902320708731,15.541973212106234,15.181625715482635,14.821278218860227,14.460930722238988,14.100583225618937,13.74023572900008,13.379888232382386,13.019540735765871,12.579629759603263,12.096875752846637,11.61412174609125,11.131367739337062,10.64861373258409,10.165859725832332,9.6831057190817749,9.2003517123324574,8.7175977055843319,8.234843698837425,7.6719455679410027,7.0746986025253475,6.4774516371109145,5.8802046716977578,5.2829577062858215,4.6857107408751464,4.0884637754657112,3.4912168100575105,2.8939698446505671,2.2967228792448653,1.6193984783169726,0.91538058967911473,0.21136270104252447,-0.49265518759279664,-1.1966730762268347,-1.9006909648596255,-2.6047088534911138,-3.3087267421213409,-4.0127446307503183,-4.7167625193779994,-5.5005357875893992,-6.3042488430188053,-7.1079618984468809,-7.9116749538736082,-8.7153880092989944,-9.5191010647230154,-10.322814120145704,-11.126527175567036,-11.930240230987019,-12.733953286405681,-13.617450279538016,-14.515027678299019,-15.412605077058675,-16.31018247581704,-17.207759874574073,-18.105337273329805,-19.002914672084188,-19.900492070837288,-20.798069469589056,-21.695646868339523,-22.673607704147024,-23.660500877175966,-24.64739405020353,-25.634287223229617,-26.62118039625431,-27.608073569277533,-28.594966742299341,-29.581859915319644,-30.568753088338571,-31.555646261356078,-32.6248364805986,-33.6983589421489,-34.771881403697769,-35.845403865245146,-36.918926326791066,-37.9924487883356,-39.065971249878594,-40.139493711420052,-41.213016172960131,-42.286538634498704,0.21652937686675203,0.21652937686675203,0.21652937686675203,0.21652937686675203,0.21652937686675203,0.21652937686675203,0.21652937686675203,0.21652937686675203,0.21652937686675203,0.21652937686675203,0.21652937686675203,0.21652937686675203
DP 176,74.6301657780889,0.002672511266855583,-48.8813548166231,-47.797375065535967,-46.713395314447254,-45.629415563357,-44.545435812265147,-43.461456061171781,-42.377476310076815,-41.293496558980316,-40.20951680788226,-39.12553705678264,-38.04270032132905,-36.981581099258932,-35.920461877187265,-34.859342655114027,-33.798223433039226,-32.737104210962841,-31.675984988884924,-30.614865766805419,-29.553746544724312,-28.492627322641667,-27.436252499059766,-26.422577710445896,-25.408902921830411,-24.395228133213418,-23.381553344594888,-22.367878555974752,-21.354203767353077,-20.340528978729846,-19.32685419010507,-18.313179401478731,-17.310003700298932,-16.366323489584872,-15.422643278869247,-14.478963068152016,-13.535282857433199,-12.591602646712781,-11.647922435990765,-10.704242225267155,-9.7605620145419572,-8.816881803815166,-7.8914398633871947,-7.0389518661146484,-6.1864638688405,-5.3339758715647632,-4.4814878742874384,-3.6289998770085066,-2.7765118797279862,-1.9240238824458653,-1.0715358851621557,-0.21904788787685031,0.6057963927489266,1.3477084782222533,2.0896205636971987,2.8315326491737696,3.5734447346519631,4.31535682013178,5.0572689056132161,5.7991809910962751,6.5410930765809479,7.2830051620672531,7.9865364001097054,8.6005108158609751,9.2144852316138817,9.8284596473684527,10.442434063124663,11.056408478882533,11.670382894642044,12.284357310403204,12.898331726166008,13.512306141930464,14.076208769716748,14.547119581867904,15.018030394020743,15.488941206175257,15.959852018331457,16.430762830489343,16.901673642648912,17.372584454810148,17.843495266973072,18.314406079137679,18.722961874126213,19.037983669877658,19.353005465630833,19.668027261385735,19.983049057142328,20.298070852900654,20.613092648660711,20.928114444422473,21.243136240185969,21.558158035951152,21.798293871195593,21.94690084839619,22.095507825598556,22.244114802802674,22.392721780008557,22.541328757216228,22.689935734425632,22.838542711636787,22.987149688849719,23.135756666064406,23.144688933483074,23.118540114650209,23.092391295819144,23.066242476989903,23.040093658162434,23.013944839336798,22.987796020513002,22.961647201690941,22.83590644856988,22.628679674009248,22.421452899450472,22.21422612489356,22.006999350338528,21.799772575785337,21.59254580123401,21.385319026684552,21.17809225213696,20.970865477591232,20.652266820580859,20.25941848742308,19.866570154267212,19.473721821113248,19.080873487961224,18.688025154811108,18.29517682166291,17.90232848851662,17.509480155372252,17.11663182222982,16.60115599668876,16.019648199714766,15.438140402742746,14.85663260577269,14.27512480880462,13.693617011838525,13.112109214874392,12.530601417912257,11.949093620952082,11.367585823993888,10.652739022979091,9.8807446839024511,9.108750344827822,8.3367560057552872,7.5647616666847695,6.7927673276163336,6.020772988549929,5.24877864948556,4.4767843104232679,3.7047899713630184,2.7892174096294005,1.8257836308454773,0.86234985206365433,-0.10108392671606481,-1.0645177054936616,-2.0279514842691873,-2.9913852630425626,-3.9548190418138485,-4.9182528205830556,-5.8816865993501253,-6.9984612167470805,-8.1535728555473881,-9.3086844943454832,-10.463796133141301,-11.618907771934891,-12.774019410726202,-13.929131049515284,-15.084242688302108,-16.239354327086694,-17.394465965869035,-18.71258832240034,-20.059479088883919,-21.406369855365238,-22.753260621844451,-24.100151388321386,-25.447042154796158,-26.793932921268709,-28.140823687739079,-29.487714454207264,-30.834605220673236,-32.353761690812014,-33.89206060388787,-35.430359516961325,-36.968658430032313,-38.506957343100929,-40.045256256167072,-41.583555169230813,-43.121854082292067,-44.660152995350941,-46.198451908407385,-47.918547772531838,-49.648213706045517,-51.377879639556724,-53.10754557306543,-54.837211506571663,-56.566877440075494,-58.296543373576725,-60.026209307075455,-61.755875240571761,-63.48554117406556,0.35855188168770613,0.35855188168770613,0.35855188168770613,0.35855188168770613,0.35855188168770613,0.35855188168770613,0.35855188168770613,0.35855188168770613,0.35855188168770613,0.35855188168770613,0.35855188168770613,0.35855188168770613
DP 177,207.1023555979026,0.0015202222860907231,-60.438475484965643,-58.831689750100146,-57.224904015233371,-55.61811828036538,-54.011332545496209,-52.404546810625767,-50.797761075754089,-49.190975340881231,-47.584189606007172,-45.9774038711319,-44.373392985843367,-42.822104767296082,-41.270816548747611,-39.71952833019791,-38.168240111647023,-36.616951893094921,-35.065663674541618,-33.514375455987107,-31.963087237431388,-30.411799018874468,-28.871714266923391,-27.43246177340594,-25.993209279887328,-24.553956786367554,-23.114704292846611,-21.675451799324502,-20.236199305801208,-18.796946812276733,-17.357694318751125,-15.918441825224336,-14.502997816034005,-13.222470051702278,-11.941942287369372,-10.661414523035264,-9.38088675869998,-8.1003589943635,-6.8198312300258186,-5.53930346568695,-4.2587757013468908,-2.9782479370056465,-1.7368153861123223,-0.65176553668562454,0.4332843127422355,1.5183341621712714,2.6033840116014693,3.6884338610328453,4.7734837104653867,5.8585335598991009,6.9435834093339839,8.028633258770034,9.0584878311835251,9.9227544856699446,10.787021140157542,11.65128779464631,12.515554449136248,13.379821103627371,14.244087758119655,15.108354412613119,15.972621067107758,16.836887721603567,17.630828348200133,18.260672139979977,18.890515931761009,19.520359723543205,20.150203515326574,20.780047307111147,21.409891098896871,22.039734890683764,22.669578682471872,23.299422474261128,23.84626553818547,24.238962151687556,24.631658765190792,25.024355378695248,25.417051992200882,25.8097486057077,26.202445219215694,26.59514183272487,26.987838446235248,27.38053505974678,27.681022703538659,27.843194713818306,28.00536672409919,28.167538734381239,28.329710744664506,28.491882754948936,28.654054765234591,28.816226775521415,28.978398785809425,29.140570796098643,29.205269020281879,29.150830569587317,29.09639211889392,29.041953668201778,28.987515217510818,28.933076766821035,28.878638316132506,28.824199865445159,28.769761414759046,28.715322964074097,28.057935660127971,27.805868055088094,27.553800450049462,27.301732845012033,27.049665239975837,26.797597634940814,26.54553002990707,26.293462424874551,25.944739295527175,25.516932712464271,25.089126129402587,24.661319546342131,24.233512963282944,23.805706380225011,23.377899797168293,22.950093214112844,22.522286631058623,22.094480048005629,21.574970893959648,20.9943252479423,20.41367960192623,19.833033955911421,19.252388309897885,18.671742663885581,18.091097017874592,17.510451371864832,16.929805725856344,16.349160079849113,15.683705920858328,14.972584406227503,14.261462891598004,13.550341376969785,12.83921986234288,12.128098347717238,11.416976833092894,10.705855318469867,9.9947338038481153,9.28361228922766,8.4956272884866717,7.6746994963264914,6.8537717041676034,6.0328439120100787,5.2119161198538455,4.3909883276989605,3.5700605355453958,2.7491327433931323,1.9282049512422159,1.1072771590926147,0.21761232395720279,-0.69496572512146737,-1.6075437741987941,-2.5201218232747755,-3.4326998723493922,-4.345277921422694,-5.2578559704946048,-6.170434019565179,-7.0830120686344316,-7.9955901177023074,-8.9693182553226745,-9.9583346375785649,-10.947351019833071,-11.936367402086137,-12.9253837843378,-13.914400166588013,-14.903416548836814,-15.892432931084194,-16.881449313330151,-17.870465695574708,-18.91439908756432,-19.968024327252262,-21.021649566938731,-22.075274806623895,-23.128900046307646,-24.182525285989993,-25.236150525670951,-26.289775765350505,-27.343401005028685,-28.397026244705462,-29.501043167335641,-30.610659695080155,-31.720276222823191,-32.829892750564682,-33.939509278304705,-35.049125806043172,-36.158742333780175,-37.268358861515594,-38.377975389249585,-39.487591916982034,-40.645614646393248,-41.806185552251115,-42.966756458107447,-44.127327363962273,-45.287898269815543,-46.448469175667263,-47.60904008151747,-48.769610987366072,-49.930181893213231,-51.090752799058713,0.22846023846840624,0.22846023846840624,0.22846023846840624,0.22846023846840624,0.22846023846840624,0.22846023846840624,0.22846023846840624,0.22846023846840624,0.22846023846840624,0.22846023846840624,0.22846023846840624,0.22846023846840624
DP 178,87.7215628881654,0.0028248454664180967,-57.864714046674564,-56.542965519439441,-55.221216992202507,-53.899468464963725,-52.577719937723117,-51.255971410480683,-49.934222883236394,-48.612474355990265,-47.290725828742339,-45.968977301492643,-44.648715445498638,-43.356700624444713,-42.06468580338899,-40.772670982331448,-39.480656161272044,-38.188641340210857,-36.896626519147794,-35.604611698082934,-34.312596877016212,-33.020582055947671,-31.734716541529369,-30.5041953682211,-29.27367419491102,-28.043153021599135,-26.812631848285463,-25.582110674969975,-24.351589501652697,-23.121068328333585,-21.8905471550127,-20.660025981690008,-19.443048524291253,-18.302819643920465,-17.162590763547808,-16.022361883173307,-14.882133002796984,-13.741904122418807,-12.601675242038771,-11.461446361656888,-10.321217481273175,-9.1809886008876127,-8.0641375812531138,-7.0407991094849987,-6.0174606377150512,-4.9941221659432662,-3.9707836941696537,-2.9474452223941978,-1.9241067506169112,-0.9007682788377861,0.12257019294316776,1.1459086647259575,2.1341013650861749,3.0168554223620276,3.8996094796397385,4.7823635369193074,5.6651175942007352,6.547871651484015,7.4306257087691581,8.3133797660561584,9.1961338233450185,10.078887880635731,10.913324461820903,11.635018362494511,12.356712263170019,13.078406163847385,13.800100064526662,14.521793965207795,15.243487865890831,15.965181766575741,16.686875667262527,17.408569567951197,18.0679433077651,18.611577922925839,19.155212538088513,19.698847153253109,20.242481768419569,20.786116383587967,21.329750998758279,21.873385613930505,22.417020229104622,22.960654844280651,23.427683417176777,23.779801116422952,24.13191881567105,24.484036514921094,24.836154214173085,25.18827191342703,25.540389612682912,25.892507311940754,26.244625011200515,26.596742710462276,26.85816566828839,27.008737592670425,27.159309517054449,27.309881441440481,27.460453365828503,27.611025290218507,27.761597214610472,27.912169139004462,28.062741063400424,28.213312987798368,28.144065720060546,28.08625203415459,28.028438348250688,27.970624662348836,27.912810976449013,27.854997290551157,27.797183604655405,27.739369918761671,27.564733932416349,27.294514056208751,27.024294180003253,26.754074303799854,26.483854427598526,26.213634551399281,25.943414675202067,25.673194799006996,25.402974922814018,25.13275504662311,24.734103622717349,24.249829143746787,23.765554664778357,23.281280185812079,22.797005706847933,22.312731227885923,21.828456748926079,21.344182269968364,20.859907791012809,20.37563331205936,19.752361394227869,19.054242680349876,18.356123966474087,17.658005252600525,16.959886538729133,16.261767824859941,15.563649110992943,14.865530397128181,14.167411683265586,13.469292969405208,12.622566478395601,11.712148431707972,10.801730385022577,9.89131233833951,8.9808942916586858,8.0704762449801581,7.1600581983039158,6.249640151629924,5.3392221049582345,4.4288040582888231,3.3609032879576528,2.2405062916772787,1.1201092953992344,-0.00028770087647647365,-1.1206846971498334,-2.2410816934208944,-3.3614786896895716,-4.4818756859559263,-5.6022726822199855,-6.72266967848166,-8.0088565985471263,-9.3364929583972547,-10.664129318244925,-11.991765678090102,-13.319402037932791,-14.647038397772974,-15.974674757610682,-17.302311117445893,-18.629947477278602,-19.957583837108896,-21.459341440972466,-22.991828259447875,-24.524315077920814,-26.056801896391402,-27.589288714859475,-29.121775533325174,-30.654262351788397,-32.186749170249215,-33.719235988707609,-35.251722807163567,-36.966529397527715,-38.70159565511301,-40.4366619126957,-42.171728170275678,-43.906794427853022,-45.641860685427645,-47.376926942999688,-49.11199320056889,-50.847059458135604,-52.582125715699505,-54.508497958386904,-56.444940840551055,-58.381383722712556,-60.31782660487125,-62.254269487027237,-64.190712369180574,-66.1271552513311,-68.06359813347882,-70.000041015623992,-71.936483897766266,0.39825656462931724,0.39825656462931724,0.39825656462931724,0.39825656462931724,0.39825656462931724,0.39825656462931724,0.39825656462931724,0.39825656462931724,0.39825656462931724,0.39825656462931724,0.39825656462931724,0.39825656462931724
DP 179,100.48463032722834,0.0013627149960133617,-30.858866824985636,-30.136405325857659,-29.41394382672874,-28.691482327598909,-27.969020828468096,-27.24655932933635,-26.524097830203658,-25.801636331070029,-25.079174831935457,-24.356713332799931,-23.635114567532856,-22.929907908878658,-22.224701250223507,-21.519494591567394,-20.814287932910343,-20.10908127425235,-19.403874615593431,-18.698667956933576,-17.993461298272759,-17.288254639610997,-16.586606068493211,-15.916980621595295,-15.247355174696462,-14.577729727796704,-13.90810428089603,-13.238478833994424,-12.568853387091886,-11.899227940188437,-11.229602493284073,-10.559977046378766,-9.898153701455124,-9.2805427594107179,-8.66293181736537,-8.0453208753190655,-7.4277099332718279,-6.8100989912236409,-6.1924880491745089,-5.5748771071244407,-4.957266165073424,-4.3396552230214684,-3.7354294107672148,-3.184744750298679,-2.6340600898292061,-2.0833754293587958,-1.5326907688874547,-0.98200610841517211,-0.43132144794195676,0.11936321253219703,0.67004787300728308,1.2207325334833055,1.7514486170494648,2.2222582148998993,2.6930678127512779,3.1638774106036012,3.6346870084568716,4.10549660631109,4.57630620416625,5.0471158020223594,5.5179253998794078,5.9887349977374065,6.4323472479451231,6.8124979491634416,7.1926486503827167,7.5727993516029484,7.95295005282413,8.333100754046276,8.7132514552693738,9.0934021564934238,9.4735528577184382,9.8537035589443924,10.19915771881756,10.480174507729325,10.76119129664208,11.042208085555783,11.323224874470453,11.6042416633861,11.885258452302713,12.166275241220292,12.447292030138843,12.728308819058356,12.96720470371697,13.142918236651203,13.318631769586442,13.494345302522653,13.670058835459843,13.845772368398023,14.021485901337185,14.197199434277314,14.372912967218445,14.548626500160555,14.675162974880392,14.741593123264391,14.808023271649397,14.87445342003538,14.940883568422368,15.007313716810364,15.073743865199379,15.140174013589368,15.206604161980364,15.27303431037237,15.194136633224321,15.149291322331971,15.104446011440633,15.059600700550344,15.014755389661049,14.969910078772784,14.925064767885551,14.880219456999329,14.774009835440737,14.617591996015234,14.461174156590792,14.304756317167378,14.148338477745016,13.991920638323707,13.83550279890343,13.679084959484207,13.522667120066039,13.366249280648901,13.143528756595888,12.876605398281832,12.609682039968853,12.342758681656955,12.075835323346123,11.808911965036355,11.541988606727671,11.275065248420054,11.00814189011351,10.741218531808032,10.403808008394023,10.02844183260712,9.6530756568213469,9.2777094810366645,8.9023433052530923,8.5269771294706178,8.15161095368925,7.776244777908996,7.4008786021298318,7.0255124263517734,6.5761215438796485,6.0950045376581272,5.6138875314377179,5.1327705252184712,4.65165351900034,4.1705365127833645,3.6894195065675155,3.2083025003527936,2.7271854941392197,2.2460684879267796,1.6878489736127993,1.1039276515548739,0.52000632949810954,-0.063914992557494416,-0.6478363146119257,-1.2317576366652159,-1.8156789587173165,-2.3996002807682646,-2.9835216028180671,-3.5674429248666812,-4.23125463898942,-4.9150398950480527,-5.5988251511054656,-6.2826104071616422,-6.9663956632165771,-7.6501809192702686,-8.3339661753227325,-9.0177514313739469,-9.7015366874239355,-10.385321943472704,-11.151876596250863,-11.933038533565167,-12.714200470878264,-13.495362408190179,-14.276524345500851,-15.057686282810334,-15.838848220118601,-16.620010157425671,-17.401172094731521,-18.182334032036191,-19.049253528726183,-19.925702543781934,-20.802151558836375,-21.678600573889483,-22.55504958894128,-23.431498603991734,-24.3079476190409,-25.184396634088696,-26.060845649135203,-26.93729466418036,-27.903132458277582,-28.873675814338846,-29.844219170398805,-30.814762526457329,-31.785305882514567,-32.755849238570441,-33.726392594624969,-34.6969359506781,-35.66747930672993,-36.638022662780358,0.19827442412508262,0.19827442412508262,0.19827442412508262,0.19827442412508262,0.19827442412508262,0.19827442412508262,0.19827442412508262,0.19827442412508262,0.19827442412508262,0.19827442412508262,0.19827442412508262,0.19827442412508262
DP 180,280.0690278982,0.0012767143603233072,-62.827862068623944,-61.062023864185768,-59.296185659746619,-57.530347455306419,-55.764509250865153,-53.998671046422992,-52.232832841979743,-50.466994637535556,-48.701156433090318,-46.935318228644078,-45.173131058951057,-43.480314239796179,-41.787497420640264,-40.094680601483411,-38.401863782325492,-36.709046963166656,-35.0162301440068,-33.323413324845916,-31.630596505684043,-29.937779686521178,-28.259518646401869,-26.712260993519962,-25.165003340637064,-23.617745687753231,-22.070488034868422,-20.523230381982664,-18.975972729095922,-17.428715076208221,-15.88145742331956,-14.334199770429944,-12.817259920530878,-11.47212286471081,-10.126985808889765,-8.7818487530677363,-7.436711697244716,-6.0915746414207268,-4.7464375855957481,-3.4013005297697871,-2.0561634739428545,-0.71102641811494216,0.58568695520190073,1.6887033099291722,2.7917196646573967,3.8947360193865914,4.9977523741167351,6.1007687288478509,7.2037850835799233,8.3068014383129629,9.4098177930469635,10.512834147781918,11.549817736534495,12.388700530730514,13.22758332492748,14.066466119125417,14.905348913324296,15.744231707524168,16.583114501724989,17.421997295926772,18.260880090129525,19.099762884333234,19.8579213957998,20.427720068302673,20.997518740806466,21.567317413311265,22.13711608581702,22.7069147583237,23.276713430831386,23.846512103340018,24.416310775849631,24.986109448360214,25.465057458537565,25.775280356569667,26.085503254602713,26.395726152636751,26.70594905067173,27.016171948707704,27.326394846744623,27.636617744782523,27.946840642821378,28.257063540861214,28.471585818934717,28.542554905617219,28.61352399230071,28.684493078985138,28.755462165670572,28.826431252356972,28.897400339044356,28.968369425732686,29.039338512421995,29.110307599112314,29.085858329380844,28.944784619781792,28.803710910183707,28.6626372005866,28.521563490990474,28.380489781395383,28.239416071801205,28.098342362208047,27.957268652615845,27.816194943024655,26.939033058967251,26.6163827040096,26.293732349052977,25.971081994097318,25.648431639142665,25.325781284189,25.003130929236331,24.680480574284655,24.274876361524193,23.801399384935138,23.3279224083471,22.854445431760048,22.380968455174017,21.907491478589005,21.434014502004995,20.960537525421991,20.487060548839985,20.013583572259023,19.466936571167047,18.871508401045492,18.276080230924983,17.680652060805457,17.085223890687004,16.48979572056955,15.89436755045314,15.298939380337744,14.703511210223382,14.10808304011004,13.450055994145281,12.758320950886409,12.0665859076286,11.37485086437183,10.683115821116091,9.9913807778614068,9.2996457346077452,8.6079106913551584,7.9161756481035841,7.2244406048530667,6.4805079068075182,5.7142039042415416,4.9478999016766005,4.1815958991127724,3.4152918965499968,2.6489878939883047,1.8826838914276811,1.1163798888681113,0.35007588630963454,-0.41622811624777734,-1.2252244864243635,-2.0484521838518552,-2.8716798812782605,-3.6949075787035777,-4.5181352761277873,-5.3413629735509414,-6.1645906709729612,-6.9878183683938992,-7.811046065813775,-8.6342737632325282,-9.4920306460403143,-10.358420233162557,-11.224809820283653,-12.091199407403607,-12.957588994522423,-13.823978581640052,-14.690368168756565,-15.5567577558719,-16.423147342986113,-17.289536930099178,-18.184052208837045,-19.083531157681573,-19.983010106524947,-20.882489055367245,-21.781968004208387,-22.681446953048425,-23.580925901887312,-24.480404850725087,-25.37988379956175,-26.279362748397279,-27.202343829666848,-28.127936505811626,-29.053529181955192,-29.979121858097496,-30.904714534238625,-31.8303072103785,-32.755899886517192,-33.681492562654611,-34.607085238790894,-35.53267791492592,-36.479334379740081,-37.427099674586344,-38.374864969431393,-39.32263026427519,-40.270395559117745,-41.21816085395907,-42.1659261487992,-43.113691443638011,-44.061456738475648,-45.009222033311943,0.18421076261508759,0.18421076261508759,0.18421076261508759,0.18421076261508759,0.18421076261508759,0.18421076261508759,0.18421076261508759,0.18421076261508759,0.18421076261508759,0.18421076261508759,0.18421076261508759,0.18421076261508759
DP 181,114.80470364519705,0.0025021753754020065,-62.758791130285871,-61.254000258813832,-59.749209387340095,-58.244418515864432,-56.739627644387028,-55.234836772907713,-53.730045901426571,-52.225255029943611,-50.72046415845886,-49.215673286972248,-47.71279522308933,-46.246260865316351,-44.779726507541476,-43.313192149764795,-41.846657791986331,-40.380123434206034,-38.913589076423918,-37.447054718639968,-35.980520360854207,-34.513986003066648,-33.055314164408266,-31.667405741106329,-30.2794973178026,-28.891588894497126,-27.503680471189863,-26.115772047880832,-24.727863624570016,-23.339955201257403,-21.952046777943053,-20.564138354626909,-19.193391075589709,-17.919891362209015,-16.6463916488265,-15.372891935442183,-14.099392222056052,-12.825892508668105,-11.552392795278335,-10.278893081886761,-9.0053933684933654,-7.731893655098161,-6.4876441339773985,-5.3603967643475636,-4.2331493947159382,-3.1059020250825173,-1.9786546554473128,-0.85140728581030223,0.2758400838284954,1.4030874534690922,2.5303348231114748,3.65758219275565,4.7415501603544321,5.6956782854791159,6.6498064106056018,7.6039345357339023,8.5580626608640085,9.51219078599593,10.466318911129653,11.420447036265205,12.374575161402529,13.328703286541682,14.224472522141308,14.984068717078662,15.743664912017849,16.503261106958849,17.262857301901679,18.022453496846342,18.7820496917928,19.5416458867411,20.301242081691235,21.060838276643185,21.746853649002492,22.296216935125681,22.84558022125071,23.394943507377587,23.944306793506289,24.493670079636829,25.043033365769247,25.592396651903488,26.14175993803957,26.691123224177492,27.152356115550358,27.481391332220824,27.810426548893197,28.139461765567393,28.468496982243469,28.797532198921445,29.126567415601258,29.455602632282943,29.784637848966497,30.113673065651916,30.341363160795847,30.445184867546359,30.549006574298819,30.652828281053132,30.756649987809375,30.860471694567508,30.96429340132752,31.068115108089437,31.171936814853261,31.275758521619014,31.023435214825035,30.90174112443982,30.780047034056572,30.658352943675219,30.536658853295819,30.414964762918331,30.293270672542835,30.171576582169216,29.927764267857722,29.584034944362617,29.2403056208695,28.896576297378349,28.552846973889206,28.209117650402003,27.865388326916815,27.521659003433598,27.177929679952335,26.834200356473072,26.361068236196839,25.801665546167015,25.242262856139206,24.682860166113411,24.123457476089659,23.564054786067928,23.004652096048225,22.445249406030531,21.885846716014875,21.326444026001209,20.632250657933696,19.865475733898663,19.098700809865722,18.331925885834835,17.565150961806037,16.798376037779303,16.031601113754654,15.264826189732101,14.49805126571159,13.731276341693178,12.825864295104417,11.861033998807359,10.896203702512402,9.9313734062196346,8.96654310992896,8.0017128136404487,7.0368825173540719,6.0720522210698045,5.1072219247877033,4.142391628507732,3.0360980363734482,1.8826482294493647,0.72919842252745659,-0.42425138439227023,-1.5777011913097938,-2.7311509982251723,-3.8846008051383167,-5.0380506120492958,-6.1915004189581255,-7.3449502258647268,-8.6421723110445789,-9.9753391644844154,-11.308506017921978,-12.641672871357205,-13.974839724790126,-15.3080065782207,-16.641173431648983,-17.974340285074945,-19.307507138498575,-20.640673991919947,-22.120292603701785,-23.625757271993844,-25.131221940283577,-26.636686608571143,-28.142151276856371,-29.647615945139368,-31.153080613420094,-32.65854528169853,-34.164009949974741,-35.669474618248657,-37.324663618372796,-38.99649022782701,-40.66831683727878,-42.340143446728028,-44.011970056174853,-45.683796665619205,-47.355623275061006,-49.027449884500335,-50.699276493937248,-52.371103103371681,-54.197670866877132,-56.032384441261492,-57.867098015643286,-59.701811590022594,-61.536525164399336,-63.371238738773521,-65.205952313145318,-67.0406658875144,-68.87537946188101,-70.710093036244942,0.37230564738588479,0.37230564738588479,0.37230564738588479,0.37230564738588479,0.37230564738588479,0.37230564738588479,0.37230564738588479,0.37230564738588479,0.37230564738588479,0.37230564738588479,0.37230564738588479,0.37230564738588479
DP 182,247.18411981168833,0.0044216464602429856,-199.80881576943028,-194.32389286603004,-188.83896996262615,-183.3540470592188,-177.8691241558079,-172.38420125239361,-166.89927834897563,-161.41435544555418,-155.92943254212923,-150.44450963870082,-144.97008824828038,-139.69519759033093,-134.42030693237805,-129.14541627442162,-123.87052561646172,-118.59563495849837,-113.3207443005315,-108.04585364256108,-102.77096298458716,-97.4960723266099,-92.263287252384771,-87.409456411850314,-82.555625571312731,-77.701794730771724,-72.847963890227263,-67.994133049679434,-63.140302209128237,-58.286471368573679,-53.432640528015725,-48.578809687454388,-43.813472586533869,-39.5496055866493,-35.285738586761312,-31.021871586869857,-26.758004586974973,-22.494137587076651,-18.230270587174864,-13.966403587269653,-9.70253658736102,-5.43866958744895,-1.3179111424661416,2.2304063193634116,5.7787237811963159,9.32704124303262,12.875358704872248,16.423676166715307,19.971993628561705,23.5203110904115,27.068628552264649,30.616946014121165,33.967055917596504,36.722535651967966,39.478015386342804,42.23349512072101,44.9889748551026,47.74445458948756,50.499934323875891,53.255414058267661,56.010893792662756,58.766373527061226,61.275028156644048,63.207747820701925,65.140467484763249,67.073187148827984,69.005906812896043,70.938626476967485,72.871346141042366,74.804065805120629,76.736785469202232,78.669505133287217,80.3184937228788,81.440545511641346,82.562597300407248,83.684649089176645,84.806700877949353,85.92875266672543,87.050804455505045,88.172856244288,89.29490803307435,90.416959821864083,91.232986914807029,91.589969732501331,91.946952550199057,92.3039353679001,92.660918185604757,93.01790100331273,93.374883821024142,93.731866638739035,94.0888494564573,94.4458322741789,94.489694463969741,94.150847087039111,93.811999710111891,93.4731523331881,93.134304956267911,92.795457579351122,92.4566102024377,92.117762825527876,91.77891544862139,91.440068071718429,88.891677286767674,87.94008928984185,86.988501292919608,86.036913296000719,85.085325299085412,84.133737302173614,83.182149305265412,82.230561308360549,80.990544536088422,79.514535627115549,78.0385267181461,76.562517809180321,75.086508900217879,73.610499991259246,72.134491082304052,70.65848217335251,69.182473264404422,67.706464355459914,65.967819294407846,64.054079327827708,62.140339361251222,60.22659939467826,58.31285942810905,56.399119461543364,54.485379494981295,52.571639528422828,50.657899561868064,48.744159595316845,46.597997189586046,44.326680859852551,42.055364530122837,39.784048200396754,37.512731870674386,35.241415540955714,32.970099211240679,30.698782881529382,28.427466551821759,26.156150222117819,23.683917669829754,21.125574773769557,18.567231877713027,16.00888898166043,13.450546085611514,10.892203189566443,8.333860293525138,5.7755173974875511,3.2171745014538096,0.65883160542383223,-2.0703008239794416,-4.85636525027173,-7.6424296765601936,-10.428494102844798,-13.214558529125528,-16.000622955402495,-18.786687381675474,-21.572751807944648,-24.358816234210074,-27.144880660471525,-30.074911003795748,-33.040934527363845,-36.006958050927942,-38.97298157448796,-41.939005098043978,-44.905028621595847,-47.871052145143679,-50.8370756686875,-53.803099192227194,-56.76912271576294,-59.857552838638973,-62.967585487281468,-66.077618135919892,-69.187650784554521,-72.297683433185057,-75.407716081811628,-78.517748730434263,-81.627781379052877,-84.737814027667667,-87.847846676278365,-91.0645643052828,-94.29313694143859,-97.521709577590315,-100.75028221373744,-103.97885484988055,-107.2074274860192,-110.43600012215362,-113.66457275828355,-116.89314539440944,-120.12171803053086,-123.44900146976174,-126.78148119654929,-130.11396092333263,-133.44644065011124,-136.77892037688576,-140.11140010365582,-143.44387983042154,-146.77635955718264,-150.1088392839396,-153.44131901069204,0.6508357212211805,0.6508357212211805,0.6508357212211805,0.6508357212211805,0.6508357212211805,0.6508357212211805,0.6508357212211805,0.6508357212211805,0.6508357212211805,0.6508357212211805,0.6508357212211805,0.6508357212211805
DP 183,223.41620855524812,0.0042911448119428482,-180.40233717795732,-175.54076076487539,-170.67918435178987,-165.81760793870103,-160.95603152560878,-156.094455112513,-151.23287869941393,-146.37130228631136,-141.50972587320527,-136.64814946009594,-131.79534129484477,-127.10913149655346,-122.42292169825866,-117.73671189996058,-113.050502101659,-108.36429230335402,-103.67808250504577,-98.991872706733986,-94.305662908418867,-89.619453110100238,-84.968544657104417,-80.635351648785431,-76.302158640463119,-71.96896563213754,-67.635772623808649,-63.302579615476425,-58.969386607140883,-54.636193598802187,-50.303000590460044,-45.969807582114647,-41.711295270813537,-37.875978282079004,-34.040661293341117,-30.205344304599862,-26.370027315855278,-22.534710327107319,-18.699393338355996,-14.864076349601316,-11.028759360843278,-7.193442372081897,-3.4799938803384443,-0.25402513628033557,2.9719436077810486,6.1979123518457468,9.4238810959137123,12.649849839984999,15.875818584059564,19.101787328137434,22.327756072218591,25.553724816303031,28.608983526689357,31.152105681664487,33.6952278366429,36.238349991624645,38.781472146609687,41.324594301598033,43.867716456589676,46.410838611584623,48.953960766582867,51.497082921584415,53.8247264315428,55.649577949994395,57.474429468449316,59.299280986907569,61.12413250536914,62.948984023834008,64.773835542302166,66.598687060773671,68.423538579248458,70.248390097726528,71.821665122392616,72.9277198644376,74.033774606486048,75.1398293485378,76.245884090592881,77.351938832651257,78.457993574713,79.564048316778,80.670103058846308,81.776157800918043,82.606101354699192,83.021871601433432,83.437641848171054,83.8534120949119,84.269182341656176,84.684952588403817,85.10072283515477,85.516493081909118,85.932263328666821,86.34803357542782,86.475824660799915,86.251635166647944,86.027445672499383,85.803256178354175,85.579066684212378,85.354877190074,85.130687695939017,84.906498201807423,84.682308707679155,84.458119213554369,82.347076973373888,81.547496888407338,80.747916803444255,79.948336718484583,79.148756633528379,78.349176548575585,77.549596463626216,76.750016378680286,75.673453780949856,74.370264367162392,73.067074953378324,71.76388553959778,70.460696125820661,69.157506712047123,67.854317298276968,66.55112788451035,65.247938470747286,63.944749056987625,62.38321950096546,60.649459113655936,58.915698726350008,57.181938339047676,55.448177951748875,53.714417564453505,51.980657177161866,50.246896789873624,48.513136402589055,46.779376015307989,44.8110462854925,42.716406575571249,40.621766865653683,38.527127155739741,36.432487445829416,34.337847735922715,32.243208026019637,30.148568316120237,28.053928606224396,25.959288896332225,23.656213233800379,21.263804359119856,18.87139548444296,16.478986609769859,14.086577735100409,11.694168860434733,9.3017599857727618,6.9093511111144323,4.5169422364598777,2.1245333618090143,-0.45036953982362959,-3.0861060837247414,-5.7218426276220846,-8.357579171515658,-10.993315715405403,-13.62905225929147,-16.264788803173619,-18.900525347052039,-21.536261890926752,-24.171998434797594,-26.966489835567558,-29.800671826274328,-32.63485381697722,-35.469035807676057,-38.303217798370937,-41.1373997890618,-43.971581779748711,-46.805763770431582,-49.6399457611105,-52.474127751785481,-55.447704665030514,-58.44588223234836,-61.444059799662156,-64.442237366972279,-67.4404149342783,-70.43859250158053,-73.436770068878786,-76.434947636173192,-79.433125203463689,-82.43130277075042,-85.554744779194976,-88.6921063744487,-91.829467969698385,-94.966829564943751,-98.104191160185081,-101.24155275542189,-104.37891435065465,-107.51627594588307,-110.65363754110746,-113.79099913632733,-117.04689661086813,-120.30903399528123,-123.57117137969013,-126.8333087640947,-130.09544614849491,-133.35758353289094,-136.61972091728268,-139.88185830166987,-143.14399568605307,-146.40613307043162,0.63989530112610138,0.63989530112610138,0.63989530112610138,0.63989530112610138,0.63989530112610138,0.63989530112610138,0.63989530112610138,0.63989530112610138,0.63989530112610138,0.63989530112610138,0.63989530112610138,0.63989530112610138
DP 184,165.04528233077883,0.0023577750038113214,-78.752444941623736,-76.740308672902714,-74.7281724041799,-72.71603613545517,-70.703899866728563,-68.691763598000122,-66.679627329269962,-64.667491060537756,-62.65535479180383,-60.643218523067972,-58.634152288413475,-56.683417281711755,-54.732682275008145,-52.781947268302709,-50.831212261595411,-48.880477254886323,-46.929742248175337,-44.979007241462462,-43.028272234747853,-41.077537228031318,-39.139293824924351,-37.313476035046286,-35.487658245166436,-33.661840455284796,-31.836022665401348,-30.010204875516155,-28.184387085629108,-26.358569295740303,-24.532751505849721,-22.706933715957287,-20.907975962763956,-19.26122677677894,-17.614477590792077,-15.967728404803429,-14.320979218812923,-12.674230032820578,-11.027480846826419,-9.3807316608304188,-7.7339824748325929,-6.0872332888329463,-4.4853194076798308,-3.062748864871113,-1.6401783220606012,-0.21760777924828106,1.204962763565828,2.6275333063817525,4.05010384919947,5.4726743920189982,6.8952449348403135,8.31781547766344,9.6757695674701232,10.839871855165223,12.003974142862123,13.168076430560838,14.332178718261359,15.496281005963706,16.660383293667845,17.824485581373807,18.988587869081563,20.152690156791135,21.232400091109064,22.115191210474226,22.997982329841218,23.880773449210007,24.763564568580637,25.646355687953047,26.52914680732729,27.4119379267034,28.29472904608129,29.177520165460969,29.957809811532904,30.547736810434074,31.137663809337049,31.7275908082419,32.31751780714854,32.907444806057015,33.497371804967308,34.08729880387947,34.67722580279343,35.267152801709244,35.739446992910445,36.035289192831961,36.331131392755367,36.626973592680585,36.922815792607686,37.218657992536635,37.514500192467438,37.810342392400059,38.106184592334543,38.402026792270895,38.568945716886446,38.5782890414389,38.587632365993223,38.5969756905494,38.606319015107495,38.615662339667438,38.625005664229221,38.634348988792944,38.643692313358471,38.653035637925896,38.001106731569259,37.738465989954413,37.475825248341508,37.213184506730506,36.950543765121346,36.68790302351411,36.425262281908815,36.1626215403054,35.761072573966842,35.245869036516879,34.73066549906887,34.2154619616228,33.700258424178642,33.185054886736431,32.669851349296131,32.154647811857842,31.639444274421411,31.124240736986923,30.470905989559224,29.72548159274341,28.980057195929565,28.234632799117708,27.489208402307785,26.74378400549983,25.998359608693868,25.252935211889874,24.507510815087866,23.762086418287812,22.882260545234232,21.930062692072898,20.977864838913629,20.02566698575637,19.073469132601112,18.121271279447907,17.169073426296688,16.216875573147526,15.264677720000364,14.312479866855222,13.231633464574861,12.095649798368024,10.959666132163221,9.8236824659605269,8.6876987997598718,7.5517151335613146,6.415731467364818,5.279747801170366,4.1437641349780092,3.0077804687877165,1.7498727593665708,0.45132216561353694,-0.84722842813739241,-2.1457790218862147,-3.4443296156329053,-4.7428802093775309,-6.0414308031199866,-7.3399813968603427,-8.6385319905986417,-9.9370825843347781,-11.35083476501217,-12.793388703549152,-14.235942642083936,-15.678496580616462,-17.121050519146781,-18.563604457674874,-20.006158396200711,-21.448712334724323,-22.891266273245709,-24.333820211764905,-25.886107193939246,-27.457760051122847,-29.029412908304238,-30.601065765483511,-32.172718622660518,-33.744371479835429,-35.316024337008095,-36.8876771941786,-38.459330051346981,-40.03098290851311,-41.708740942419311,-43.398289554761263,-45.087838167100834,-46.77738677943799,-48.466935391772843,-50.156484004105288,-51.846032616435373,-53.535581228763085,-55.225129841088439,-56.914678453411376,-58.709931256651693,-60.510748490074647,-62.311565723495335,-64.112382956913478,-65.913200190329263,-67.714017423742618,-69.514834657153656,-71.315651890562179,-73.116469123968287,-74.917286357371978,0.35856450812243951,0.35856450812243951,0.35856450812243951,0.35856450812243951,0.35856450812243951,0.35856450812243951,0.35856450812243951,0.35856450812243951,0.35856450812243951,0.35856450812243951,0.35856450812243951,0.35856450812243951
DP 185,189.05039437112811,0.0010604727371564006,-39.35380432002799,-38.324248396726,-37.29469247342319,-36.2651365501195,-35.235580626814993,-34.206024703509613,-33.1764687802034,-32.146912856896357,-31.117356933588464,-30.087801010279723,-29.059934906569477,-28.064175694697379,-27.068416482824428,-26.072657270950653,-25.076898059076033,-24.081138847200585,-23.085379635324269,-22.089620423447137,-21.093861211569163,-20.098101999690343,-19.109188059152324,-18.181882207715095,-17.2545763562771,-16.327270504838264,-15.399964653398618,-14.472658801958175,-13.545352950516895,-12.618047099074799,-11.6907412476319,-10.763435396188186,-9.85074929070078,-9.0209093335589863,-8.1910693764163582,-7.3612294192728989,-6.5313894621286135,-5.7015495049834923,-4.8717095478375425,-4.0418695906907542,-3.2120296335431453,-2.3821896763947072,-1.5765250785673417,-0.86756306057378274,-0.158601042579413,0.55036097541577689,1.2593229934117769,1.9682850114085986,2.6772470294062343,3.3862090474046886,4.095171065403953,4.8041330834040341,5.4786642573111095,6.0499015971549586,6.6211389369996247,7.1923762768451027,7.7636136166914085,8.3348509565385314,8.9060882963864678,9.4773256362352321,10.048562976084806,10.619800315935203,11.146705007869748,11.570165108671556,11.993625209474191,12.417085310277631,12.840545411081909,13.264005511886996,13.68746561269292,14.110925713499647,14.53438581430721,14.957845915115593,15.328344466917523,15.60048442599124,15.872624385065777,16.144764344141123,16.416904303217319,16.68904426229431,16.961184221372154,17.233324180450829,17.5054641395303,17.777604098610635,17.99009433835651,18.113108589555392,18.236122840755105,18.359137091955635,18.482151343157028,18.605165594359246,18.728179845562277,18.851194096766147,18.974208347970862,19.097222599176419,19.156216158307,19.136960860161334,19.117705562016482,19.098450263872508,19.079194965729371,19.059939667587045,19.040684369445597,19.021429071304976,19.002173773165179,18.982918475026256,18.595195705315028,18.443957407557541,18.29271910980092,18.141480812045163,17.990242514290241,17.839004216536186,17.687765918782976,17.536527621030629,17.319560669295733,17.048814598344798,16.778068527394744,16.507322456445568,16.236576385497241,15.965830314549789,15.695084243603205,15.424338172657498,15.153592101712663,14.88284603076869,14.548506122832061,14.171769321737166,13.79503252064319,13.418295719550088,13.04155891845787,12.664822117366544,12.288085316276092,11.91134851518653,11.534611714097856,11.157874913010071,10.721068438740165,10.251915882315533,9.7827633258918159,9.313610769468994,8.844458213047087,8.3753056566260788,7.9061531002059855,7.4370005437868,6.9678479873685077,6.4986954309511287,5.9738472806321843,5.4251286499919615,4.8764100193526483,4.3276913887142952,3.778972758076844,3.2302541274403387,2.6815354968047589,2.132816866170093,1.5840982355363709,1.0353796049035704,0.43562800084669795,-0.18113523751149746,-0.79789847586875007,-1.4146617142250595,-2.0314249525804109,-2.6481881909348375,-3.2649514292882924,-3.881714667640805,-4.4984779059923943,-5.115241144343015,-5.7785758210963767,-6.4535539076989723,-7.1285319943005856,-7.8035100809011944,-8.4784881675008155,-9.15346625409941,-9.8284443406970254,-10.503422427293639,-11.17840051388926,-11.853378600483895,-12.571249677394121,-13.296690582512372,-14.022131487629625,-14.747572392745955,-15.473013297861252,-16.19845420297559,-16.923895108088949,-17.649336013201339,-18.37477691831274,-19.100217823423197,-19.865926299268139,-20.636109372543014,-21.406292445816874,-22.176475519089617,-22.946658592361391,-23.716841665632,-24.487024738901592,-25.257207812170112,-26.027390885437583,-26.797573958703996,-27.607065613202813,-28.418626531502127,-29.230187449800383,-30.04174836809759,-30.853309286393657,-31.664870204688693,-32.4764311229826,-33.287992041275416,-34.099552959567191,-34.911113877857829,0.1604717751047583,0.1604717751047583,0.1604717751047583,0.1604717751047583,0.1604717751047583,0.1604717751047583,0.1604717751047583,0.1604717751047583,0.1604717751047583,0.1604717751047583,0.1604717751047583,0.1604717751047583
DP 186,153.04553310867092,0.0048782319068225548,-153.52978736864191,-149.65812888011854,-145.78647039159139,-141.9148119030605,-138.04315341452565,-134.17149492598705,-130.29983643744461,-126.42817794889854,-122.55651946034848,-118.68486097179462,-114.8188816277444,-111.06080710294334,-107.30273257813835,-103.54465805332956,-99.786583528517042,-96.028509003700748,-92.270434478880631,-88.51235995405672,-84.754285429229057,-80.996210904397486,-77.2612970007003,-73.73483087642326,-70.208364752142444,-66.681898627858118,-63.155432503569969,-59.628966379278268,-56.102500254982779,-52.576034130683638,-49.049568006380809,-45.523101882074293,-42.046609110615016,-38.853301821019791,-35.659994531420779,-32.466687241818043,-29.273379952211556,-26.080072662601307,-22.886765372987306,-19.693458083369524,-16.500150793747991,-13.306843504122718,-10.197353673006361,-7.4231376372177333,-4.6489216014254282,-1.874705565629404,0.89951047017029262,3.673726505973721,6.447942541780824,9.2221585775916566,11.996374613406148,14.770590649224371,17.423278537284006,19.711377387249403,21.999476237218506,24.287575087191346,26.575673937167906,28.8637727871482,31.151871637132189,33.4399704871199,35.728069337111336,38.016168187106473,40.144379300947755,41.899512733417318,43.654646165890668,45.4097795983677,47.164913030848474,48.92004646333303,50.675179895821309,52.430313328313268,54.185446760809079,55.940580193308477,57.499857926218063,58.695398356293715,59.890938786373134,61.086479216456318,62.282019646543326,63.477560076634092,64.673100506728588,65.868640936826822,67.064181366928821,68.259721797034715,69.228305826614871,69.856449892341,70.484593958070946,71.112738023804653,71.740882089542225,72.36902615528362,72.997170221028753,73.62531428677778,74.253458352530458,74.881602418287059,75.258287331378128,75.32762799825737,75.396968665140477,75.4663093320274,75.535649998918089,75.604990665812778,75.674331332711219,75.743671999613539,75.813012666519768,75.882353333429762,74.748102799013978,74.280533436891218,73.812964074772381,73.345394712657423,72.8778253505464,72.410255988439317,71.942686626336084,71.475117264236815,70.7296919761507,69.7569252461955,68.7841585162442,67.8113917862969,66.838625056353564,65.865858326414283,64.893091596478925,63.920324866547595,62.947558136620259,61.974791406696916,60.72172258440451,59.281781284774837,57.841839985149349,56.4018986855278,54.961957385910395,53.522016086296979,52.082074786687755,50.642133487082518,49.202192187481415,47.762250887884328,46.04530347318191,44.179194891422739,42.313086309667881,40.446977727917073,38.5808691461705,36.714760564428062,34.848651982689795,32.982543400955791,31.116434819225862,29.250326237500143,27.114626948612138,24.863384234844407,22.612141521080826,20.360898807321657,18.109656093566684,15.858413379816028,13.60717066606966,11.355927952327502,9.1046852385896813,6.8534425248561215,4.3422164537039505,1.7443259868855037,-0.85356447992859619,-3.4514549467383393,-6.0493454135436791,-8.64723588034474,-11.24512634714133,-13.843016813933593,-16.440907280721568,-19.038797747505086,-21.886701039362197,-24.797110491427393,-27.707519943488084,-30.6179293955441,-33.528338847595521,-36.438748299642285,-39.349157751684494,-42.259567203722035,-45.169976655755008,-48.080386107783418,-51.232940315391794,-54.428228643138709,-57.623516970881013,-60.818805298619033,-64.01409362635232,-67.209381954081252,-70.404670281805551,-73.599958609525473,-76.795246937240819,-79.99053526495166,-83.423318513223066,-86.882492580255956,-90.341666647283986,-93.800840714306929,-97.260014781325225,-100.71918884833835,-104.17836291534678,-107.63753698235008,-111.09671104934863,-114.55588511634228,-118.25393476543834,-121.96455919030689,-125.67518361517065,-129.38580804002916,-133.09643246488292,-136.8070568897314,-140.51768131457501,-144.22830573941337,-147.93893016424695,-151.64955458907536,0.74175726609248527,0.74175726609248527,0.74175726609248527,0.74175726609248527,0.74175726609248527,0.74175726609248527,0.74175726609248527,0.74175726609248527,0.74175726609248527,0.74175726609248527,0.74175726609248527,0.74175726609248527
DP 187,177.8863612348425,0.0047460545046495283,-168.062804231925,-163.71249900265283,-159.36219377337673,-155.0118885440971,-150.66158331481338,-146.31127808552631,-141.96097285623512,-137.6106676269404,-133.26036239764176,-128.91005716833931,-124.56666000742734,-120.35451745193149,-116.14237489643202,-111.93023234092882,-107.71808978542174,-103.505947229911,-99.293804674396526,-95.0816621188782,-90.869519563356391,-86.65737700783059,-82.473273440574332,-78.541523418067811,-74.6097733955576,-70.6780233730438,-66.746273350526351,-62.814523328005286,-58.8827733054805,-54.951023282952093,-51.019273260420086,-47.087523237884483,-43.215847532852571,-39.684596745912017,-36.153345958967734,-32.622095172019755,-29.090844385068124,-25.559593598112691,-22.028342811153589,-18.497092024190788,-14.965841237224277,-11.434590450254071,-8.00311088613478,-4.9707209286989373,-1.9383309712594605,1.0940589861836723,4.1264489436304235,7.1588389010808493,10.191228858534902,13.223618815992612,16.256008773453932,19.288398730918932,22.177914190274976,24.638800753409779,27.099687316548277,29.560573879690413,32.021460442836236,34.482347005985716,36.943233569138819,39.404120132295617,41.865006695456039,44.325893258620113,46.601600340107495,48.445214671246141,50.288829002388432,52.132443333534383,53.976057664684049,55.819671995837318,57.663286326994324,59.50690065815499,61.350514989319294,63.194129320487335,64.8148283484563,66.0215357932565,67.228243238060372,68.434950682867921,69.641658127679207,70.84836557249416,72.055073017312836,73.261780462135178,74.468487906961215,75.675195351790947,76.6286573870759,77.202245323758774,77.775833260445523,78.349421197135982,78.9230091338301,79.496597070527926,80.070185007229639,80.643772943934934,81.217360880644,81.790948817356778,82.090109107776229,82.053852066212741,82.017595024653033,81.981337983097092,81.945080941544958,81.908823899996534,81.872566858451876,81.836309816911069,81.800052775374041,81.763795733840709,80.2256017446675,79.617574476430136,79.009547208196665,78.401519939966988,77.793492671741191,77.185465403519188,76.577438135301,75.96941086708658,75.073332754354325,73.941571727566014,72.809810700781355,71.678049674000761,70.546288647223946,69.4145276204511,68.282766593682084,67.15100556691705,66.019244540155853,64.887483513398564,63.473510305529622,61.871391197737559,60.269272089949574,58.667152982165376,57.0650338743853,55.462914766609074,53.8607956588369,52.258676551068646,50.656557443304429,49.054438335544134,47.182109526513663,45.164279256707928,43.146448986906314,41.128618717108772,39.110788447315237,37.092958177525844,35.0751279077404,33.057297637959131,31.03946736818185,29.02163709840865,26.749591737166668,24.368592760150396,21.987593783138195,19.606594806130303,17.225595829126494,14.844596852126884,12.463597875131432,10.082598898140082,7.7015999211529707,5.3206009441699953,2.703030456779461,0.0065998177820973713,-2.6898308212110371,-5.3862614601999343,-8.0826920991845359,-10.779122738164991,-13.475553377141086,-16.171984016112972,-18.868414655080706,-21.564845294044087,-24.480661757509374,-27.451327269176808,-30.421992780839851,-33.392658292498375,-36.363323804152465,-39.333989315801979,-42.304654827447067,-45.275320339087671,-48.24598585072382,-51.216651362355506,-54.392565253765873,-57.604701729880119,-60.816838205989875,-64.028974682095409,-67.241111158196475,-70.453247634293078,-73.665384110385446,-76.877520586473267,-80.089657062556853,-83.301793538636062,-86.7093095101538,-90.138536366441286,-93.567763222723912,-96.996990079001776,-100.42621693527509,-103.85544379154335,-107.284670647807,-110.71389750406578,-114.14312436031994,-117.57235121656925,-121.194148814719,-124.82608363107344,-128.45801844742323,-132.08995326376794,-135.72188808010782,-139.353822896443,-142.98575771277322,-146.61769252909838,-150.24962734541896,-153.88156216173442,0.720367374985268,0.720367374985268,0.720367374985268,0.720367374985268,0.720367374985268,0.720367374985268,0.720367374985268,0.720367374985268,0.720367374985268,0.720367374985268,0.720367374985268,0.720367374985268
DP 188,294.00599628827814,0.0050331496038891381,-255.71295327897394,-248.45775381128345,-241.2025543435889,-233.9473548758902,-226.69215540818772,-219.43695594048131,-212.18175647277099,-204.92655700505685,-197.67135753733854,-190.4161580696163,-183.17642820906448,-176.23062380926876,-169.28481940946912,-162.33901500966556,-155.3932106098583,-148.447406210047,-141.50160181023185,-134.55579741041277,-127.60999301058973,-120.66418861076272,-113.77991372674157,-107.44941030088,-101.11890687501464,-94.788403449145633,-88.457900023272842,-82.127396597396157,-75.7968931715158,-69.466389745631588,-63.135886319743655,-56.805382893851913,-50.602548694848352,-45.1231814932418,-39.643814291631365,-34.16444709001707,-28.685079888398995,-23.205712686777026,-17.726345485151221,-12.246978283521562,-6.7676110818880826,-1.2882438802507674,3.98827527103883,8.453392634163313,12.918509997291537,17.383627360423553,21.848744723559296,26.313862086698844,30.778979449842165,35.244096812989262,39.709214176140073,44.174331539294663,48.3646399456949,51.730511091677805,55.096382237664514,58.462253383654982,61.828124529649209,65.19399567564723,68.559866821649024,71.92573796765457,75.2916091136639,78.657480259676944,81.6899998317079,83.9446859357342,86.199372039764327,88.454058143798221,90.708744247835867,92.963430351877221,95.218116455922512,97.472802559971441,99.727488664024293,101.98217476808082,103.86500807881045,105.05724758819242,106.24948709757828,107.44172660696798,108.63396611636145,109.82620562575862,111.01844513515951,112.21068464456438,113.40292415397307,114.59516366338546,115.39954738722824,115.62213826753884,115.8447291478534,116.06732002817159,116.28991090849374,116.51250178881975,116.73509266914954,116.95768354948298,117.18027442982036,117.40286531016157,117.24289070413842,116.61532802352382,115.98776534291309,115.36020266230609,114.73263998170304,114.10507730110393,113.47751462050846,112.84995193991693,112.22238925932928,111.59482657874541,107.91311688970961,106.56594418985952,105.21877149001321,103.87159879017086,102.52442609033238,101.17725339049778,99.830080690667188,98.482907990840388,96.811016217629032,94.873439622027632,92.935863026430354,90.998286430837,89.06070983524755,87.1231332396621,85.185556644080592,83.24798004850301,81.3104034529294,79.372826857359826,77.152553323649229,74.743810711026143,72.335068098407078,69.926325485791963,67.517582873181,65.108840260573956,62.700097647970928,60.291355035371929,57.882612422777058,55.473869810186045,52.826593918962949,50.050873562862208,47.275153206765573,44.499432850672996,41.723712494584518,38.9479921385001,36.172271782419713,33.396551426343514,30.620831070271329,27.845110714203258,24.873385482863227,21.817654853782219,18.761924224705258,15.706193595632627,12.65046296656409,9.5947323374998277,6.5390017084397281,3.4832710793837527,0.42754045033205323,-2.6281901787154838,-5.8417486229672919,-9.10791832803033,-12.374088033089114,-15.640257738143646,-18.906427443193841,-22.1725971482399,-25.438766853281518,-28.704936558318956,-31.97110626335223,-35.237275968381077,-38.628970833035687,-42.052048470693876,-45.475126108347709,-48.89820374599698,-52.321281383641832,-55.7443590212821,-59.167436658917957,-62.5905142965492,-66.013591934176091,-69.436669571798518,-72.960215110997055,-76.501491397100565,-80.042767683199557,-83.584043969294328,-87.1253202553846,-90.666596541470483,-94.20787282755181,-97.749149113628974,-101.29042539970172,-104.83170168577006,-108.45546053405931,-112.08838497774201,-115.72130942142016,-119.35423386509338,-122.98715830876209,-126.6200827524258,-130.25300719608478,-133.8859316397392,-137.51885608338875,-141.15178052703357,-144.85762833945978,-148.56731494948167,-152.27700155949896,-155.98668816951121,-159.69637477951861,-163.4060613895214,-167.11574799951933,-170.82543460951206,-174.53512121950027,-178.24480782948342,0.71982114925648,0.71982114925648,0.71982114925648,0.71982114925648,0.71982114925648,0.71982114925648,0.71982114925648,0.71982114925648,0.71982114925648,0.71982114925648,0.71982114925648,0.71982114925648
DP 189,185.16185673687085,0.0018913627944206095,-69.078861472712475,-67.278208824231626,-65.477556175749257,-63.676903527265345,-61.876250878780013,-60.07559823029311,-58.274945581804722,-56.474292933314828,-54.673640284823428,-52.872987636330571,-51.075257153870076,-49.333048378472718,-47.5908396030739,-45.848630827673517,-44.1064220522717,-42.364213276868348,-40.622004501463465,-38.879795726057125,-37.137586950649315,-35.395378175239983,-33.665014377462875,-32.041256497995505,-30.417498618526736,-28.793740739056457,-27.169982859584735,-25.54622498011161,-23.922467100636972,-22.298709221160898,-20.674951341683403,-19.051193462204438,-17.452761498545918,-15.997844653776733,-14.542927809006052,-13.088010964233904,-11.63309411946028,-10.178177274685169,-8.7232604299085779,-7.2683435851305012,-5.8134267403509519,-4.3585098955699246,-2.9455348703124944,-1.7003291053581573,-0.45512334040237407,0.79008242455487,2.0352881895135582,3.2804939544737111,4.5256997194353135,5.7709054843983791,7.0161112493628872,8.2613170143288528,9.4466744782056171,10.452484776030428,11.458295073856704,12.464105371684429,13.469915669513616,14.475725967344275,15.481536265176386,16.487346563009957,17.493156860844994,18.4989671586815,19.427541971549932,20.175897610986176,20.924253250423888,21.672608889863049,22.420964529303674,23.16932016874577,23.917675808189351,24.666031447634346,25.414387087080836,26.162742726528805,26.818584814928041,27.302613524373136,27.78664223381972,28.270670943267763,28.754699652717267,29.238728362168263,29.722757071620716,30.206785781074668,30.690814490530055,31.174843199986924,31.554363528290583,31.777118815291949,31.999874102294779,32.222629389299108,32.445384676304911,32.668139963312164,32.890895250320959,33.11365053733126,33.336405824342975,33.559161111356225,33.669375632813185,33.642037965807909,33.614700298804173,33.587362631801881,33.560024964801165,33.5326872978019,33.505349630804155,33.478011963807894,33.450674296813176,33.423336629819943,32.759174292193308,32.498976450342241,32.238778608492723,31.978580766644733,31.718382924798263,31.458185082953289,31.197987241109917,30.937789399267974,30.561161793382514,30.089271470532598,29.617381147684203,29.145490824837363,28.673600501992112,28.201710179148357,27.72981985630619,27.257929533465564,26.786039210626498,26.314148887789006,25.729121745316736,25.068668274112845,24.408214802910511,23.74776133170975,23.087307860510592,22.426854389312997,21.766400918116961,21.105947446922528,20.445493975729708,19.785040504538443,19.017219065142768,18.191582543088078,17.365946021035032,16.540309498983579,15.714672976933747,14.889036454885538,14.063399932838935,13.237763410793958,12.412126888750569,11.586490366708825,10.660801334542683,9.6922309664087329,8.7236605982764068,7.7550902301457771,6.7865198620167746,5.8179494938894587,4.84937912576379,3.8808087576397541,2.9122383895174075,1.9436680213967028,0.88292875250665959,-0.20853464489563403,-1.2999980422962449,-2.3914614396951692,-3.482924837092388,-4.5743882344879543,-5.6658516318817789,-6.7573150292739363,-7.8487784266644374,-8.9402418240532011,-10.116286383777428,-11.313477233424681,-12.510668083070181,-13.707858932713881,-14.905049782355823,-16.102240631995958,-17.299431481634322,-18.496622331270888,-19.693813180905671,-20.891004030538706,-22.166521507495606,-23.455862201453545,-24.745202895409754,-26.034543589364223,-27.323884283316918,-28.613224977267883,-29.902565671217104,-31.191906365164581,-32.481247059110331,-33.770587753054329,-35.133819132101209,-36.505261363296057,-37.876703594489072,-39.248145825680119,-40.619588056869368,-41.99103028805667,-43.362472519242075,-44.733914750425555,-46.105356981607216,-47.476799212786936,-48.920616809097986,-50.368244355257737,-51.815871901415512,-53.26349944757137,-54.711126993725358,-56.158754539877421,-57.606382086027459,-59.05400963217555,-60.501637178321737,-61.949264724466,0.2865417981652329,0.2865417981652329,0.2865417981652329,0.2865417981652329,0.2865417981652329,0.2865417981652329,0.2865417981652329,0.2865417981652329,0.2865417981652329,0.2865417981652329,0.2865417981652329,0.2865417981652329
DP 190,160.67404903752382,0.0027513528712119362,-89.980153432826555,-87.6918295196645,-85.403505606500332,-83.115181693333952,-80.826857780165369,-78.53853386699474,-76.250209953821908,-73.961886040646931,-71.673562127469765,-69.385238214290453,-67.100357023081159,-64.880888200169181,-62.661419377255051,-60.4419505543388,-58.222481731420395,-56.003012908499819,-53.783544085577113,-51.564075262652295,-49.344606439725283,-47.125137616796096,-44.919687384847812,-42.840405796806373,-40.761124208762794,-38.68184262071717,-36.602561032669442,-34.523279444619625,-32.443997856567712,-30.364716268513693,-28.285434680457616,-26.206153092399404,-24.157053905149617,-22.278990224419079,-20.400926543686431,-18.52286286295163,-16.644799182214729,-14.766735501475679,-12.888671820734507,-11.010608139991195,-9.132544459245759,-7.2544807784981957,-5.4268849537034871,-3.8011629378782024,-2.1754409220508304,-0.54971890622135289,1.0760031096102067,2.7017251254438777,4.3274471412796416,5.9531691571175092,7.578891172957464,9.2046131887995148,10.757441892173969,12.091587902146134,13.425733912120393,14.759879922096772,16.094025932075258,17.428171942055855,18.762317952038551,20.096463962023364,21.430609972010249,22.764755981999294,24.003446845435764,25.019405274180787,26.035363702927956,27.051322131677232,28.067280560428589,29.083238989182096,30.099197417937734,31.115155846695451,32.13111427545531,33.147072704217294,34.046736380669884,34.730420947873775,35.414105515079839,36.097790082288007,36.781474649498293,37.465159216710717,38.148843783925273,38.832528351141981,39.516212918360822,40.199897485581772,40.749650633223787,41.098503486647445,41.447356340073156,41.79620919350107,42.145062046931137,42.493914900363357,42.84276775379773,43.191620607234277,43.540473460672914,43.889326314113752,44.090816857200785,44.11219481454313,44.133572771887714,44.154950729234479,44.176328686583382,44.197706643934467,44.219084601287776,44.240462558643223,44.261840516000859,44.283218473360662,43.566760399122956,43.275900987702443,42.985041576284132,42.694182164868067,42.4033227534542,42.112463342042545,41.82160393063311,41.530744519225834,41.079658475178718,40.4974751599079,39.915291844639285,39.333108529372907,38.750925214108854,38.168741898847024,37.586558583587433,37.004375268330087,36.422191953075043,35.840008637822265,35.09766762798354,34.248552298699181,33.39943696941711,32.550321640137355,31.701206310859877,30.852090981584723,30.002975652311857,29.1538603230413,28.304744993773067,27.455629664507075,26.449805006499119,25.359596123417504,24.26938724033829,23.179178357261407,22.088969474186907,20.998760591114742,19.908551708044925,18.818342824977503,17.728133941912397,16.637925058849696,15.396812126304024,14.091023482607167,12.785234838912629,11.479446195220603,10.173657551530933,8.8678689078437039,7.5620802641588938,6.2562916204764623,4.950502976796483,3.6447143331189045,2.1950053086633976,0.6973210101441365,-0.80036328837266946,-2.2980475868870172,-3.7957318853988786,-5.2934161839083265,-6.791100482415243,-8.288784780919725,-9.7864690794217832,-11.284153377921319,-12.918696711209014,-14.587456420204065,-16.256216129196563,-17.92497583818642,-19.593735547173722,-21.26249525615837,-22.931254965140429,-24.600014674119926,-26.268774383096744,-27.937534092071054,-29.737452850094407,-31.560518781162557,-33.383584712228107,-35.2066506432912,-37.029716574351667,-38.852782505409643,-40.675848436465017,-42.498914367517905,-44.321980298568256,-46.145046229615993,-48.095600081504479,-50.06032059685343,-52.025041112199609,-53.989761627542968,-55.954482142883556,-57.91920265822143,-59.883923173556532,-61.848643688888757,-63.813364204218345,-65.7780847195451,-67.870261932366731,-69.969148660566873,-72.068035388764258,-74.166922116958787,-76.265808845150488,-78.3646955733394,-80.463582301525562,-82.56246902970878,-84.661355757889211,-86.760242486066758,0.41849998009850486,0.41849998009850486,0.41849998009850486,0.41849998009850486,0.41849998009850486,0.41849998009850486,0.41849998009850486,0.41849998009850486,0.41849998009850486,0.41849998009850486,0.41849998009850486,0.41849998009850486
DP 191,209.58058488724228,0.0030608871930271238,-122.77191523860625,-119.50105865235982,-116.23020206611098,-112.95934547985954,-109.68848889360582,-106.41763230734959,-103.14677572109089,-99.875919134829644,-96.605062548566082,-93.3342059623001,-90.069036192531215,-86.911917011314955,-83.754797830096365,-80.597678648875288,-77.440559467651823,-74.283440286425915,-71.126321105197547,-67.969201923966779,-64.812082742733551,-61.654963561497915,-58.520794724178643,-55.593181151432908,-52.6655675786848,-49.737954005934348,-46.8103404331816,-43.882726860426381,-40.95511328766888,-38.027499714908984,-35.099886142146744,-32.172272569382187,-29.293397471681089,-26.690710137248079,-24.088022802812734,-21.485335468374963,-18.882648133934804,-16.279960799492233,-13.67727346504727,-11.07458613059989,-8.4718987961501355,-5.8692114616979891,-3.3464808229573411,-1.14358074588795,1.0593193311837859,3.2622194082578861,5.4651194853343243,7.6680195624131375,9.8709196394942982,12.073819716577825,14.276719793663686,16.479619870751904,18.569771208365747,20.321672064677891,22.07357292099244,23.825473777309313,25.577374633628558,27.329275489950177,29.08117634627413,30.8330772026005,32.584978058929167,34.336878915260229,35.945328337352109,37.219052096531527,38.49277585571329,39.76649961489742,41.040223374083951,42.313947133272855,43.587670892464089,44.861394651657704,46.135118410853707,47.408842170052083,48.51354084099605,49.30433121189315,50.095121582792665,50.88591195369456,51.676702324598764,52.467492695505449,53.258283066414457,54.049073437325838,54.839863808239606,55.630654179155812,56.234014758591911,56.556226221771489,56.878437684953454,57.200649148137821,57.522860611324553,57.845072074513766,58.167283537705273,58.489495000899204,58.811706464095579,59.133917927294327,59.258406684100258,59.1412302021941,59.024053720290439,58.906877238389121,58.789700756490255,58.672524274593805,58.55534779269977,58.438171310808158,58.320994828918991,58.2038183470323,56.852327126629724,56.33516517871292,55.8180032307987,55.300841282886886,54.783679334977514,54.266517387070593,53.749355439166173,53.232193491264169,52.519884440501613,51.647906224565148,50.775928008631183,49.903949792699734,49.03197157677068,48.159993360844268,47.288015144920251,46.416036928998771,45.544058713079778,44.672080497163307,43.61544162580801,42.435692741762679,41.25594385771992,40.076194973679691,38.896446089642041,37.716697205606856,36.536948321574272,35.357199437544224,34.177450553516771,32.997701669491789,31.647657573864173,30.205913580213942,28.764169586566318,27.322425592921316,25.880681599278898,24.43893760563909,22.997193612001855,21.555449618367277,20.113705624735257,18.671961631105852,17.076346017579212,15.414782826920048,13.753219636263477,12.091656445609656,10.430093254958443,8.7685300643099229,7.1069668736640654,5.4454036830208352,3.7838404923802993,2.122277301742419,0.32355916237402116,-1.5208790217784767,-3.3653172059282705,-5.2097553900753608,-7.0541935742196982,-8.8986317583613914,-10.743069942500288,-12.587508126636505,-14.431946310770064,-16.276384494900849,-18.242419615569968,-20.238855407059557,-22.235291198546342,-24.231726990030253,-26.228162781511323,-28.224598572989482,-30.221034364464789,-32.217470155937249,-34.213905947406879,-36.210341738873616,-38.315604559803838,-40.440073360810409,-42.564542161814117,-44.689010962815132,-46.813479763813241,-48.9379485648086,-51.062417365801117,-53.186886166790934,-55.311354967777824,-57.435823768762063,-59.659836898373293,-61.894911554391612,-64.129986210406855,-66.365060866419057,-68.600135522428275,-70.835210178434323,-73.07028483443753,-75.305359490437525,-77.5404341464346,-79.775508802428618,-82.10599012677099,-84.4414938039671,-86.77699748116008,-89.112501158349929,-91.448004835536764,-93.783508512720545,-96.119012189901184,-98.454515867078584,-100.79001954425304,-103.12552322142432,0.45948766640439093,0.45948766640439093,0.45948766640439093,0.45948766640439093,0.45948766640439093,0.45948766640439093,0.45948766640439093,0.45948766640439093,0.45948766640439093,0.45948766640439093,0.45948766640439093,0.45948766640439093
DP 192,76.511363620909307,0.0033906687584027424,-63.08107043396604,-61.675782491653926,-60.270494549339674,-58.865206607023481,-57.45991866470527,-56.054630722385028,-54.649342780062675,-53.244054837738425,-51.8387668954121,-50.433478953083792,-49.029686663265927,-47.654312053928926,-46.278937444589857,-44.903562835248827,-43.52818822590568,-42.152813616560572,-40.777439007213424,-39.402064397864251,-38.026689788513032,-36.651315179159823,-35.282146131345215,-33.968827723955449,-32.655509316563659,-31.34219090916989,-30.02887250177411,-28.715554094376312,-27.402235686976486,-26.088917279574691,-24.775598872170892,-23.462280464765055,-22.162683982072007,-20.940845937440937,-19.7190078928078,-18.497169848172593,-17.275331803535348,-16.053493758896046,-14.831655714254708,-13.609817669611294,-12.387979624965833,-11.166141580318326,-9.9681192072114317,-8.86536064582104,-7.7626020844285986,-6.6598435230340964,-5.55708496163755,-4.4543264002389353,-3.3515678388382795,-2.2488092774355608,-1.1460507160307953,-0.0432921546239758,1.0234096589653157,1.9819398658421754,2.9404700727211144,3.8990002796021441,4.8575304864852651,5.8160606933704662,6.77459090025776,7.73312110714713,8.6916513140385838,9.6501815209321382,10.558724923882293,11.350630482288217,12.142536040696267,12.934441599106425,13.726347157518697,14.518252715933109,15.310158274349629,16.102063832768273,16.893969391189032,17.685874949611915,18.412670216359821,19.018544611617635,19.624419006877623,20.230293402139761,20.836167797404073,21.442042192670534,22.047916587939152,22.653790983209934,23.259665378482872,23.865539773757984,24.390484792579635,24.794033834328935,25.197582876080478,25.601131917834156,26.004680959590104,26.40823000134823,26.8117790431086,27.215328084871132,27.618877126635876,28.022426168402845,28.32897747825503,28.51697396724024,28.704970456227674,28.892966945217356,29.080963434209327,29.268959923203543,29.45695641219999,29.644952901198707,29.832949390199712,30.020945879202973,30.020279644877011,29.982413426376283,29.944547207877921,29.906680989381861,29.8688147708881,29.830948552396702,29.793082333907563,29.755216115420769,29.588927594328087,29.317564073165236,29.046200552004773,28.774837030846705,28.503473509691005,28.232109988537694,27.960746467386773,27.689382946238251,27.418019425092076,27.14665590394829,26.732022145137982,26.221872637532751,25.711723129929961,25.201573622329665,24.6914241147318,24.181274607136373,23.671125099543428,23.16097559195293,22.650826084364912,22.140676576779335,21.473147326665472,20.720872849690352,19.968598372717789,19.2163238957478,18.464049418780338,17.711774941815431,16.959500464853079,16.207225987893285,15.454951510936015,14.702677033981329,13.779670001672903,12.783488992443667,11.787307983216994,10.791126973993004,9.7949459647716086,8.7987649555528531,7.80258394633672,6.8064029371231864,5.810221927912302,4.8140409187040341,3.634413140443149,2.393634127215543,1.1528551139906202,-0.08792389923161345,-1.3287029124511329,-2.5694819256680037,-3.8102609388821254,-5.05103995209357,-6.2918189653023626,-7.5325979785084138,-8.9689217819090068,-10.454134093250376,-11.939346404588905,-13.424558715924528,-14.909771027257309,-16.39498333858716,-17.880195649914171,-19.365407961238294,-20.850620272559521,-22.33583258387792,-24.028585614611725,-25.757965786065963,-27.487345957517331,-29.216726128965963,-30.946106300411685,-32.675486471854711,-34.404866643294817,-36.134246814732194,-37.8636269861667,-39.593007157598471,-41.541446939259068,-43.514228978253612,-45.487011017245109,-47.459793056233416,-49.432575095218738,-51.405357134200884,-53.378139173179967,-55.3509212121559,-57.323703251128805,-59.29648529009858,-61.500271938595588,-63.71621902283934,-65.932166107080008,-68.148113191317393,-70.364060275551637,-72.580007359782769,-74.795954444010675,-77.011901528235271,-79.227848612456782,-81.443795696675181,0.45879381817408332,0.45879381817408332,0.45879381817408332,0.45879381817408332,0.45879381817408332,0.45879381817408332,0.45879381817408332,0.45879381817408332,0.45879381817408332,0.45879381817408332,0.45879381817408332,0.45879381817408332
DP 193,169.49487312223746,0.0019442479822899083,-66.3070354624327,-64.605037811986776,-62.9030401615394,-61.201042511090414,-59.49904486064,-57.797047210187941,-56.095049559734413,-54.393051909279315,-52.691054258822646,-50.989056608364486,-49.289692703072504,-47.640370453860783,-45.991048204647456,-44.341725955432665,-42.692403706216353,-41.043081456998493,-39.393759207779084,-37.744436958558161,-36.095114709335732,-34.445792460111754,-32.807177203626537,-31.2649258938462,-29.722674584064364,-28.180423274281065,-26.6381719644963,-25.095920654710017,-23.553669344922241,-22.011418035133008,-20.469166725342273,-18.92691541555007,-17.40765750082333,-16.01869694039183,-14.629736379958818,-13.240775819524293,-11.851815259088276,-10.462854698650721,-9.0738941382116458,-7.6849335777710648,-6.2959730173289827,-4.9070124568853934,-3.5563661721921318,-2.3589788012683908,-1.1615914303431683,0.035795940583548694,1.2331833115117437,2.43057068244144,3.6279580533726152,4.8253454243052873,6.0227327952394383,7.2201201661750751,8.3624124621742073,9.3394174502922471,10.316422438411776,11.293427426532816,12.270432414655335,13.247437402779356,14.224442390904878,15.20144737903189,16.178452367160389,17.155457355290395,18.060696080872276,18.798477367401734,19.536258653932691,20.274039940465151,21.011821226999125,21.749602513534594,22.487383800071562,23.225165086610041,23.962946373149983,24.700727659691488,25.3516147474181,25.841124547810409,26.330634348204242,26.820144148599567,27.309653948996424,27.799163749394765,28.288673549794641,28.778183350196009,29.267693150598927,29.757202951003308,30.14734294703009,30.388425888344443,30.629508829660306,30.870591770977651,31.11167471229659,31.352757653617033,31.593840594939003,31.834923536262497,32.076006477587505,32.317089418914051,32.449694503319584,32.449713261824272,32.449732020330487,32.449750778838265,32.449769537347585,32.44978829585844,32.449807054370822,32.449825812884775,32.449844571400263,32.449863329917285,31.880287442778286,31.652452905485347,31.424618368193975,31.19678383090422,30.968949293615992,30.741114756329321,30.513280219044251,30.285445681760706,29.941796610398271,29.503388202615582,29.064979794834496,28.626571387055023,28.188162979277138,27.749754571500844,27.311346163726149,26.872937755953078,26.434529348181545,25.996120940411672,25.443145076189396,24.813789102819428,24.184433129451097,23.555077156084359,22.925721182719265,22.2963652093558,21.667009235993969,21.037653262633754,20.408297289275172,19.778941315918207,19.03873740157136,18.238844522460674,17.438951643351672,16.639058764244361,15.839165885138689,15.039273006034694,14.239380126932367,13.439487247831721,12.639594368732725,11.839701489635408,10.934345079559888,9.9837882332475267,9.033231386936821,8.08267454062786,7.1321176943205824,6.1815608480150388,5.2310040017111907,4.2804471554090258,3.3298903091085932,2.379333462809861,1.3294601532970183,0.24648010437742179,-0.8364999445404393,-1.9194799934565632,-3.0024600423709296,-4.0854400912835924,-5.1684201401944625,-6.2514001891036184,-7.3343802380110636,-8.4173602869167183,-9.5935723528791463,-10.793093524656175,-11.992614696431392,-13.192135868204769,-14.391657039976316,-15.591178211746001,-16.790699383513864,-17.990220555279883,-19.189741727044076,-20.389262898806447,-21.677040084098451,-22.980392841432323,-24.283745598764362,-25.587098356094678,-26.890451113423133,-28.193803870749822,-29.497156628074684,-30.800509385397788,-32.103862142719024,-33.407214900038589,-34.795447917022678,-36.193112965411437,-37.590778013798314,-38.98844306218318,-40.386108110566127,-41.783773158947113,-43.181438207326174,-44.579103255703231,-45.97676830407832,-47.37443335245149,-48.856349024325631,-50.342699777801009,-51.829050531274419,-53.315401284745768,-54.801752038215234,-56.288102791682661,-57.774453545148134,-59.260804298611475,-60.747155052073076,-62.233505805532495,0.295541510874772,0.295541510874772,0.295541510874772,0.295541510874772,0.295541510874772,0.295541510874772,0.295541510874772,0.295541510874772,0.295541510874772,0.295541510874772,0.295541510874772,0.295541510874772
DP 194,137.4389459765988,0.002357126887082141,-68.122436119883986,-66.436411366837035,-64.750386613788251,-63.064361860737591,-61.378337107685226,-59.692312354631,-58.006287601574996,-56.320262848517167,-54.634238095457526,-52.948213342396095,-51.26453012258925,-49.625336477306959,-47.9861428320228,-46.34694918673685,-44.707755541449181,-43.068561896159672,-41.429368250868379,-39.7901746055753,-38.150980960280386,-36.511787314983735,-34.882171154364151,-33.33875326113349,-31.79533536790106,-30.251917474666936,-28.708499581431017,-27.165081688193357,-25.621663794953978,-24.078245901712826,-22.53482800846993,-20.991410115225275,-19.468752849710167,-18.063740449557766,-16.658728049403614,-15.253715649247654,-13.848703249089912,-12.443690848930396,-11.038678448769094,-9.633666048606,-8.2286536484411243,-6.8236412482744759,-5.4536720088418953,-4.2238770685190623,-2.9940821281944743,-1.7642871878681206,-0.5344922475400179,0.69530269278985579,1.9250976331214835,3.1548925734548758,4.3846875137900216,5.6144824541269234,6.7930564476893185,7.8179656643315552,8.8428748809755469,9.867784097621314,10.892693314268854,11.917602530918169,12.94251174756924,13.967420964222105,14.992330180876705,16.017239397533103,16.974101383122026,17.772183816250905,18.570266249381586,19.368348682514043,20.16643111564828,20.964513548784289,21.762595981922079,22.560678415061666,23.358760848203026,24.156843281346156,24.870613398096186,25.427801221735933,25.984989045377425,26.542176869020746,27.099364692665844,27.656552516312722,28.213740339961429,28.770928163611924,29.328115987264194,29.88530381091828,30.343509556826348,30.653239847131395,30.962970137438209,31.27270042774688,31.582430718057346,31.892161008369641,32.201891298683741,32.511621588999638,32.821351879317383,33.131082169636962,33.329526504704667,33.391952334705863,33.454378164708878,33.5168039947138,33.579229824720542,33.641655654729092,33.704081484739525,33.766507314751742,33.828933144765863,33.891358974781816,33.474852084693858,33.295763706097304,33.116675327502676,32.937586948909924,32.758498570318984,32.579410191729963,32.40032181314281,32.22123343455754,31.914906206785769,31.504472279352665,31.094038351921476,30.683604424492195,30.273170497064793,29.862736569639331,29.45230264221577,29.041868714794131,28.631434787374403,28.2210008599566,27.679686711478602,27.05111702046349,26.422547329450321,25.793977638439092,25.165407947429838,24.536838256422502,23.908268565417139,23.279698874413722,22.651129183412266,22.022559492412743,21.261908704312663,20.430135404775768,19.598362105240877,18.766588805707986,17.934815506177106,17.103042206648198,16.271268907121296,15.439495607596422,14.607722308073546,13.775949008552638,12.812742386880183,11.793204980127847,10.77366757337753,9.7541301666293041,8.7345927598831032,7.7150553531389825,6.6955179463969072,5.6759805396568686,4.6564431329189064,3.6369057261829942,2.4876694377370527,1.2951985541477504,0.10272767056053909,-1.089743213024579,-2.2822140966075795,-3.4746849801885222,-4.6671558637673138,-5.8596267473440342,-7.0520976309186869,-8.2445685144911973,-9.5646521734097014,-10.916640533929241,-12.268628894446579,-13.620617254961694,-14.972605615474588,-16.324593975985238,-17.676582336493681,-19.028570696999918,-20.380559057503902,-21.732547418005726,-23.210784214444931,-24.711301550538046,-26.211818886628958,-27.712336222717742,-29.212853558804305,-30.713370894888765,-32.213888230970987,-33.714405567051095,-35.214922903128979,-36.715440239204767,-38.342000467900434,-39.98256678618948,-41.623133104476167,-43.26369942276046,-44.904265741042487,-46.544832059322026,-48.18539837759927,-49.825964695874077,-51.466531014146589,-53.107097332416714,-54.875940237845917,-56.651535818899148,-58.42713139995,-60.202726980998484,-61.978322562044532,-63.753918143088178,-65.529513724129458,-67.305109305168131,-69.080704886204515,-70.856300467238427,0.35695750882235211,0.35695750882235211,0.35695750882235211,0.35695750882235211,0.35695750882235211,0.35695750882235211,0.35695750882235211,0.35695750882235211,0.35695750882235211,0.35695750882235211,0.35695750882235211,0.35695750882235211
DP 195,255.99732442396459,0.0059670200761251461,-276.29441703286045,-268.66026852423937,-261.02612001561357,-253.39197150698288,-245.75782299834782,-238.12367448970784,-230.48952598106311,-222.85537747241369,-215.22122896375953,-207.58708045510085,-199.96786169599983,-192.63231100097696,-185.29676030594928,-177.96120961091682,-170.62565891587974,-163.29010822083802,-155.95455752579159,-148.61900683074037,-141.28345613568459,-133.94790544062397,-126.67212506040678,-119.9342831634128,-113.19644126641407,-106.45859936941103,-99.720757472403264,-92.98291557539099,-86.245073678374283,-79.5072317813528,-72.769389884326984,-66.031547987296435,-59.419020269080733,-53.516614127446992,-47.614207985808612,-41.711801844165585,-35.809395702517982,-29.906989560865707,-24.004583419208792,-18.102177277547248,-12.199771135881107,-6.2973649942103416,-0.59693903179468055,4.2955566678402706,9.1880523674797221,14.08054806712374,18.973043766772278,23.865539466425385,28.758035166082983,33.650530865745168,38.543026565411864,43.435522265083073,48.049441269680855,51.827619656449791,55.605798043223324,59.38397643000139,63.162154816783939,66.940333203571072,70.718511590362766,74.496689977158979,78.274868363959769,82.053046750765077,85.486038805253685,88.113582489525086,90.741126173801078,93.368669858081532,95.996213542366547,98.623757226656153,101.25130091095035,103.87884459524906,106.50638827955234,109.13393196386018,111.36693338524435,112.86720280613153,114.36747222702344,115.86774164791983,117.36801106882072,118.86828048972619,120.36854991063632,121.86881933155082,123.36908875247018,124.86935817339388,125.9467929188452,126.38996565934553,126.8331383998505,127.27631114036011,127.71948388087426,128.16265662139304,128.60582936191634,129.04900210244443,129.49217484297694,129.9353475835141,129.94889929026985,129.43734959831104,128.92579990635699,128.41425021440762,127.90270052246272,127.39115083052268,126.87960113858716,126.36805144665628,125.85650175473006,125.34495206280852,121.7243804178444,120.37846012094708,119.03253982405442,117.6866195271665,116.34069923028326,114.99477893340483,113.64885863653099,112.30293833966189,110.56744083091165,108.51319163545929,106.45894244001161,104.40469324456868,102.35044404913054,100.29619485369719,98.241945658268662,96.1876964628448,94.133447267425879,92.079198072011664,89.673273223306722,87.032892398928311,84.392511574554888,81.752130750186311,79.11174992582265,76.471369101463651,73.8309882771097,71.190607452760517,68.550226628416254,65.909845804076781,62.961109792204809,59.846331887637376,56.731553983074996,53.616776078517461,50.50199817396495,47.387220269417405,44.272442364874721,41.1576644603371,38.042886555804373,34.928108651276673,31.549395133938766,28.057561899036635,24.565728664139389,21.073895429247429,17.582062194360411,14.090228959478562,10.598395724601799,7.1065624897299964,3.6147292548633856,0.12289602000181364,-3.5909347143543933,-7.3787674130051872,-11.166600111650823,-14.9544328102913,-18.742265508926547,-22.530098207556758,-26.317930906181637,-30.105763604801361,-33.8935963034161,-37.681429002025439,-41.654283669848347,-45.673396016035852,-49.692508362217986,-53.711620708394605,-57.730733054565853,-61.749845400731552,-65.768957746891886,-69.788070093046741,-73.8071824391961,-77.826294785340139,-82.000892772257032,-86.202931130683183,-90.404969489103834,-94.607007847519469,-98.8090462059295,-103.0110845643344,-107.21312292273375,-111.41516128112787,-115.61719963951668,-119.81923799790016,-124.15526490922488,-128.50618084473484,-132.85709678023915,-137.20801271573754,-141.5589286512303,-145.90984458671721,-150.26076052219832,-154.61167645767358,-158.96259239314335,-163.31350832860724,-167.78735226992688,-172.26766732937187,-176.74798238881104,-181.22829744824426,-185.70861250767169,-190.18892756709332,-194.66924262650903,-199.14955768591864,-203.6298727453225,-208.11018780472028,0.87376666612546,0.87376666612546,0.87376666612546,0.87376666612546,0.87376666612546,0.87376666612546,0.87376666612546,0.87376666612546,0.87376666612546,0.87376666612546,0.87376666612546,0.87376666612546
DP 196,285.55020173447156,0.0043770585635100334,-218.17616772227714,-212.02109503870955,-205.86602235513817,-199.71094967156375,-193.55587698798578,-187.40080430440435,-181.24573162081938,-175.09065893723124,-168.9355862536394,-162.78051357004452,-156.63832350983324,-150.74090572936976,-144.84348794890295,-138.94607016843258,-133.04865238795892,-127.15123460748198,-121.25381682700133,-115.35639904651757,-109.45898126603016,-103.56156348553959,-97.715458552136369,-92.331174092728858,-86.946889633318008,-81.562605173903933,-76.178320714486489,-70.794036255065848,-65.409751795641853,-60.025467336214511,-54.64118287678393,-49.256898417350037,-43.9793312467359,-39.306502104185824,-34.63367296163247,-29.960843819075695,-25.2880146765156,-20.615185533952154,-15.942356391385333,-11.269527248815141,-6.596698106241627,-1.9238689636647659,2.578862949809269,6.4011979079294763,10.223532866052961,14.045867824179744,17.868202782309783,21.690537740443155,25.512872698579784,29.335207656719707,33.15754261486294,36.979877573009432,40.570855592093395,43.4677540466974,46.364652501304683,49.261550955915261,52.158449410529137,55.055347865146288,57.952246319766736,60.849144774390538,63.746043229017573,66.6429416836479,69.257873872338919,71.2148736688837,73.171873465431673,75.128873261983,77.085873058537572,79.04287285509551,80.9998726516568,82.956872448221262,84.913872244789061,86.870872041360172,88.511641716654225,89.56511834084759,90.618594965044238,91.672071589244183,92.72554821344751,93.7790248376541,94.832501461864041,95.885978086077145,96.939454710293759,97.9929313345135,98.714591406500261,98.938518809187727,99.162446211878589,99.386373614572648,99.6103010172702,99.834228419971012,100.05815582267519,100.28208322538258,100.50601062809345,100.7299380308075,100.62442980226317,100.11627110468174,99.608112407103761,99.099953709529146,98.591795011957856,98.083636314389977,97.575477616825324,97.067318919264139,96.55916022170625,96.051001524151786,92.966439040528684,91.83424460691171,90.702050173298034,89.569855739687824,88.437661306081012,87.305466872477581,86.173272438877618,85.041078005280923,83.625178197074931,81.977150933963031,80.329123670854585,78.681096407749564,77.033069144648024,75.385041881550023,73.737014618455333,72.088987355364253,70.440960092276455,68.792932829192168,66.895952591514728,64.832999782210976,62.770046972910691,60.707094163613895,58.6441413543207,56.581188545030841,54.518235735744646,52.455282926461919,50.392330117182752,48.329377307906988,46.054600503242149,43.665761543845456,41.276922584452429,38.888083625062912,36.499244665676954,34.110405706294557,31.721566746915713,29.332727787540509,26.9438888281688,24.555049868800658,21.990605661529866,19.350899098284586,16.711192535042869,14.071485971804934,11.431779408570574,8.7920728453399466,6.1523662821129683,3.5126597188895889,0.87295315566994414,-1.7667534075460607,-4.54920111184453,-7.3792309954456394,-10.209260879043038,-13.039290762636723,-15.869320646226628,-18.6993505298129,-21.529380413395319,-24.359410296974037,-27.189440180549145,-30.019470064120362,-32.964182067468627,-35.937565955746422,-38.910949844020386,-41.884333732290386,-44.857717620556507,-47.831101508818634,-50.804485397076832,-53.777869285331121,-56.751253173581468,-59.724637061828048,-62.790788488576737,-65.873311689000332,-68.955834889419918,-72.0383580898359,-75.120881290247965,-78.203404490656155,-81.285927691060408,-84.36845089146091,-87.450974091857688,-90.533497292250544,-93.693000195642327,-96.861057207832673,-100.02911422001895,-103.19717123220097,-106.365228244379,-109.53328525655276,-112.70134226872248,-115.86939928088782,-119.03745629304922,-122.2055133052064,-125.442194707818,-128.68248860323561,-131.92278249864898,-135.16307639405824,-138.40337028946317,-141.64366418486392,-144.88395808026033,-148.12425197565253,-151.36454587104058,-154.60483976642428,0.6293649904606492,0.6293649904606492,0.6293649904606492,0.6293649904606492,0.6293649904606492,0.6293649904606492,0.6293649904606492,0.6293649904606492,0.6293649904606492,0.6293649904606492,0.6293649904606492,0.6293649904606492
DP 197,285.26887438620486,0.0049360176149910355,-245.87802328374505,-238.94277116981479,-232.00751905588075,-225.07226694194273,-218.13701482800082,-211.201762714055,-204.26651060010519,-197.33125848615182,-190.39600637219448,-183.4607542582331,-176.54000821712395,-169.89488030257363,-163.24975238801912,-156.60462447346097,-149.95949655889885,-143.31436864433297,-136.66924072976332,-130.0241128151896,-123.37898490061225,-116.733856986031,-110.14651286330465,-104.0792283291277,-98.011943794947015,-91.944659260762791,-85.877374726574672,-79.8100901923829,-73.742805658187365,-67.675521123988091,-61.608236589785157,-55.540952055578451,-49.593852204240157,-44.327806462551315,-39.061760720858693,-33.795714979162263,-28.529669237462084,-23.263623495758097,-17.997577754050305,-12.731532012338723,-7.4654862706233951,-2.1994405289042787,2.875022802193103,7.1831474364527468,11.49127207071607,15.799396704983129,20.107521339253871,24.415645973528331,28.723770607806525,33.031895242088424,37.340019876374008,41.648144510663279,45.695655004078269,48.9613132214029,52.226971438731162,55.492629656063222,58.758287873398892,62.023946090738335,65.289604308081522,68.5552625254284,71.820920742778966,75.086578960133266,78.034562731919721,80.241293619428788,82.44802450694165,84.654755394458178,86.861486281978387,89.0682171695024,91.274948057030173,93.481678944561438,95.688409832096667,97.8951407196355,99.745532071236866,100.9341403755961,102.12274867995903,103.31135698432576,104.49996528869607,105.68857359307019,106.87718189744801,108.06579020182957,109.25439850621491,110.44300681060403,111.25763587844611,111.51128725419841,111.76493862995453,112.01859000571422,112.27224138147783,112.52589275724505,112.77954413301606,113.03319550879101,113.28684688456951,113.54049826035168,113.42277378736941,112.85113769856437,112.27950160976295,111.70786552096551,111.13622943217179,110.56459334338179,109.99295725459565,109.4213211658133,108.84968507703472,108.27804898825985,104.80402874181881,103.52874653082291,102.25346431983094,100.97818210884263,99.702899897858373,98.427617686877866,97.152335475901211,95.877053264928321,94.281792291529428,92.424725013445254,90.567657735364918,88.7105904572886,86.853523179216012,84.9964559011475,83.139388623082652,81.2823213450219,79.425254066964939,77.568186788911973,75.4302621096354,73.105094738370553,70.779927367109778,68.4547599958528,66.1295926245999,63.80442525335085,61.479257882105827,59.154090510864712,56.828923139627705,54.503755768394477,51.939551468182025,49.246631499427011,46.553711530676068,43.8607915619292,41.16787159318627,38.4749516244474,35.782031655712508,33.089111686981731,30.396191718254904,27.703271749532121,24.812127744787205,21.836027235951583,18.859926727119952,15.883826218292564,12.907725709469245,9.9316252006501191,6.9555246918351123,3.9794241830241641,1.0033236742174259,-1.9727768345852053,-5.1100551332163358,-8.3010613930860124,-11.4920676529515,-14.683073912812786,-17.874080172669814,-21.065086432522751,-24.256092692371336,-27.447098952215764,-30.638105212056086,-33.829111471892084,-37.149656553695671,-40.502587871510492,-43.855519189321008,-47.208450507127,-50.5613818249286,-53.914313142725746,-57.267244460518548,-60.620175778306795,-63.973107096090665,-67.326038413870222,-70.783791908707641,-74.260044600425871,-77.736297292139568,-81.212549983849257,-84.688802675554285,-88.165055367255235,-91.641308058951751,-95.117560750643833,-98.593813442331736,-102.07006613401533,-105.63333291805823,-109.20626884843536,-112.77920477880789,-116.35214070917556,-119.92507663953873,-123.49801256989714,-127.07094850025085,-130.64388443059977,-134.21682036094418,-137.78975629128382,-141.44028312452329,-145.09489446148905,-148.74950579845009,-152.40411713540627,-156.05872847235776,-159.7133398093045,-163.36795114624641,-167.02256248318335,-170.6771738201158,-174.33178515704327,0.70986250669167483,0.70986250669167483,0.70986250669167483,0.70986250669167483,0.70986250669167483,0.70986250669167483,0.70986250669167483,0.70986250669167483,0.70986250669167483,0.70986250669167483,0.70986250669167483,0.70986250669167483
DP 198,163.41049843162219,0.0046671858841753656,-154.67595463553988,-150.73078575245333,-146.78561686936314,-142.84044798626931,-138.89527910317167,-134.95011022007054,-131.00494133696563,-127.05977245385708,-123.11460357074483,-119.16943468762896,-115.23025369400489,-111.40484373277197,-107.57943377153529,-103.75402381029507,-99.928613849051047,-96.10320388780346,-92.277793926552263,-88.452383965297372,-84.626974004038871,-80.801564042776619,-77.00052533775856,-73.41883024258118,-69.837135147400133,-66.255440052215576,-62.673744957027509,-59.092049861835861,-55.51035476664066,-51.9286596714419,-48.346964576239607,-44.765269481033727,-41.236003818013643,-38.003841574543543,-34.771679331069848,-31.539517087592547,-28.307354844111622,-25.075192600627059,-21.843030357138897,-18.610868113647086,-15.378705870151682,-12.146543626652647,-9.0019550931341623,-6.2076655383530044,-3.4133759835682955,-0.619086428780007,2.1752031260118172,4.9694926808072308,7.7637822356061932,10.558071790408738,13.352361345214824,16.146650900024465,18.814626953636449,21.103657727909532,23.392688502186225,25.68171927646647,27.970750050750297,30.25978082503773,32.548811599328758,34.837842373623317,37.126873147921465,39.415903922223215,41.539799845073809,43.278374610873186,45.016949376676166,46.755524142482777,48.494098908292941,50.2326736741067,51.971248439924061,53.709823205745032,55.4483979715696,57.186972737397767,58.724747007355276,59.889600647846542,61.054454288341404,62.219307928839989,63.384161569342112,64.549015209847909,65.713868850357272,66.878722490870274,68.043576131386871,69.20842977190712,70.14254029315785,70.730530682957237,71.3185210727602,71.90651146256684,72.494501852377141,73.082492242191108,73.670482632008785,74.258473021830028,74.84646341165498,75.434453801483585,75.769183726125362,75.79436776252642,75.819551798931215,75.8447358353397,75.869919871751861,75.895103908167684,75.9202879445873,75.945471981010584,75.970656017437577,75.9958400538682,74.73349364653906,74.223517264654063,73.713540882772818,73.20356450089524,72.69358811902147,72.183611737151551,71.6736353552853,71.163658973422784,70.379881047351688,69.37207897054364,68.364276893739387,67.356474816938956,66.348672740142391,65.340870663349577,64.333068586560685,63.325266509775552,62.317464432994207,61.309662356216784,60.029064467371349,58.566598406306689,57.104132345245951,55.641666284189085,54.179200223136149,52.7167341620871,51.254268101041966,49.791802040000704,48.329335978963435,46.86686991792994,45.138417431329273,43.266737616899519,41.395057802473808,39.52337798805204,37.651698173634323,35.780018359220584,33.908338544810846,32.036658730405115,30.164978916003349,28.29329910160558,26.166449549291492,23.9302372308979,21.694024912508315,19.457812594122938,17.221600275741579,14.985387957364374,12.749175638991264,10.512963320622184,8.2767510022572655,6.0405386838964175,3.5619241282729726,1.0025057719405635,-1.5569125843876799,-4.1163309407117525,-6.6757492970316044,-9.2351676533473679,-11.794586009658831,-14.354004365966158,-16.9134227222694,-19.472841078568354,-22.261844642263689,-25.108247220392261,-27.954649798516481,-30.801052376636271,-33.647454954751659,-36.493857532862592,-39.34026011096914,-42.186662689071262,-45.033065267168951,-47.87946784526234,-50.9450573375975,-54.049329311011078,-57.153601284420304,-60.257873257825352,-63.3621452312259,-66.466417204622346,-69.570689178014277,-72.674961151401916,-75.779233124785364,-78.88350509816442,-82.200133756309171,-85.540359831894,-88.880585907474241,-92.2208119830496,-95.561038058620369,-98.901264134186448,-102.24149020974782,-105.58171628530441,-108.92194236085646,-112.2621684364037,-115.81423020769492,-119.37744333380897,-122.94065645991827,-126.50386958602269,-130.0670827121223,-133.63029583821736,-137.1935089643076,-140.75672209039291,-144.31993521647334,-147.88314834254913,0.70984727891750321,0.70984727891750321,0.70984727891750321,0.70984727891750321,0.70984727891750321,0.70984727891750321,0.70984727891750321,0.70984727891750321,0.70984727891750321,0.70984727891750321,0.70984727891750321,0.70984727891750321
DP 199,271.99460181124448,0.0032652681111895419,-157.57345203937356,-153.16947091406934,-148.76548978876255,-144.36150866345309,-139.95752753814102,-135.55354641282653,-131.14956528750929,-126.74558416218963,-122.34160303686737,-117.93762191154246,-113.5425810351777,-109.31740657920892,-105.09223212323749,-100.86705766726355,-96.641883211287052,-92.416708755308036,-88.191534299326364,-83.966359843342318,-79.741185387355472,-75.516010931366267,-71.3265294060494,-67.458287630562964,-63.5900458550741,-59.721804079582633,-55.853562304088761,-51.985320528592425,-48.117078753093551,-44.248836977592283,-40.380595202088521,-36.512353426582287,-32.718620065270287,-29.347105746181239,-25.975591427089732,-22.604077107995675,-19.232562788899124,-15.861048469800057,-12.489534150698439,-9.1180198315943137,-5.746505512487686,-2.3749911933785453,0.87715652966093338,3.6518322270524619,6.4265079244464385,9.2011836218429082,11.975859319241815,14.750535016643221,17.52521071404707,20.2998864114534,23.074562108862189,25.849237806273443,28.460519181159331,30.5816114107508,32.70270364034478,34.823795869941229,36.9448880995401,39.065980329141517,41.187072558745371,43.308164788351682,45.429257017960445,47.550349247571809,49.470789005560043,50.9230317606016,52.375274515645579,53.82751727069202,55.279760025740948,56.732002780792385,58.184245535846287,59.636488290902605,61.088731045961481,62.540973801022844,63.766224370855404,64.569911895078533,65.3735994193041,66.177286943532167,66.980974467762692,67.784661991995762,68.5883495162313,69.392037040469333,70.195724564709849,70.999412088952823,71.562609072238075,71.765064561205023,71.967520050174514,72.169975539146591,72.372431028121042,72.574886517098051,72.77734200607749,72.979797495059515,73.182252984043984,73.384708473031026,73.345868564956319,73.0121069921175,72.678345419281143,72.344583846447335,72.010822273616085,71.677060700787365,71.343299127961174,71.009537555137456,70.675775982316281,70.342014409497637,68.18498738021114,67.388928009131448,66.592868638054284,65.796809266979679,65.00074989590766,64.204690524838256,63.408631153771324,62.612571782706894,61.603775172285225,60.42091716452952,59.23805915677638,58.055201149025848,56.872343141277923,55.689485133532557,54.506627125789812,53.323769118049682,52.1409111103121,50.958053102577139,49.586101693043418,48.088085036748012,46.590068380455357,45.092051724165273,43.594035067877854,42.096018411593036,40.598001755310932,39.099985099031386,37.601968442754547,36.103951786480287,34.442838247941076,32.693900939545067,30.944963631151847,29.196026322761217,27.447089014373308,25.698151705988057,23.949214397605488,22.200277089225658,20.451339780848436,18.702402472473921,16.816286366455692,14.871377031740144,12.92646769702727,10.981558362317243,9.0366490276099061,7.0917396929053735,5.1468303582035846,3.2019210235045,1.2570116888082248,-0.68789764588531455,-2.7460466520511195,-4.8419436425143765,-6.9378406329748321,-9.0337376234324971,-11.129634613887324,-13.225531604339414,-15.321428594788596,-17.41732558523503,-19.513222575678714,-21.609119566119507,-23.797516867656459,-26.009040339871731,-28.220563812084176,-30.432087284293612,-32.643610756500074,-34.855134228703605,-37.06665770090418,-39.2781811731018,-41.489704645296442,-43.701228117488185,-45.98888085249795,-48.289969009865985,-50.591057167231071,-52.892145324593329,-55.193233481952625,-57.494321639309106,-59.795409796662618,-62.096497954013287,-64.3975861113611,-66.698674268706,-69.064035107793259,-71.436538030975527,-73.8090409541547,-76.181543877330682,-78.554046800503727,-80.926549723673418,-83.299052646840138,-85.671555570003633,-88.044058493164044,-90.416561416321414,-92.847124212342237,-95.2807433688156,-97.71436252528585,-100.1479816817528,-102.58160083821664,-105.01521999467737,-107.44883915113489,-109.88245830758908,-112.31607746404025,-114.74969662048801,0.47350907750252563,0.47350907750252563,0.47350907750252563,0.47350907750252563,0.47350907750252563,0.47350907750252563,0.47350907750252563,0.47350907750252563,0.47350907750252563,0.47350907750252563,0.47350907750252563,0.47350907750252563
DP 200,179.26898116701483,0.0025793470889988982,-91.886508241250951,-89.504815036546546,-87.123121831840066,-84.741428627131526,-82.3597354224209,-79.978042217708264,-77.5963490129936,-75.21465580827693,-72.832962603558087,-70.45126939883724,-68.073374114339018,-65.767640032083861,-63.461905949826686,-61.156171867567487,-58.850437785306255,-56.544703703042913,-54.238969620777596,-51.9332355385102,-49.627501456240836,-47.321767373969358,-45.031444244360507,-42.879821145401458,-40.728198046440383,-38.576574947477368,-36.424951848512379,-34.273328749545385,-32.121705650576438,-29.970082551605479,-27.818459452632581,-25.666836353657672,-23.548219289128689,-21.616638499661143,-19.685057710191607,-17.753476920720043,-15.821896131246493,-13.890315341770894,-11.958734552293283,-10.027153762813652,-8.09557297333202,-6.1639921838483724,-4.287196488490145,-2.6295437588274742,-0.97189102916282821,0.68576170050380647,2.3434144301724071,4.0010671598430063,5.6587198895155746,7.3163726191901315,8.9740253488666717,10.63167807854518,12.210928284914898,13.554967957063305,14.899007629213713,16.243047301366104,17.587086973520485,18.931126645676848,20.275166317835208,21.619205989995567,22.963245662157892,24.307285334322238,25.549792992955812,26.555388621283953,27.56098424961403,28.566579877946147,29.572175506280239,30.577771134616345,31.583366762954409,32.588962391294523,33.5945580196366,34.600153647980676,35.48364204562921,36.140356574339471,36.797071103051692,37.453785631765932,38.110500160482168,38.767214689200429,39.423929217920666,40.080643746642977,40.737358275367207,41.394072804093526,41.912216213320264,42.222499668809824,42.532783124301424,42.843066579795028,43.153350035290686,43.463633490788339,43.77391694628804,44.084200401789772,44.39448385729353,44.704767312799333,44.865068270310147,44.842054135478556,44.819040000649046,44.796025865821555,44.773011730996124,44.749997596172726,44.726983461351438,44.703969326532139,44.680955191714894,44.6579410568997,43.808718435164188,43.473631623490618,43.138544811819195,42.803458000149824,42.468371188482536,42.133284376817336,41.798197565154226,41.463110753493147,40.971031490407775,40.350501159947683,39.729970829489687,39.109440499033795,38.488910168580034,37.8683798381284,37.247849507678836,36.627319177231456,36.006788846786144,35.386258516342984,34.612160364506551,33.7356812458336,32.859202127162767,31.982723008494109,31.106243889827635,30.229764771163275,29.353285652501125,28.476806533841078,27.600327415183241,26.723848296527539,25.700581575820571,24.598273242537395,23.495964909256422,22.393656575977641,21.291348242701066,20.1890399094267,19.086731576154531,17.984423242884596,16.882114909616845,15.779806576351298,14.53965205354711,13.24041826568361,11.94118447782231,10.641950689963334,9.3427169021065772,8.0434831142521119,6.7442493263998973,5.4450155385499235,4.1457817507022421,2.8465479628568096,1.4192834918803905,-0.050659487022197108,-1.5206024659224864,-2.9905454448204747,-4.46048842371613,-5.9304314026095328,-7.4003743815005638,-8.87031736038931,-10.34026033927579,-11.810203318159905,-13.398639048664766,-15.01669936708455,-16.634759685501955,-18.252820003916892,-19.870880322329427,-21.488940640739489,-23.107000959147136,-24.725061277552356,-26.343121595955097,-27.961181914355507,-29.689884127445378,-31.438112611127536,-33.186341094807254,-34.934569578484691,-36.6827980621597,-38.431026545832331,-40.179255029502549,-41.927483513170429,-43.675711996835908,-45.423940480499041,-47.277311512462674,-49.1423661540365,-51.007420795607793,-52.8724754371764,-54.737530078742488,-56.602584720305934,-58.467639361866809,-60.332694003425111,-62.197748644980827,-64.062803286533935,-66.03136672377893,-68.00537902224589,-69.979391320710221,-71.953403619171937,-73.927415917631066,-75.9014282160875,-77.8754405145413,-79.84945281299234,-81.823465111440882,-83.7974774098867,0.3913758540633554,0.3913758540633554,0.3913758540633554,0.3913758540633554,0.3913758540633554,0.3913758540633554,0.3913758540633554,0.3913758540633554,0.3913758540633554,0.3913758540633554,0.3913758540633554,0.3913758540633554
DP 201,86.257620351726075,0.00571015425591822,-115.56026892873199,-112.92872670889686,-110.29718448905801,-107.66564226921548,-105.03410004936941,-102.40255782951949,-99.771015609666065,-97.1394733898089,-94.507931169947966,-91.876388950083552,-89.2477855753864,-86.675020814507661,-84.102256053625226,-81.52949129273911,-78.956726531849355,-76.383961770955949,-73.811197010058933,-71.238432249158123,-68.665667488253689,-66.092902727345688,-63.53229861055965,-61.081141440346919,-58.629984270130514,-56.1788270999106,-53.727669929687053,-51.276512759459855,-48.825355589229076,-46.374198418994631,-43.923041248756626,-41.471884078515032,-39.047524624893747,-36.775020587449561,-34.502516550001644,-32.230012512550012,-29.957508475094745,-27.685004437635737,-25.412500400173034,-23.139996362706608,-20.867492325236515,-18.594988287762718,-16.368774052940608,-14.327721216429811,-12.286668379915335,-10.245615543397173,-8.2045627068753468,-6.1635098703498281,-4.1224570338206359,-2.0814041972877528,-0.040351360751201784,2.00070147578903,3.9721030312668364,5.7345481101314357,7.4969931889997685,9.2594382678718272,11.021883346747609,12.78432842562713,14.546773504510361,16.309218583397339,18.071663662288014,19.83410874118244,21.500691255550734,22.943590677247368,24.386490098947721,25.829389520651887,27.272288942359815,28.715188364071548,30.158087785787053,31.600987207506307,33.043886629229377,34.486786050956212,35.805886210612,36.895070111649623,37.984254012691046,39.07343791373637,40.162621814785524,41.251805715838508,42.340989616895293,43.430173517955915,44.519357419020366,45.608541320088705,46.545324946612318,47.253504560042039,47.9616841734756,48.669863786913083,49.378043400354521,50.086223013799817,50.794402627249049,51.502582240702175,52.210761854159287,52.918941467620208,53.446400375430152,53.7529746247797,54.059548874133206,54.366123123490723,54.672697372852213,54.979271622217709,55.2858458715872,55.5924201209607,55.898994370338187,56.205568619719656,56.08539197243708,55.9760056773178,55.866619382202671,55.757233087091635,55.6478467919847,55.538460496881768,55.429074201782974,55.319687906688287,54.976671938056775,54.442500403256865,53.908328868461105,53.374157333669636,52.839985798882211,52.305814264099141,51.77164272932017,51.237471194545485,50.703299659774913,50.169128125008562,49.377605501247075,48.414511430624778,47.451417360006786,46.48832328939303,45.525229218783657,44.562135148178562,43.59904107757778,42.635947006981311,41.672852936389162,40.709758865801305,39.467586300775693,38.075136641993879,36.682686983216534,35.290237324443609,33.897787665675111,32.505338006911053,31.112888348151404,29.720438689396243,28.327989030645508,26.935539371899175,25.244123021062677,23.424573041687573,21.605023062316953,19.785473082950986,17.9659231035896,16.146373124232795,14.326823144880589,12.507273165532908,10.687723186189869,8.8681732068514041,6.7312051238513915,4.488427005929867,2.2456488880130312,0.0028707701008899951,-2.2399073478065139,-4.4826854657092978,-6.7254635836072758,-8.9682417015005953,-11.21101981938928,-13.453797937273176,-16.031314624201144,-18.692519908378333,-21.353725192550609,-24.014930476717844,-26.676135760880079,-29.337341045037288,-31.998546329189466,-34.659751613336674,-37.320956897478844,-39.982162181616104,-42.995435583523616,-46.070842568320586,-49.146249553112582,-52.221656537899875,-55.297063522682109,-58.372470507459532,-61.447877492231946,-64.523284476999578,-67.598691461762286,-70.674098446520148,-74.118566623953939,-77.60404547658564,-81.089524329212026,-84.575003181832969,-88.060482034448626,-91.545960887058754,-95.031439739663568,-98.516918592262911,-102.0023974448571,-105.48787629744562,-109.36087452424934,-113.25427236325291,-117.14767020225092,-121.04106804124346,-124.93446588023028,-128.82786371921205,-132.72126155818793,-136.61465939715836,-140.50805723612345,-144.40145507508274,0.80139015781771716,0.80139015781771716,0.80139015781771716,0.80139015781771716,0.80139015781771716,0.80139015781771716,0.80139015781771716,0.80139015781771716,0.80139015781771716,0.80139015781771716,0.80139015781771716,0.80139015781771716
DP 202,211.43039142329033,0.0033106807120957993,-133.65976006956163,-130.09325756186018,-126.52675505415584,-122.96025254644911,-119.39375003873954,-115.8272475310274,-112.26074502331262,-108.69424251559528,-105.1277400078751,-101.56123750015243,-98.0009666561128,-94.559098600162486,-91.117230544209534,-87.67536248825391,-84.233494432295743,-80.791626376334946,-77.349758320371478,-73.90789026440541,-70.4660222084367,-67.024154152465414,-63.607428221807332,-60.416983795467686,-57.226539369125533,-54.036094942780814,-50.84565051643353,-47.655206090083716,-44.464761663731323,-41.274317237376415,-38.083872811018956,-34.893428384658939,-31.756349546013752,-28.921679067237037,-26.087008588457714,-23.252338109675811,-20.41766763089133,-17.582997152104227,-14.748326673314528,-11.913656194522233,-9.0789857157273577,-6.2443152369298982,-3.4971295579199357,-1.099887212670084,1.2973551325823,3.6945974778372417,6.0918398230947117,8.48908216835475,10.886324513617323,13.283566858882452,15.680809204150112,18.078051549420319,20.352039543899739,22.256259825925166,24.160480107953138,26.064700389983656,27.968920672016758,29.873140954052449,31.77736123609068,33.6815815181314,35.585801800174707,37.490022082220584,39.237590627506151,40.619632284116229,42.0016739407288,43.383715597343915,44.765757253961624,46.147798910581841,47.529840567204687,48.911882223830055,50.293923880457982,51.675965537088459,52.873656559121585,53.728977138301204,54.584297717483423,55.439618296668172,56.294938875855529,57.150259455045479,58.005580034237965,58.860900613432996,59.716221192630634,60.571541771830873,61.222721492692521,61.567685102121011,61.912648711552158,62.257612320985793,62.602575930422091,62.947539539861,63.292503149302412,63.637466758746527,63.982430368193207,64.327393977642458,64.457334518296591,64.3244645694679,64.191594620641922,64.058724671818439,63.925854722997627,63.7929847741794,63.660114825363877,63.52724487655091,63.394374927740586,63.261504978932912,61.777259170866749,61.210134016485206,60.643008862106285,60.075883707730078,59.508758553356486,58.941633398985573,58.374508244617282,57.807383090251669,57.028774879176325,56.077131441760109,55.125488004346558,54.173844566935649,53.22220112952747,52.270557692122004,51.318914254719182,50.367270817319088,49.41562737992173,48.463983942527065,47.3126119025032,46.02808431428852,44.743556726076619,43.4590291378674,42.17450154966096,40.889973961457272,39.605446373256363,38.32091878505814,37.036391196862738,35.751863608670014,34.283532618525221,32.716227892967609,31.14892316741285,29.581618441860865,28.01431371631169,26.447008990765347,24.879704265221807,23.31239953968112,21.745094814143204,20.177790088608113,18.444783867749358,16.640759923471983,14.836735979197442,13.032712034925837,11.228688090657046,9.42466414639119,7.620640202128202,5.8166162578680458,4.0125923136108135,2.208568369356446,0.2572026433320132,-1.7432788668726209,-3.7437603770743362,-5.7442418872731258,-7.7447233974689418,-9.7452049076619,-11.745686417851843,-13.746167928038876,-15.746649438223047,-17.7471309484042,-19.877906799624732,-22.041257775552058,-24.204608751476375,-26.367959727397572,-28.5313107033157,-30.694661679230673,-32.858012655142588,-35.021363631051415,-37.184714606957115,-39.348065582859796,-41.627728795595281,-43.927918990591159,-46.228109185583882,-48.528299380573756,-50.828489575560496,-53.128679770544274,-55.428869965524981,-57.729060160502648,-60.0292503554773,-62.329440550449029,-64.735770366726172,-67.153894588973941,-69.572018811218413,-71.990143033459518,-74.408267255697581,-76.8263914779321,-79.244515700163575,-81.662639922391563,-84.080764144616424,-86.4988883668379,-89.018568951871643,-91.54359561907556,-94.068622286276153,-96.593648953473334,-99.118675620667275,-101.64370228785789,-104.16872895504525,-106.69375562222902,-109.21878228940979,-111.74380895658689,0.49656832777935372,0.49656832777935372,0.49656832777935372,0.49656832777935372,0.49656832777935372,0.49656832777935372,0.49656832777935372,0.49656832777935372,0.49656832777935372,0.49656832777935372,0.49656832777935372,0.49656832777935372
DP 203,275.68366966366727,0.003461321359978091,-168.55113496073875,-163.82818884389474,-159.10524272704822,-154.382296610199,-149.65935049334686,-144.93640437649213,-140.21345825963456,-135.49051214277449,-130.76756602591126,-126.04461990904562,-121.33134258443442,-116.80177414054009,-112.27220569664314,-107.74263725274358,-103.21306880884114,-98.683500364936037,-94.153931921028288,-89.624363477117825,-85.094795033204676,-80.565226589288727,-76.074234777131849,-71.930436297158863,-67.786637817183333,-63.642839337205054,-59.499040857224223,-55.355242377240813,-51.211443897254689,-47.067645417265936,-42.923846937274647,-38.780048457280671,-34.7166970839071,-31.109217717395424,-27.501738350881094,-23.894258984364075,-20.28677961784441,-16.6793002513221,-13.071820884797091,-9.4643415182694248,-5.856862151739108,-2.2493827852061341,1.2293949413929337,4.1933600257049282,7.1573251100195057,10.121290194336718,13.08525527865652,16.049220362978954,19.013185447303989,21.977150531631651,24.941115615961923,27.905080700294771,30.693178808166444,32.953669337362129,35.214159866560458,37.474650395761387,39.735140924964945,41.995631454171125,44.2561219833799,46.51661251259133,48.777103041805347,51.037593571021972,53.082561154805532,54.624633377759025,56.166705600715247,57.708777823674019,59.250850046635449,60.792922269599522,62.334994492566139,63.877066715535371,65.41913893850726,66.961211161481756,68.260044020658782,69.107140063824772,69.954236106993321,70.801332150164555,71.64842819333839,72.495524236514953,73.342620279694032,74.189716322875739,75.036812366060133,75.883908409247127,76.473978036377432,76.6785019657919,76.883025895209087,77.087549824628908,77.29207375405133,77.496597683476466,77.7011216129042,77.9056455423346,78.110169471767662,78.314693401203314,78.262072699049313,77.895158712576134,77.528244726105612,77.161330739637776,76.794416753172683,76.427502766710219,76.060588780250427,75.693674793793264,75.326760807338871,74.95984682088708,72.63126569093474,71.773215107798265,70.915164524664647,70.057113941533643,69.19906335840534,68.341012775279779,67.482962192156947,66.624911609036729,65.541601074088291,64.27398307093604,63.006365067786504,61.738747064639639,60.471129061495667,59.203511058354358,57.935893055215722,56.668275052079927,55.400657048946847,54.133039045816531,52.665900370395342,51.065744770284489,49.465589170176472,47.865433570071211,46.265277969968757,44.66512236986906,43.064966769772205,41.464811169678086,39.864655569586823,38.264499969498281,36.492894690219039,34.62896785973566,32.765041029255109,30.901114198777396,29.037187368302515,27.173260537830483,25.309333707361258,23.445406876894928,21.581480046431366,19.717553215970682,17.709993156372992,15.640873574208788,13.571753992047389,11.502634409889037,9.433514827733509,7.3643952455809574,5.2952756634313056,3.226156081284516,1.1570364991406965,-0.91208308300022845,-3.0992688400965642,-5.3258114768122908,-7.5523541135250607,-9.7788967502348836,-12.005439386941697,-14.231982023645607,-16.458524660346466,-18.6850672970444,-20.91160993373942,-23.138152570431377,-25.46070018133539,-27.807250170104705,-30.15380015887099,-32.500350147634144,-34.846900136394169,-37.193450125151024,-39.5400001139048,-41.88655010265547,-44.233100091402967,-46.579650080147417,-49.004840045322254,-51.443908527882712,-53.882977010440058,-56.322045492994491,-58.761113975545769,-61.200182458094034,-63.639250940639165,-66.078319423181355,-68.5173879057204,-70.956456388256541,-73.461605299951728,-75.974097175551648,-78.4865890511483,-80.999080926741485,-83.511572802331557,-86.024064677918247,-88.536556553501612,-91.0490484290816,-93.561540304658479,-96.074032180231825,-98.64600283398083,-101.22110454152651,-103.79620624906892,-106.37130795660795,-108.94640966414357,-111.52151137167593,-114.09661307920476,-116.67171478673029,-119.2468164942525,-121.82191820177123,0.50078967091131144,0.50078967091131144,0.50078967091131144,0.50078967091131144,0.50078967091131144,0.50078967091131144,0.50078967091131144,0.50078967091131144,0.50078967091131144,0.50078967091131144,0.50078967091131144,0.50078967091131144
DP 204,67.799713693415725,0.0013155241739897306,-22.563998336968385,-22.072420632889646,-21.58084292881021,-21.089265224730045,-20.597687520649163,-20.106109816567546,-19.614532112485236,-19.122954408402219,-18.631376704318455,-18.139799000234007,-17.648722716205942,-17.167173508053526,-16.685624299900379,-16.20407509174651,-15.72252588359194,-15.240976675436649,-14.759427467280627,-14.277878259123883,-13.796329050966422,-13.314779842808257,-12.835314830414179,-12.374607776904528,-11.913900723394157,-11.453193669883085,-10.992486616371293,-10.531779562858784,-10.071072509345546,-9.61036545583159,-9.1496584023169358,-8.68895134880155,-8.2328679254555226,-7.80298536442821,-7.3731028034001689,-6.9432202423713916,-6.5133376813418815,-6.0834551203116352,-5.6535725592806507,-5.2236899982489327,-4.7938074372164756,-4.36392487618329,-3.94210092611833,-3.5525118007849419,-3.1629226754508197,-2.7733335501159564,-2.3837444247803559,-1.9941552994440139,-1.6045661741069344,-1.2149770487691154,-0.82538792343055867,-0.43579879809126315,-0.058476012740146674,0.282047288871614,0.62257059048412722,0.96309389209739382,1.3036171937114158,1.6441404953261911,1.9846637969417178,2.325187098558,2.6657104001750302,3.00623370179282,3.3296399257002181,3.6131056274793809,3.8965713292593112,4.1800370310400092,4.4635027328214765,4.7469684346037138,5.0304341363867149,5.3138998381704905,5.5973655399550317,5.88083124174034,6.1418344634360063,6.3611210440539505,6.5804076246726719,6.7996942052921883,7.018980785912488,7.2382673665335737,7.4575539471554473,7.6768405277781051,7.89612710840154,8.1154136890257664,8.3065436498583054,8.4554380156515911,8.6043323814456834,8.7532267472405767,8.9021211130362747,9.0510154788327846,9.1999098446300938,9.348804210428213,9.497698576227128,9.6465929420268655,9.7614267464758573,9.83463026050612,9.9078337745372167,9.9810372885691461,10.054240802601893,10.127444316635483,10.200647830669881,10.273851344705117,10.347054858741187,10.420258372778074,10.439625261979048,10.432731163436,10.425837064893813,10.418942966352468,10.412048867811981,10.405154769272352,10.39826067073356,10.391366572195627,10.338456179742387,10.247895301444675,10.157334423147839,10.066773544851886,9.9762126665567976,9.8856517882625976,9.795090909969284,9.7045300316768337,9.61396915338527,9.5234082750945834,9.38096271101928,9.20392653905207,9.026890367085759,8.84985419512036,8.6728180231558678,8.49578185119228,8.3187456792295986,8.1417095072678247,7.9646733353069656,7.7876371633470063,7.55300351252227,7.2873549970483733,7.021706481575424,6.756057966103409,6.4904094506323267,6.2247609351621769,5.9591124196929659,5.69346390422469,5.4278153887573488,5.1621668732909409,4.8333920735685441,4.477562086522993,4.121732099478395,3.7659021124347913,3.4100721253921482,3.0542421383504914,2.6984121513098036,2.3425821642700848,1.9867521772313463,1.63092219019358,1.2066176447592261,0.75948738355251222,0.31235712234679813,-0.13477313885791634,-0.58190340006162078,-1.0290336612643389,-1.4761639224660366,-1.9232941836667372,-2.370424444866452,-2.8175547060651494,-3.3382940787588433,-3.8774365990294055,-4.4165791192989046,-4.9557216395673311,-5.49486415983469,-6.0340066801009584,-6.5731492003661582,-7.1122917206302922,-7.651434240893356,-8.1905767611553539,-8.8083959152880773,-9.44010005617573,-10.071804197062322,-10.703508337947907,-11.335212478832407,-11.966916619715894,-12.598620760598291,-13.230324901479669,-13.86202904235998,-14.493733183239287,-15.208920350308391,-15.9333842859448,-16.657848221580071,-17.382312157214169,-18.106776092847127,-18.8312400284789,-19.555703964109526,-20.280167899738942,-21.00463183536726,-21.729095770994409,-22.541883637129391,-23.359321009973556,-24.176758382816523,-24.994195755658311,-25.811633128498869,-26.629070501338305,-27.44650787417654,-28.263945247013503,-29.081382619849315,-29.898819992683926,0.17026525482116214,0.17026525482116214,0.17026525482116214,0.17026525482116214,0.17026525482116214,0.17026525482116214,0.17026525482116214,0.17026525482116214,0.17026525482116214,0.17026525482116214,0.17026525482116214,0.17026525482116214
DP 205,83.123464867574583,0.0021659174351042819,-42.692330100372963,-41.72668888551231,-40.761047670650257,-39.795406455786853,-38.829765240922107,-37.864124026056004,-36.898482811188536,-35.932841596319705,-34.96720038144948,-34.001559166577941,-33.036979946925705,-32.092578837229475,-31.1481777275319,-30.203776617832965,-29.259375508132667,-28.314974398430998,-27.370573288727975,-26.426172179023585,-25.481771069317833,-24.537369959610739,-23.597366899432718,-22.696946700738806,-21.796526502043552,-20.896106303346947,-19.995686104649025,-19.095265905949724,-18.19484570724909,-17.294425508547111,-16.394005309843813,-15.493585111139145,-14.602867705467583,-13.767133405073196,-12.931399104677446,-12.095664804280306,-11.259930503881808,-10.424196203481914,-9.58846190308065,-8.7527276026780036,-7.9169933022739816,-7.0812590018685961,-6.2623092123273914,-5.5104982594966136,-4.7586873066644682,-4.0068763538309451,-3.2550654009960609,-2.5032544481597996,-1.7514434953221665,-0.99963254248316258,-0.24782158964279111,0.50398936319895138,1.2304939605617189,1.8810785346865302,2.5316631088127313,3.1822476829403237,3.8328322570693047,4.4834168311996807,5.1340014053314365,5.7845859794645911,6.4351705535991277,7.0857551277350579,7.7014286217492813,8.2356415538775956,8.7698544860073184,9.3040674181384624,9.8382803502709937,10.372493282404953,10.906706214540316,11.440919146677098,11.975132078815287,12.509345010954878,12.998350060268262,13.403396392012807,13.808442723758786,14.213489055506196,14.618535387255054,15.02358171900533,15.428628050757052,15.833674382510186,16.238720714264772,16.643767046020788,16.992986446220627,17.258464129874419,17.523941813529706,17.789419497186451,18.054897180844627,18.320374864504277,18.585852548165406,18.851330231827966,19.116807915492029,19.382285599157512,19.581333959390619,19.699189528984387,19.81704509857963,19.934900668176375,20.05275623777462,20.170611807374357,20.288467376975579,20.406322946578307,20.5241785161825,20.642034085788211,20.611915926293062,20.57629725844691,20.540678590602294,20.505059922759177,20.469441254917619,20.433822587077575,20.39820391923908,20.3625852514021,20.24042111271384,20.047445555983398,19.854469999254505,19.661494442527186,19.468518885801444,19.275543329077266,19.082567772354672,18.889592215633627,18.696616658914156,18.503641102196273,18.214935529861172,17.862408439025444,17.509881348191303,17.15735425735879,16.8048271665279,16.452300075698624,16.09977298487097,15.747245894044894,15.394718803220472,15.042191712397651,14.585411251612717,14.072492844821742,13.559574438032461,13.046656031244831,12.533737624458871,12.020819217674575,11.507900810891954,10.994982404111003,10.482063997331689,9.9691455905540671,9.3440801444801043,8.6709497886518569,7.9978194328252989,7.3246890770004951,6.651558721177385,5.9784283653560211,5.3052980095363687,4.6321676537184242,3.9590372979022193,3.2859069420877254,2.4932331143875652,1.6607099561389849,0.82818679789216254,-0.0043363603528959183,-0.83685951859617635,-1.6693826768377233,-2.5019058350774666,-3.3344289933154596,-4.1669521515517145,-4.9994753097861677,-5.9585166802343155,-6.9491890985682234,-7.9398615169002822,-8.9305339352304429,-9.9212063535587411,-10.91187877188513,-11.902551190209653,-12.893223608532287,-13.883896026853041,-14.874568445171928,-15.998715262945273,-17.146417870759013,-18.294120478570886,-19.441823086380982,-20.589525694189184,-21.737228301995589,-22.884930909800119,-24.032633517602836,-25.180336125403702,-26.328038733202771,-27.61598183237081,-28.919508681213081,-30.223035530053341,-31.526562378891544,-32.830089227727782,-34.13361607656195,-35.437142925394163,-36.740669774224209,-38.044196623052351,-39.347723471878417,-40.798718570847292,-42.257476623915657,-43.716234676981948,-45.174992730046128,-46.633750783108319,-48.092508836168406,-49.551266889226447,-51.0100249422823,-52.468782995336177,-53.927541048387916,0.30080325638187561,0.30080325638187561,0.30080325638187561,0.30080325638187561,0.30080325638187561,0.30080325638187561,0.30080325638187561,0.30080325638187561,0.30080325638187561,0.30080325638187561,0.30080325638187561,0.30080325638187561
DP 206,90.336441883680834,0.0049782336739979671,-104.17107772542933,-101.77884278442829,-99.386607843424031,-96.994372902416345,-94.602137961405433,-92.209903020391238,-89.817668079373689,-87.425433138352872,-85.0331981973288,-82.640963256301475,-80.2514524681485,-77.913701099654645,-75.5759497311576,-73.238198362657187,-70.900446994153569,-68.562695625646612,-66.224944257136443,-63.887192888623012,-61.549441520106235,-59.211690151586247,-56.885202480364974,-54.660089149523237,-52.434975818678261,-50.209862487830087,-47.984749156978673,-45.759635826124075,-43.534522495266252,-41.30940916440516,-39.084295833540864,-36.859182502673377,-34.658854364663235,-32.598977214686428,-30.539100064706314,-28.479222914722914,-26.41934576473621,-24.359468614746223,-22.299591464752908,-20.239714314756309,-18.179837164756425,-16.119960014753236,-14.102808823494453,-12.256563486486524,-10.41031814947533,-8.5640728124608572,-6.7178274754431175,-4.8715821384220863,-3.0253368013977879,-1.1790914643702044,0.6671538726606423,2.5133992096947644,4.2955143594352219,5.8852365226144867,7.4749586857970511,9.06468084898294,10.654403012172141,12.244125175364681,13.833847338560519,15.423569501759703,17.013291664962154,18.603013828167963,20.104740482362967,21.401140816588804,22.697541150817994,23.993941485050513,25.290341819286432,26.586742153525673,27.883142487768282,29.179542822014238,30.475943156263579,31.77234349051627,32.955506710477728,33.928369374369652,34.901232038264993,35.874094702163717,36.84695736606588,37.819820029971432,38.79268269388038,39.765545357792767,40.73840802170853,41.711270685627717,42.545296672264605,43.171064362214331,43.796832052167545,44.422599742124142,45.0483674320843,45.674135122047893,46.299902812014935,46.925670501985444,47.551438191959413,48.177205881936914,48.6390754239592,48.90062156472559,49.162167705495627,49.423713846269173,49.685259987046209,49.94680612782679,50.208352268610959,50.469898409398674,50.731444550189806,50.99299069098462,50.83913578659849,50.72528388703423,50.611431987473608,50.497580087916589,50.383728188363222,50.269876288813457,50.156024389267323,50.04217248972477,49.7185759731595,49.223366619873616,48.728157266591424,48.232947913312977,47.73773856003821,47.2425292067672,46.747319853499839,46.252110500236228,45.756901146976325,45.261691793720132,44.5367060242285,43.658532357448522,42.780358690672365,41.902185023899968,41.024011357131407,40.145837690366655,39.267664023605754,38.38949035684859,37.511316690095271,36.63314302334576,35.507181208164063,34.247791402091636,32.988401596023195,31.729011789958616,30.469621983897969,29.210232177841217,27.950842371788362,26.691452565739457,25.432062759694393,24.172672953653276,22.649310828201376,21.012813253167085,19.376315678136784,17.739818103110608,16.10332052808841,14.466822953070315,12.830325378056264,11.193827803046211,9.55733022804024,7.9208326530383175,6.0055556844886455,3.9973487380126436,1.9891417915407839,-0.019065154926938364,-2.0272721013904791,-4.0354790478499458,-6.0436859943051742,-8.05189294075629,-10.060099887203309,-12.06830683364613,-14.369085151410308,-16.743009768781036,-19.116934386147417,-21.49085900350936,-23.864783620866884,-26.238708238219992,-28.612632855568673,-30.986557472912942,-33.360482090252809,-35.734406707588306,-38.414786902806505,-41.149250901951319,-43.883714901091707,-46.618178900227939,-49.352642899359765,-52.087106898487328,-54.821570897610528,-57.556034896729422,-60.290498895843974,-63.024962894954321,-66.079659211906815,-69.169940260701836,-72.260221309492167,-75.35050235827778,-78.440783407058674,-81.531064455834766,-84.621345504606211,-87.7116265533727,-90.801907602134662,-93.892188650891768,-97.318054144766208,-100.76158531678776,-104.20511648880455,-107.64864766081628,-111.09217883282336,-114.53571000482559,-117.97924117682288,-121.42277234881522,-124.8663035208029,-128.30983469278559,0.70719329068613057,0.70719329068613057,0.70719329068613057,0.70719329068613057,0.70719329068613057,0.70719329068613057,0.70719329068613057,0.70719329068613057,0.70719329068613057,0.70719329068613057,0.70719329068613057,0.70719329068613057
DP 207,111.20078277038381,0.0038006126608981818,-92.99550321641081,-90.77835197835843,-88.561200740303249,-86.344049502245454,-84.126898264184845,-81.909747026121465,-79.6925957880554,-77.475444549986577,-75.258293311914969,-73.041142073840575,-70.826766693904673,-68.665133143409761,-66.503499592912149,-64.341866042411823,-62.180232491908718,-60.0185989414029,-57.856965390894359,-55.695331840383062,-53.533698289869072,-51.372064739352304,-49.221850277683394,-47.174408695019117,-45.126967112352155,-43.079525529682527,-41.032083947010257,-38.984642364335286,-36.937200781657666,-34.889759198977345,-32.842317616294388,-30.794876033608734,-28.772386211259782,-26.891291269820567,-25.010196328378662,-23.129101386934003,-21.248006445486613,-19.366911504036494,-17.485816562583643,-15.604721621128084,-13.723626679669778,-11.842531738208756,-10.004034911812068,-8.3359325589022877,-6.6678302059898176,-4.999727853074635,-3.3316255001567727,-1.6635231472361958,0.0045792056870736075,1.6726815586130501,3.3407839115417151,5.0088862644730812,6.6138316516146389,8.0293037535038909,9.44477585539586,10.860247957290554,12.275720059187968,13.691192161088122,15.106664262990993,16.522136364896578,17.937608466804864,19.353080568715914,20.683179579818983,21.814071350041072,22.944963120265925,24.075854890493506,25.206746660723859,26.33763843095694,27.468530201192767,28.599421971431369,29.730313741672695,30.861205511916747,31.884143982152079,32.706594836966993,33.529045691784638,34.351496546605084,35.173947401428308,35.996398256254331,36.818849111083061,37.641299965914627,38.46375082074897,39.286201675586049,39.978920117415988,40.47703687410884,40.9751536308045,41.473270387503014,41.971387144204336,42.469503900908485,42.967620657615406,43.465737414325204,43.963854171037781,44.461970927753185,44.810343708419524,44.97569292857613,45.1410421487356,45.306391368897884,45.471740589063046,45.637089809231128,45.802439029402031,45.967788249575818,46.133137469752477,46.298486689931977,45.958023862481937,45.78876825492997,45.619512647380944,45.45025703983486,45.2810014322917,45.111745824751452,44.942490217214065,44.773234609679626,44.421966293861807,43.92177536142998,43.421584429001136,42.921393496575313,42.421202564152438,41.921011631732526,41.420820699315605,40.920629766901747,40.420438834490795,39.920247902082856,39.22624657190407,38.403035256673007,37.579823941445021,36.756612626220011,35.933401310998136,35.1101899957793,34.286978680563507,33.463767365350783,32.640556050141114,31.81734473493449,30.791211968347831,29.655810854031156,28.520409739717653,27.385008625407274,26.24960751110001,25.114206396795947,23.978805282494964,22.843404168197143,21.708003053902452,20.572601939610909,19.227386205725285,17.792246379155468,16.357106552588803,14.921966726025444,13.486826899465276,12.051687072908365,10.616547246354671,9.181407419804172,7.746267593256948,6.3111277667129295,4.6607683003579519,2.9386662416886704,1.2165641830226779,-0.50553787564001618,-2.2276399342993791,-3.9497419929554995,-5.6718440516082458,-7.3939461102577129,-9.11604816890393,-10.838150227546782,-12.780077480250476,-14.776963628738038,-16.77384977722215,-18.770735925702748,-20.767622074179851,-22.764508222653422,-24.761394371123494,-26.758280519590059,-28.755166668053132,-30.752052816512727,-32.973847958018219,-35.235335422845722,-37.496822887669722,-39.758310352490412,-42.019797817307584,-44.281285282121381,-46.542772746931739,-48.804260211738665,-51.0657476765422,-53.327235141342328,-55.819463715752327,-58.337332614554789,-60.85520151335367,-63.373070412148557,-65.8909393109399,-68.408808209727326,-70.926677108511171,-73.4445460072911,-75.962414906067437,-78.480283804839928,-81.23716037295226,-84.006618670112388,-86.77607696726875,-89.545535264421176,-92.314993561569821,-95.084451858714687,-97.8539101558557,-100.62336845299274,-103.39282675012608,-106.16228504725547,0.56290164752003591,0.56290164752003591,0.56290164752003591,0.56290164752003591,0.56290164752003591,0.56290164752003591,0.56290164752003591,0.56290164752003591,0.56290164752003591,0.56290164752003591,0.56290164752003591,0.56290164752003591
DP 208,188.67616781964747,0.0036745148545077413,-136.15365659219921,-132.59290071922038,-129.03214484623865,-125.47138897325389,-121.91063310026614,-118.34987722727561,-114.78912135428223,-111.22836548128579,-107.66760960828643,-104.10685373528415,-100.55193599254454,-97.107943828516454,-93.663951664485452,-90.219959500451537,-86.775967336414666,-83.331975172374925,-79.887983008332256,-76.443990844286716,-72.999998680238278,-69.556006516186869,-66.135664741896107,-62.928178710951236,-59.7206926800034,-56.513206649052904,-53.305720618099457,-50.098234587143182,-46.890748556184136,-43.683262525222212,-40.475776494257509,-37.268290463289993,-34.11132173003115,-31.240620867123628,-28.369920004213245,-25.499219141299985,-22.628518278383858,-19.757817415464842,-16.887116552542935,-14.016415689618155,-11.145714826690517,-8.2750139637599958,-5.4878590207694771,-3.0348917059952303,-0.58192439121817008,1.8710429235617285,4.3240102383444325,6.7769775531299894,9.2299448679183644,11.682912182709568,14.135879497503598,16.588846812300446,18.922803715411185,20.899724883838932,22.8766460522695,24.853567220702928,26.830488389139205,28.807409557578296,30.784330726020205,32.761251894465005,34.738173062912566,36.715094231363025,38.538745279643315,40.004760011140164,41.470774742639875,42.936789474142429,44.402804205647826,45.868818937156107,47.3348336686672,48.800848400181145,50.266863131697939,51.732877863217567,53.015744571733876,53.958474291406304,54.901204011081575,55.8439337307597,56.786663450440614,57.72939317012451,58.6721228898112,59.61485260950078,60.557582329193174,61.500312048888432,62.236705431329035,62.663589432082063,63.090473432838039,63.517357433596871,63.9442414343586,64.371125435123218,64.798009435890734,65.224893436661091,65.651777437434276,66.0786614382105,66.284018015852752,66.2186142009755,66.1532103861012,66.0878065712298,66.02240275636133,65.956998941495712,65.891595126633177,65.826191311773414,65.7607874969166,65.6953836820627,64.357042695099238,63.834786199649919,63.312529704203683,62.790273208760333,62.26801671331993,61.745760217882513,61.2235037224481,60.701247227016616,59.951387377603368,59.015302690678659,58.079218003756978,57.143133316838309,56.2070486299226,55.270963943009939,54.334879256100351,53.398794569193726,52.462709882290056,51.5266251953895,50.37023790413069,49.066978739414466,47.763719574701305,46.460460409991185,45.1572012452842,43.853942080580225,42.550682915879371,41.247423751181557,39.944164586486856,38.640905421795189,37.129458527929671,35.505907521710427,33.882356515494351,32.258805509281409,30.635254503071582,29.011703496864921,27.388152490661362,25.764601484460993,24.141050478263725,22.5174994720696,20.700827509019632,18.801386161942627,16.901944814868781,15.002503467798226,13.103062120730842,11.203620773666719,9.30417942660579,7.4047380795480393,5.5052967324935587,3.6058553854422759,1.5293694869500474,-0.606133493285149,-2.7416364735170782,-4.8771394537457375,-7.0126424339710782,-9.1481454141932161,-11.28364839441198,-13.419151374627489,-15.554654354839808,-17.690157335048731,-19.987313493545784,-22.324884856571462,-24.662456219593739,-27.000027582612553,-29.337598945627892,-31.675170308639753,-34.0127416716482,-36.350313034653126,-38.687884397654628,-41.02545576065274,-43.511990166037243,-46.024813823626204,-48.537637481211725,-51.05046113879397,-53.563284796372741,-56.076108453948244,-58.588932111520236,-61.101755769088847,-63.614579426654075,-66.127403084216013,-68.7801375043367,-71.448419034132627,-74.116700563925065,-76.784982093713651,-79.4532636234987,-82.1215451532799,-84.789826683057555,-87.45810821283149,-90.126389742601773,-92.794671272368419,-95.599576311222791,-98.411673420429082,-101.22377052963155,-104.0358676388304,-106.84796474802552,-109.66006185721689,-112.47215896640432,-115.28425607558803,-118.09635318476816,-120.90845029394426,0.55609747055529624,0.55609747055529624,0.55609747055529624,0.55609747055529624,0.55609747055529624,0.55609747055529624,0.55609747055529624,0.55609747055529624,0.55609747055529624,0.55609747055529624,0.55609747055529624,0.55609747055529624
DP 209,163.08849686185707,0.0031879486215070246,-105.48875077492694,-102.79907012520223,-100.10938947547496,-97.419708825745275,-94.730028176013022,-92.040347526278339,-89.350666876541069,-86.660986226801356,-83.971305577059027,-81.281624927314311,-78.596022488932732,-75.987906837460088,-73.379791185984985,-70.771675534507409,-68.163559883027347,-65.555444231544769,-62.947328580059654,-60.339212928572124,-57.731097277082057,-55.122981625589482,-52.531465337762953,-50.0893448919516,-47.647224446137812,-45.205104000321668,-42.762983554503037,-40.320863108682019,-37.878742662858535,-35.436622217032628,-32.99450177120432,-30.552381325373577,-28.145974185784407,-25.941944698698208,-23.737915211609558,-21.533885724518409,-19.329856237424821,-17.125826750328748,-14.921797263230189,-12.71776777612917,-10.513738289025685,-8.3097088019197241,-6.1653386811388113,-4.2596088452153422,-2.3538790092894488,-0.44814917336111632,1.4575806625696346,3.3633104985028348,5.2690403344384622,7.1747701703765268,9.0805000063170187,10.986229842259943,12.805895212452317,14.36736393140983,15.928832650369753,17.490301369332165,19.05177008829699,20.613238807264267,22.174707526233991,23.736176245206167,25.297644964180765,26.859113683157862,28.308044140394738,29.49438088803489,30.68071763567751,31.867054383322561,33.053391130970091,34.239727878620016,35.426064626272456,36.61240137392732,37.79873812158467,38.98507486924445,40.034536348421234,40.829797203940608,41.625058059462432,42.420318914986744,43.215579770513536,44.010840626042786,44.806101481574515,45.6013623371087,46.396623192645379,47.191884048184512,47.829819041303658,48.231761523123168,48.633704004945145,49.035646486769657,49.437588968596664,49.839531450426179,50.24147393225816,50.643416414092677,51.045358895929667,51.447301377769179,51.676514930417987,51.694611719257011,51.71270850809865,51.730805296942776,51.748902085789432,51.766998874638595,51.785095663490289,51.803192452344568,51.821289241201342,51.839386030060616,50.980918024947663,50.633910774937867,50.286903524930814,49.93989627492622,49.59288902492424,49.245881774924811,48.898874524927962,48.551867274933649,48.017996154066509,47.331233200186936,46.644470246309986,45.957707292435622,45.270944338563858,44.584181384694766,43.89741843082821,43.210655476964305,42.523892523103008,41.837129569244354,40.964119263882139,39.966941123457296,38.969762983035146,37.972584842615632,36.975406702198832,35.978228561784682,34.9810504213732,33.983872280964356,32.986694140558242,31.989516000154698,30.810664423263194,29.533986046412959,28.257307669565424,26.980629292720668,25.703950915878611,24.427272539039315,23.150594162202733,21.873915785368933,20.597237408537808,19.320559031709436,17.869517905795835,16.343746944374139,14.817975982955156,13.292205021539063,11.766434060125704,10.240663098715178,8.7148921373074515,7.1891211759024811,5.663350214500344,4.137579253101,2.4460936702139002,0.69936779169061869,-1.0473580868298176,-2.7940839653474066,-4.5408098438621147,-6.28753572237402,-8.034261600883,-9.7809874793891485,-11.527713357892496,-13.274439236392933,-15.178192561894839,-17.121204604450263,-19.064216647002738,-21.007228689552178,-22.950240732098614,-24.893252774642008,-26.836264817182379,-28.779276859719751,-30.722288902254093,-32.6653009447855,-34.758294765777755,-36.877757627257658,-38.997220488734506,-41.116683350208547,-43.2361462116795,-45.355609073147633,-47.475071934612757,-49.594534796074896,-51.713997657534136,-53.833460518990471,-56.098288258718277,-58.379269178259946,-60.660250097798517,-62.941231017333749,-65.222211936865918,-67.503192856394733,-69.7841737759205,-72.065154695442843,-74.346135614962179,-76.627116534478176,-79.053143210827074,-81.4868053175235,-83.920467424216753,-86.354129530906718,-88.787791637593358,-91.221453744276886,-93.655115850957074,-96.0887779576339,-98.52244006430756,-100.95610217097786,0.48487313848247132,0.48487313848247132,0.48487313848247132,0.48487313848247132,0.48487313848247132,0.48487313848247132,0.48487313848247132,0.48487313848247132,0.48487313848247132,0.48487313848247132,0.48487313848247132,0.48487313848247132
DP 210,256.65861296762949,0.0025997533387991417,-120.59247729269894,-117.25883679169826,-113.92519629069584,-110.59155578969117,-107.25791528868457,-103.92427478767584,-100.59063428666505,-97.2569937856521,-93.9233532846373,-90.589712783620286,-87.262602213683437,-84.059561568753963,-80.856520923822472,-77.65348027888885,-74.4504396339532,-71.247398989015565,-68.0443583440758,-64.841317699134052,-61.63827705419024,-58.435236409244368,-55.258333706010312,-52.316674948802593,-49.375016191592884,-46.433357434381207,-43.491698677167548,-40.550039919951907,-37.60838116273429,-34.666722405514662,-31.725063648293094,-28.7834048910695,-25.896537791784024,-23.320160206825783,-20.743782621865552,-18.167405036903297,-15.59102745193905,-13.01464986697275,-10.438272282004448,-7.8618946970341241,-5.2855171120617941,-2.7091395270874523,-0.22105215735328104,1.9138701787472774,4.0487925148498,6.1837148509543143,8.3186371870607765,10.453559523169238,12.588481859279662,14.723404195392098,16.858326531506481,18.993248867622853,21.006437277138946,22.65441930425893,24.302401331380935,25.950383358504897,27.598365385630817,29.246347412758791,30.89432943988869,32.542311467020568,34.190293494154417,35.838275521290292,37.335471579393719,38.480827771203245,39.626183963014739,40.771540154828244,41.916896346643725,43.062252538461181,44.207608730280619,45.352964922102046,46.498321113925449,47.643677305750884,48.616761944101761,49.269909045037245,49.923056145974762,50.576203246914233,51.229350347855664,51.882497448799207,52.53564454974461,53.188791650692089,53.84193875164155,54.495085852592887,54.96369600775315,55.155496383549192,55.347296759347223,55.539097135147244,55.730897510949305,55.9226978867534,56.1144982625594,56.306298638367508,56.498099014177605,56.689899389989655,56.694298900752273,56.469648973474989,56.244999046199752,56.020349118926532,55.795699191655309,55.571049264386133,55.34639933711896,55.121749409853862,54.89709948259074,54.672449555329671,53.0891333549134,52.50073617257047,51.912338990229635,51.323941807890861,50.735544625554155,50.147147443219431,49.558750260886818,48.9703530785562,48.212221518419788,47.315213459435505,46.41820540045331,45.52119734147319,44.6241892824951,43.72718122351916,42.8301731645453,41.933165105573494,41.036157046603783,40.139148987636148,39.0890184574748,37.936803867625763,36.784589277778863,35.632374687934032,34.480160098091382,33.327945508250814,32.175730918412391,31.023516328576054,29.871301738741877,28.719087148909793,27.432704738793351,26.074076166719742,24.715447594648307,23.356819022579018,21.998190450511874,20.639561878446898,19.280933306384064,17.92230473432344,16.563676162264912,15.205047590208586,13.731662604346052,12.209094361323823,10.686526118303735,9.16395787528594,7.6413896322703128,6.1188213892569223,4.5962531462457425,3.0736849032367362,1.5511166602299797,0.028548417225424394,-1.590465919319813,-3.2416301692054978,-4.8927944190889416,-6.5439586689701343,-8.19512291884905,-9.846287168725782,-11.497451418600168,-13.148615668472328,-14.799779918342297,-16.450944168209951,-18.182423012424206,-19.933981454153553,-21.685539895880588,-23.437098337605249,-25.188656779327548,-26.940215221047442,-28.691773662765005,-30.443332104480138,-32.194890546192916,-33.946448987903381,-35.765442018154715,-37.59633601979435,-39.42723002143164,-41.258124023066713,-43.089018024699392,-44.919912026329783,-46.750806027957822,-48.581700029583565,-50.412594031206943,-52.243488032828054,-54.132443855915739,-56.027851602284116,-57.923259348649971,-59.818667095013289,-61.7140748413742,-63.609482587732394,-65.504890334088259,-67.400298080441473,-69.295705826792272,-71.191113573140484,-73.139756351071739,-75.091201502435979,-77.0426466537977,-78.994091805156856,-80.945536956513365,-82.896982107867458,-84.848427259218866,-86.79987241056773,-88.7513175619141,-90.702762713257727,0.380538631593321,0.380538631593321,0.380538631593321,0.380538631593321,0.380538631593321,0.380538631593321,0.380538631593321,0.380538631593321,0.380538631593321,0.380538631593321,0.380538631593321,0.380538631593321
DP 211,163.2493540517001,0.0012720358105125138,-42.124085057557473,-41.049850174050142,-39.975615290541825,-38.90138040703247,-37.827145523522169,-36.752910640010825,-35.678675756498507,-34.604440872985208,-33.530205989470872,-32.455971105955541,-31.383365909819688,-30.341725081995811,-29.300084254170947,-28.25844342634505,-27.2168025985182,-26.175161770690348,-25.133520942861487,-24.091880115031628,-23.050239287200771,-22.00859845936894,-20.97359032250646,-19.998277031309676,-19.022963740111937,-18.047650448913238,-17.072337157713555,-16.097023866512941,-15.121710575311319,-14.146397284108748,-13.17108399290519,-12.195770701700694,-11.23472736825445,-10.354548027990626,-9.4743686877258035,-8.5941893474599986,-7.714010007193207,-6.8338306669254276,-5.95365132665666,-5.0734719863869033,-4.19329264611616,-3.31311330584444,-2.4567703501229392,-1.6957740591320962,-0.93477776814028357,-0.17378147714749767,0.58721481384625274,1.3482111048409813,2.1092073958366773,2.8702036868333471,3.6311999778309834,4.39219626882959,5.1188088481733525,5.7422689925500583,6.3657291369277385,6.9891892813064,7.6126494256860333,8.23610957006664,8.8595697144482273,9.4830298588307862,10.106490003214326,10.729950147598831,11.308454341030755,11.782059545029639,12.25566474902951,12.729269953030359,13.202875157032205,13.676480361035003,14.150085565038804,14.623690769043572,15.097295973049329,15.570901177056054,15.989835128683893,16.307235278004867,16.624635427326819,16.942035576649765,17.2594357259737,17.576835875298627,17.894236024624526,18.211636173951419,18.529036323279303,18.846436472608165,19.101004567214691,19.2613230949925,19.421641622771297,19.581960150551119,19.7422786783319,19.902597206113708,20.062915733896482,20.223234261680282,20.383552789465071,20.543871317250847,20.635216339918777,20.642258963114141,20.649301586310518,20.6563442095079,20.663386832706298,20.670429455905698,20.677472079106106,20.684514702307546,20.691557325509979,20.698599948713404,20.355304268954054,20.216577196846597,20.077850124740184,19.939123052634784,19.800395980530407,19.661668908427057,19.52294183632473,19.384214764223422,19.170895083877046,18.89654380576647,18.622192527656921,18.347841249548448,18.073489971440996,17.799138693334587,17.524787415229223,17.250436137124911,16.976084859021626,16.701733580919381,16.353049467512857,15.954808959562811,15.556568451613838,15.158327943665892,14.760087435719029,14.361846927773239,13.963606419828507,13.565365911884825,13.167125403942231,12.768884896000689,12.298152245307344,11.78838430973884,11.278616374171444,10.768848438605126,10.259080503039899,9.7493125674757621,9.2395446319127164,8.7297766963507648,8.22000876078989,7.7102408252301142,7.130913032029734,6.5217726971785135,5.91263236232837,5.3034920274793782,4.6943516926314892,4.0852113577847247,3.4760710229390765,2.8669306880945284,2.2577903532511132,1.6486500184088086,0.97341531080814148,0.27614831264505163,-0.42111868551690351,-1.1183856836777222,-1.8156526818373888,-2.51291967999594,-3.210186678153327,-3.9074536763095784,-4.6047206744647156,-5.3019876726186839,-6.0618694653539187,-6.8374056965377781,-7.61294192772045,-8.3884781589019255,-9.1640143900821975,-9.9395506212612457,-10.715086852439109,-11.490623083615755,-12.26615931479121,-13.04169554596548,-13.877023772258362,-14.722904191996818,-15.56878461173406,-16.414665031470186,-17.2605454512051,-18.10642587093885,-18.952306290671409,-19.798186710402803,-20.644067130133013,-21.489947549862052,-22.393768062482181,-23.304026971708332,-24.214285880933197,-25.124544790156754,-26.034803699379129,-26.945062608600136,-27.855321517819934,-28.765580427038369,-29.675839336255585,-30.58609824547149,-31.554162617614661,-32.525269957684166,-33.49637729775236,-34.467484637819233,-35.438591977884869,-36.409699317949183,-37.380806658012148,-38.35191399807384,-39.323021338134211,-40.294128678193275,0.19346960136827721,0.19346960136827721,0.19346960136827721,0.19346960136827721,0.19346960136827721,0.19346960136827721,0.19346960136827721,0.19346960136827721,0.19346960136827721,0.19346960136827721,0.19346960136827721,0.19346960136827721
DP 212,58.056424123659404,0.0016012706594018423,-24.846761555135782,-24.321022311536343,-23.795283067936126,-23.269543824335166,-22.74380458073346,-22.218065337130984,-21.692326093527779,-21.166586849923821,-20.640847606319106,-20.115108362713659,-19.589881537298716,-19.07439075438711,-18.558899971474759,-18.043409188561608,-17.527918405647739,-17.012427622733078,-16.496936839817668,-15.981446056901495,-15.465955273984548,-14.950464491066851,-14.437109159856355,-13.942973095863511,-13.448837031869896,-12.954700967875523,-12.460564903880355,-11.96642883988444,-11.472292775887736,-10.978156711890277,-10.484020647892041,-9.989884583893037,-9.5005008776540549,-9.03804749819286,-8.5755941187308729,-8.113140739268097,-7.6506873598045368,-7.188233980340188,-6.7257806008750469,-6.263327221409118,-5.8008738419423969,-5.3384204624748932,-4.8842886100031837,-4.4634432587991251,-4.0425979075942644,-3.6217525563886031,-3.20090720518214,-2.7800618539748752,-2.3592165027668117,-1.9383711515579456,-1.5175258003482806,-1.0966804491378146,-0.68857368413648878,-0.31868315939250308,0.0512073653523031,0.42109789009793014,0.79098841484437887,1.1608789395916486,1.5307694643397385,1.90065998908865,2.2705505138383777,2.6404410385889325,2.9924341530618173,3.3026659386839321,3.6128977243068863,3.9231295099306855,4.2333612955553308,4.5435930811808136,4.8538248668071393,5.1640566524343088,5.47428843806232,5.784520223691171,6.0710795967733278,6.31367527868184,6.5562709605912239,6.7988666425014763,7.0414623244125867,7.2840580063245612,7.5266536882374133,7.769249370151126,8.0118450520657039,8.2544407339811467,8.46710500726388,8.6348714603068437,8.8026379133507167,8.970404366395476,9.1381708194411235,9.30593727248766,9.47370372553509,9.64147017858342,9.8092366316326451,9.977003084682762,10.108216529542773,10.194753307715999,10.28129008589015,10.367826864065211,10.454363642241209,10.54090042041812,10.627437198595958,10.713973976774714,10.800510754954404,10.887047533134997,10.929600853449054,10.929314661808975,10.929028470169838,10.928742278531674,10.928456086894451,10.928169895258183,10.927883703622882,10.927597511988523,10.876912296125674,10.784990648841797,10.693069001558898,10.601147354276991,10.509225706996077,10.417304059716137,10.325382412437197,10.233460765159236,10.141539117882273,10.049617470606304,9.900272838869137,9.7126453128744021,9.5250177868807029,9.33739026088801,9.1497627348963615,8.9621352089057265,8.774507682916127,8.5868801569275455,8.3992526309399942,8.2116251049534661,7.9595933138655157,7.672881366556858,7.3861694192492759,7.0994574719427472,6.8127455246372763,6.5260335773328686,6.2393216300295133,5.9526096827272346,5.6658977354259985,5.3791857881258318,5.0211935716552354,4.632651465268478,4.2441093588828078,3.8555672524982758,3.4670251461148336,3.0784830397325136,2.6899409333512985,2.3013988269711816,1.9128567205921889,1.5243146142142987,1.0577533822918528,0.56518479192579751,0.0726162015608821,-0.4199523888028911,-0.91252097916551189,-1.4050895695270069,-1.8976581598873372,-2.39022675024653,-2.882795340604595,-3.375363930961496,-3.9524653576882494,-4.5507009922760862,-5.1489366268627039,-5.747172261448088,-6.3454078960322455,-6.94364353061515,-7.541879165196832,-8.1401147997772867,-8.7383504343564962,-9.3365860689344942,-10.025765586443097,-10.730995035777845,-11.436224485111371,-12.14145393444373,-12.846683383774852,-13.551912833104804,-14.257142282433529,-14.962371731761069,-15.667601181087404,-16.372830630412537,-17.175024542546353,-17.987993302236411,-18.800962061925144,-19.613930821612513,-20.426899581298585,-21.239868340983282,-22.052837100666675,-22.865805860348683,-23.678774620029383,-24.491743379708744,-25.407609206044306,-26.328891691251641,-27.250174176457598,-28.171456661662123,-29.09273914686533,-30.014021632067138,-30.9353041172676,-31.856586602466617,-32.777869087664321,-33.699151572860579,0.19348282748781442,0.19348282748781442,0.19348282748781442,0.19348282748781442,0.19348282748781442,0.19348282748781442,0.19348282748781442,0.19348282748781442,0.19348282748781442,0.19348282748781442,0.19348282748781442,0.19348282748781442
DP 213,52.200211354661647,0.0011878041105944513,-17.233928312257518,-16.876751987950716,-16.519575663643433,-16.162399339335636,-15.80522301502738,-15.44804669071859,-15.090870366409311,-14.733694042099552,-14.376517717789277,-14.019341393478518,-13.662505043483812,-13.312128269773572,-12.961751496062828,-12.61137472235156,-12.26099794863981,-11.910621174927559,-11.560244401214781,-11.209867627501522,-10.859490853787738,-10.509114080073465,-10.16015451299541,-9.8239499396042138,-9.4877453662125024,-9.15154079282028,-8.8153362194275253,-8.4791316460342738,-8.1429270726405,-7.8067224992462085,-7.4705179258514116,-7.1343133524560933,-6.8012693541780971,-6.4861354807293621,-6.1710016072800853,-5.8558677338302889,-5.54073386037997,-5.2255999869291152,-4.9104661134777317,-4.5953322400258232,-4.2801983665733809,-3.9650644931204115,-3.65547791951163,-3.3680808074510327,-3.0806836953898955,-2.7932865833282223,-2.5058894712660087,-2.2184923592032519,-1.9310952471399563,-1.6436981350761191,-1.356301023011744,-1.068903910946827,-0.79002524652203654,-0.53670224708941938,-0.28337924765624645,-0.03005624822251678,0.223266751211771,0.47658975064661457,0.72991275008201484,0.98323574951797243,1.2365587489544829,1.4898817483915547,1.7311924859903238,1.944474139543608,2.1577557930974689,2.3710374466519029,2.5843191002069106,2.7976007537624965,3.0108824073186531,3.2241640608753821,3.4374457144326938,3.6507273679905725,3.8480555459028496,4.0157554096310237,4.1834552733597929,4.3511551370891564,4.5188550008191131,4.68655486454966,4.8542547282808028,5.02195459201254,5.1896544557448685,5.3573543194777882,5.5047872191699181,5.6218191938847086,5.7388511686001218,5.8558831433161416,5.9729151180327742,6.089947092750025,6.2069790674678931,6.3240110421863722,6.44104301690547,6.558074991625177,6.6502341361060022,6.7119926322910484,6.7737511284767482,6.8355096246630653,6.8972681208500273,6.959026617037626,7.0207851132258634,7.0825436094147474,7.14430210560426,7.206060601794408,7.2428692126250676,7.2452408454547719,7.2476124782851326,7.2499841111161665,7.2523557439478505,7.2547273767802185,7.257099009613226,7.2594706424469031,7.2271844882417353,7.16654136720415,7.105898246167266,7.0452551251310638,6.9846120040955535,6.92396888306073,6.8633257620265944,6.8026826409931465,6.7420395199604011,6.681396398928328,6.5810554882688033,6.4542487591425575,6.3274420300170231,6.2006353008922153,6.0738285717681171,5.9470218426447357,5.820215113522079,5.69340838440013,5.5666016552789,5.4397949261583882,5.2682319025488233,5.072568684918016,4.87690546728796,4.681242249658645,4.485579032030075,4.289915814402252,4.0942525967751635,3.8985893791488282,3.7029261615232354,3.5072629438983873,3.2618244792150146,2.9950529256434986,2.728281372072749,2.4615098185027939,2.1947382649336111,1.927966711365215,1.6611951577975945,1.3944236042307525,1.1276520506646952,0.8608804970994185,0.53938458683186064,0.19964653464822674,-0.14009151753460211,-0.47982956971662527,-0.81956762189783561,-1.1593056740782524,-1.4990437262578467,-1.8387817784366389,-2.1785198306146358,-2.5182578827918132,-2.9175169517893367,-3.331656978242024,-3.7457970046938476,-4.1599370311447963,-4.5740770575948684,-4.9882170840440665,-5.4023571104923933,-5.8164971369398391,-6.2306371633864144,-6.6447771898321344,-7.123156427926558,-7.6128727118376442,-8.1025889957478441,-8.59230527965723,-9.082021563565748,-9.5717378474734129,-10.061454131380232,-10.551170415286196,-11.040886699191315,-11.530602983095587,-12.088969210061672,-12.654963929465186,-13.220958648867754,-13.786953368269362,-14.352948087670036,-14.918942807069742,-15.484937526468514,-16.050932245866306,-16.616926965263175,-17.182921684659075,-17.821871757620361,-18.464662311908956,-19.107452866196596,-19.750243420483244,-20.393033974768926,-21.035824529053674,-21.678615083337434,-22.32140563762017,-22.964196191901998,-23.606986746182795,0.13584548618339914,0.13584548618339914,0.13584548618339914,0.13584548618339914,0.13584548618339914,0.13584548618339914,0.13584548618339914,0.13584548618339914,0.13584548618339914,0.13584548618339914,0.13584548618339914,0.13584548618339914
DP 214,186.57030093901741,0.0018932488399116903,-69.551087983799221,-67.735722838044509,-65.920357692288178,-64.104992546530369,-62.289627400771117,-60.4742622550103,-58.658897109248009,-56.843531963484175,-55.028166817718834,-53.212801671952022,-51.400394760727458,-49.644194865071356,-47.887994969413818,-46.131795073754795,-44.37559517809423,-42.619395282432173,-40.863195386768659,-39.1069954911036,-37.350795595437077,-35.594595699769044,-33.8503841144357,-32.214068455282707,-30.577752796128262,-28.941437136972361,-27.305121477815025,-25.668805818656214,-24.03249015949595,-22.396174500334247,-20.759858841171084,-19.123543182006451,-17.512849400522725,-16.047347873787391,-14.581846347050568,-13.116344820312264,-11.650843293572473,-10.185341766831206,-8.7198402400884554,-7.2543387133442119,-5.7888371865984993,-4.3233356598512991,-2.9002431053843805,-1.6467884443252891,-0.39333378326475127,0.86012087779724977,2.1135755388606974,3.3670301999256123,4.6204848609919749,5.8739395220598034,7.127394183129077,8.3808488441998072,9.5738304317660443,10.585390512412657,11.596950593060731,12.60851067371026,13.620070754361247,14.631630835013716,15.643190915667633,16.654750996323017,17.666311076979845,18.677871157638158,19.611453868374351,20.363086311567,21.114718754761107,21.866351197956675,22.617983641153728,23.369616084352245,24.121248527552215,24.872880970753656,25.624513413956567,26.376145857160935,27.0344657840208,27.519488517657361,28.004511251295312,28.489533984934777,28.974556718575737,29.459579452218165,29.944602185862045,30.429624919507397,30.914647653154208,31.399670386802566,31.779396539821569,32.001175333698647,32.2229541275772,32.444732921457273,32.666511715338792,32.888290509221875,33.110069303106336,33.331848096992381,33.553626890879876,33.775405684768835,33.883932040564112,33.854036370958426,33.824140701354239,33.794245031751579,33.764349362150405,33.734453692550758,33.70455802295259,33.674662353355927,33.6447666837608,33.614871014167136,32.940130421767861,32.67621287633181,32.41229533089723,32.148377785464241,31.884460240032706,31.620542694602751,31.356625149174274,31.092707603747318,30.711948648865185,30.235590169152822,29.759231689442032,29.28287320973276,28.806514730025079,28.33015625031895,27.853797770614371,27.377439290911344,26.901080811209816,26.424722331509916,25.835005564545032,25.169714820272745,24.50442407600206,23.839133331732924,23.173842587465398,22.508551843199445,21.8432610989351,21.177970354672279,20.512679610411112,19.847388866151491,19.074702407747203,18.244185926158746,17.41366944457193,16.583152962986716,15.752636481403112,14.922119999821133,14.09160351824077,13.261087036662033,12.430570555084907,11.600054073509389,10.669642442008369,9.6964169172807466,8.723191392554746,7.7499658678304453,6.77674034310777,5.8035148183867813,4.8302892936674455,3.8570637689497422,2.8838382442337216,1.9106127195193539,0.84554180973638982,-0.25014538591469027,-1.3458325815640859,-2.4415197772117945,-3.5372069728577955,-4.6328941685021432,-5.7285813641447518,-6.8242685597856809,-7.9199557554249633,-9.015642951062512,-10.195443891438911,-11.396274261816572,-12.597104632192494,-13.797935002566597,-14.998765372938944,-16.199595743309484,-17.400426113678247,-18.601256484045233,-19.802086854410437,-21.002917224773881,-22.281487899221407,-23.573778315342995,-24.866068731462796,-26.158359147580903,-27.450649563697187,-28.742939979811805,-30.035230395924611,-31.32752081203574,-32.619811228145075,-33.912101644252715,-35.277600553892121,-36.651234509451506,-38.024868465008979,-39.39850242056454,-40.77213637611824,-42.145770331670015,-43.519404287219935,-44.893038242767908,-46.266672198314019,-47.640306153858212,-49.085559984213162,-50.534583994251562,-51.98360800428803,-53.4326320143225,-54.881656024355081,-56.330680034385708,-57.779704044414423,-59.22872805444117,-60.677752064466013,-62.126776074488816,0.28670869651983683,0.28670869651983683,0.28670869651983683,0.28670869651983683,0.28670869651983683,0.28670869651983683,0.28670869651983683,0.28670869651983683,0.28670869651983683,0.28670869651983683,0.28670869651983683,0.28670869651983683
DP 215,120.17829451729391,0.0021331866327525973,-55.451008302661265,-54.110599940151282,-52.770191577639615,-51.429783215126534,-50.089374852611819,-48.748966490095427,-47.408558127577535,-46.068149765058074,-44.727741402536985,-43.387333040014326,-42.048666657692493,-40.743098228526215,-39.437529799358295,-38.13196137018884,-36.826392941017829,-35.520824511845206,-34.21525608267104,-32.9096876534953,-31.604119224318005,-30.298550795139136,-29.000133979544408,-27.7660823622028,-26.532030744859661,-25.29797912751501,-24.063927510168785,-22.82987589282105,-21.5958242754718,-20.361772658120987,-19.127721040768645,-17.893669423414778,-16.675200742109837,-15.545036347040197,-14.414871951968998,-13.284707556896226,-12.154543161821897,-11.024378766746,-9.894214371668534,-8.7640499765894937,-7.6338855815088928,-6.5037211864267279,-5.400053988598982,-4.4023768320725392,-3.4046996755445593,-2.4070225190150247,-1.4093453624839529,-0.41166820595132275,0.58600895058285041,1.5836861071185753,2.5813632636558417,3.5790404201946568,4.53762740381183,5.3789423907156335,6.2202573776209924,7.0615723645279145,7.90288735143639,8.7442023383464349,9.5855173252580368,10.4268323121712,11.268147299085911,12.109462286002195,12.89825873309514,13.564509852212852,14.230760971332103,14.897012090452954,15.563263209575373,16.229514328699345,16.895765447824903,17.56201656695205,18.228267686080734,18.894518805210996,19.494834211140084,19.972695797596465,20.450557384054456,20.928418970514034,21.406280556975187,21.884142143437931,22.362003729902256,22.839865316368194,23.3177269028357,23.795588489304787,24.194861502530383,24.476249798812812,24.757638095096837,25.039026391382485,25.320414687669757,25.601802983958631,25.88319128024909,26.164579576541147,26.445967872834878,26.727356169130164,26.9188678855624,27.000528560991341,27.082189236421879,27.16384991185409,27.245510587287892,27.327171262723361,27.408831938160443,27.490492613599162,27.572153289039491,27.653813964481536,27.401858185413342,27.284743362932893,27.167628540454139,27.050513717977051,26.9333988955016,26.816284073027852,26.699169250555713,26.582054428085296,26.358017006906991,26.046495621971911,25.734974237038518,25.423452852106884,25.1119314671769,24.800410082248622,24.488888697322032,24.17736731239718,23.865845927473991,23.554324542552525,23.130316867669407,22.631316560751582,22.132316253835487,21.63331594692114,21.134315640008534,20.635315333097648,20.13631502618852,19.637314719281115,19.138314412375458,18.63931410547152,18.024032597818682,17.346136444984221,16.668240292151548,15.990344139320646,15.312447986491536,14.634551833664208,13.956655680838663,13.278759528014925,12.600863375192935,11.922967222372735,11.126411123298347,10.278998758699897,9.4315863941032347,8.5841740295084517,7.7367616649154725,6.8893493003243593,6.041936935735059,5.1945245711475794,4.3471122065619552,3.4996998419781575,2.5321603806053989,1.5245770396945264,0.516993698785521,-0.49058964212161366,-1.498172983026858,-2.5057563239302634,-3.5133396648317516,-4.5209230057313814,-5.52850634662917,-6.5360896875250436,-7.6648438268625414,-8.82389209746212,-9.98294036805975,-11.141988638655368,-12.301036909249021,-13.460085179840659,-14.619133450430322,-15.778181721017988,-16.937229991603687,-18.096278262187415,-19.377930116720069,-20.681219261201079,-21.984508405680124,-23.287797550157283,-24.591086694632406,-25.894375839105678,-27.197664983576963,-28.500954128046331,-29.80424327251372,-31.107532416979222,-32.53549299828083,-33.9773072707965,-35.419121543310133,-36.860935815821563,-38.30275008833096,-39.744564360838154,-41.186378633343338,-42.628192905846255,-44.07000717834714,-45.511821450845879,-47.082040538794509,-48.659019052500724,-50.235997566204787,-51.812976079906647,-53.389954593606411,-54.966933107304065,-56.543911620999438,-58.120890134692637,-59.69786864838369,-61.274847162072561,0.31925399088290851,0.31925399088290851,0.31925399088290851,0.31925399088290851,0.31925399088290851,0.31925399088290851,0.31925399088290851,0.31925399088290851,0.31925399088290851,0.31925399088290851,0.31925399088290851,0.31925399088290851
DP 216,177.37943219577548,0.0043735305023082163,-154.52920268797578,-150.53120511847339,-146.53320754896737,-142.53520997945805,-138.53721240994523,-134.53921484042885,-130.541217270909,-126.54321970138579,-122.54522213185898,-118.54722456232884,-114.55556548237371,-110.68433890266448,-106.81311232295201,-102.94188574323583,-99.070659163516368,-95.1994325837934,-91.328206004066942,-87.456979424337121,-83.585752844603761,-79.714526264867033,-75.869031419305188,-72.255124613553676,-68.641217807798782,-65.027311002040548,-61.413404196278933,-57.799497390513984,-54.185590584745725,-50.571683778974133,-46.957776973199088,-43.343870167420768,-39.785100532647348,-36.538778341358793,-33.292456150066855,-30.046133958771446,-26.799811767472644,-23.553489576170456,-20.307167384864819,-17.060845193555757,-13.814523002243309,-10.568200810927447,-7.4134688414663747,-4.6251020880626141,-1.8367353346555109,0.95163141875496193,3.739998172168769,6.5283649255859642,9.3167316790064945,12.10509843243041,14.893465185857643,17.681831939288259,20.3390055222208,22.602594633420207,24.866183744622987,27.129772855829096,29.393361967038615,31.656951078251524,33.920540189467758,36.184129300687395,38.447718411910373,40.711307523136732,42.804808784436545,44.501431697172769,46.198054609912347,47.89467752265535,49.5913004354017,51.287923348151494,52.984546260904622,54.681169173661168,56.377792086421046,58.074414999184384,59.566215522249074,60.677626075837281,61.789036629428836,62.90044718302385,64.011857736622176,65.123268290224019,66.234678843829244,67.346089397437879,68.457499951049826,69.568910504665226,70.447540358507808,70.976993661995238,71.506446965486234,72.0359002689806,72.565353572478372,73.0948068759796,73.6242601794843,74.15371348299233,74.683166786503961,75.212620090018945,75.489708998858518,75.458347235571,75.426985472286944,75.39562370900633,75.364261945729183,75.332900182455575,75.301538419185391,75.2701766559187,75.238814892655512,75.207453129395759,73.798234964144228,73.2408190562425,72.683403148344468,72.125987240449845,71.56857133255879,71.011155424671273,70.453739516787238,69.896323608906741,69.073746077978612,68.034213571201192,66.994681064427382,65.955148557657139,64.915616050890478,63.876083544127383,62.8365510373679,61.797018530612014,60.7574860238598,59.717953517111035,58.418485427033765,56.945722853158031,55.47296027928595,54.00019770541752,52.527435131552778,51.054672557691632,49.5819099838342,48.10914740998038,46.636384836130311,45.163622262283845,43.441822375272373,41.5859218520413,39.730021328814075,37.874120805590515,36.0182202823707,34.162319759154649,32.306419235942293,30.450518712733732,28.594618189528887,26.738717666327783,24.64836413609348,22.457526788404376,20.266689440718991,18.075852093037572,15.885014745359923,13.694177397686142,11.503340050016188,9.3125027023500362,7.1216653546877629,4.9308280070293176,2.5216543959096427,0.039699278647663323,-2.4422558386104174,-4.9242109558645932,-7.4061660731148189,-9.8881211903612147,-12.370076307603588,-14.852031424842091,-17.333986542076765,-19.815941659307427,-22.500521120278911,-25.235759061222815,-27.970997002162697,-30.706234943098416,-33.44147288403,-36.176710824957432,-38.9119487658808,-41.647186706799971,-44.382424647715041,-47.117662588626054,-50.042601986197077,-53.00102022092014,-55.959438455639088,-58.917856690354121,-61.876274925064891,-64.834693159771888,-67.79311139447465,-70.751529629173476,-73.70994786386818,-76.668366098559034,-79.807477757237379,-82.966668360730509,-86.12585896421929,-89.285049567703581,-92.444240171183637,-95.603430774659031,-98.762621378130333,-101.92181198159705,-105.08100258505954,-108.24019318851747,-111.57755605653799,-114.92429818490749,-118.27104031327271,-121.61778244163342,-124.96452456998946,-128.31126669834137,-131.65800882668862,-135.00475095503128,-138.35149308336955,-141.69823521170315,0.66389848361604131,0.66389848361604131,0.66389848361604131,0.66389848361604131,0.66389848361604131,0.66389848361604131,0.66389848361604131,0.66389848361604131,0.66389848361604131,0.66389848361604131,0.66389848361604131,0.66389848361604131
DP 217,116.13455283761962,0.0043685885255273322,-110.55926788791007,-107.90291496601444,-105.24656204411534,-102.59020912221321,-99.9338562003077,-97.277503278399223,-94.621150356487433,-91.96479743457239,-89.3084445126542,-86.65209159073278,-83.9991338454584,-81.410685098374358,-78.822236351287088,-76.233787604196579,-73.645338857102942,-71.056890110006123,-68.46844136290612,-65.879992615802948,-63.291543868696522,-60.703095121586983,-58.12859865030925,-55.679673980337142,-53.230749310361922,-50.781824640383604,-48.33289997040221,-45.88397530041766,-43.435050630429977,-40.98612596043921,-38.537201290445338,-36.088276620448362,-33.669792955749763,-31.423810239314413,-29.177827522875944,-26.931844806434285,-24.685862089989463,-22.439879373541444,-20.193896657090242,-17.947913940635864,-15.701931224178304,-13.4559485077176,-11.261817867862016,-9.2750979850076742,-7.288378102150201,-5.3016582192895712,-3.3149383364258238,-1.3282184535589103,0.65850142931113176,2.6452213121843262,4.6319411950606488,6.618661077940116,8.5287145056725944,10.20876566930523,11.888816832941028,13.568867996580003,15.248919160222151,16.928970323867453,18.609021487515935,20.289072651167572,21.969123814822343,23.649174978480335,25.225940507441482,26.561702154314148,27.897463801189986,29.233225448069035,30.568987094951297,31.904748741836706,33.24051038872534,34.576272035617173,35.912033682512167,37.247795329410351,38.453469771044084,39.417550175459333,40.3816305798778,41.34571098429948,42.309791388724371,43.273871793152523,44.237952197583866,45.20203260201847,46.166113006456278,47.130193410897363,47.938654556870915,48.513683137800925,49.088711718734309,49.663740299670884,50.238768880610778,50.813797461553925,51.388826042500348,51.963854623450025,52.538883204402964,53.113911785359235,53.510230345983061,53.688121794659132,53.866013243338465,54.043904692021115,54.221796140707077,54.399687589396372,54.577579038088977,54.755470486784908,54.933361935484193,55.111253384186767,54.652268703401347,54.433095790737262,54.213922878076509,53.994749965419139,53.7755770527651,53.55640414011453,53.337231227467285,53.118058314823472,52.68423001265834,52.074770884605812,51.465311756556765,50.855852628511144,50.246393500469004,49.636934372430311,49.027475244395106,48.418016116363319,47.80855698833502,47.199097860310161,46.362585960864109,45.3747019702462,44.386817979631807,43.398933989020939,42.411049998413652,41.423166007809868,40.435282017209659,39.447398026612923,38.45951403601979,37.471630045430175,36.24768451138813,34.896625482739069,33.545566454093667,32.19450742545191,30.843448396813812,29.492389368179349,28.141330339548496,26.790271310921323,25.439212282297767,24.088153253677888,22.494770513755572,20.797530664557936,19.100290815363941,17.40305096617379,15.705811116987316,14.008571267804609,12.311331418625638,10.614091569450357,8.9168517202788635,7.2196118711110957,5.2755899348063915,3.2493041926358237,1.2230184504690587,-0.80326729169389222,-2.82955303385299,-4.855838776008337,-6.882124518159773,-8.9084102603074271,-10.934696002451323,-12.960981744591326,-15.237614258390437,-17.57683642299012,-19.916058587585805,-22.255280752177416,-24.594502916764981,-26.933725081348495,-29.272947245927934,-31.612169410503306,-33.951391575074652,-36.290613739641991,-38.884428584903461,-41.523174381393964,-44.161920177880404,-46.800665974363021,-49.43941177084163,-52.078157567316275,-54.716903363786905,-57.35564916025367,-59.994394956716491,-62.633140753175304,-65.531826558603839,-68.459397317233041,-71.386968075858,-74.314538834478469,-77.242109593094852,-80.1696803517067,-83.097251110314318,-86.024821868917513,-88.952392627516488,-91.879963386111143,-95.075958640533486,-98.28608417071483,-101.49620970089182,-104.70633523106424,-107.91646076123236,-111.12658629139615,-114.33671182155535,-117.5468373517101,-120.75696288186053,-123.96708841200645,0.65102424486480981,0.65102424486480981,0.65102424486480981,0.65102424486480981,0.65102424486480981,0.65102424486480981,0.65102424486480981,0.65102424486480981,0.65102424486480981,0.65102424486480981,0.65102424486480981,0.65102424486480981
DP 218,137.73227941133712,0.0053086242653766292,-153.68214418234993,-149.87711295853117,-146.07208173470841,-142.26705051088143,-138.46201928705037,-134.65698806321544,-130.8519568393763,-127.04692561553313,-123.24189439168597,-119.43686316783459,-115.63712140475586,-111.93788039637093,-108.23863938798208,-104.53939837958916,-100.84015737119209,-97.140916362791131,-93.441675354386035,-89.742434345976889,-86.043193337563679,-82.343952329146575,-78.666348572842651,-75.18348213078157,-71.700615688716653,-68.2177492466478,-64.734882804575008,-61.252016362498239,-57.769149920417505,-54.2862834783329,-50.803417036244362,-47.320550594151847,-43.884579624527653,-40.714352620670624,-37.544125616809552,-34.373898612944487,-31.203671609075464,-28.033444605202344,-24.863217601325228,-21.692990597444059,-18.5227635935589,-15.352536589669716,-12.261459732645001,-9.4869872037900755,-6.71251467493119,-3.9380421460683328,-1.163569617201532,1.61090291166926,4.385375440544002,7.1598479694227128,9.9343204983053841,12.708793027192021,15.367595673580309,17.679384299147408,19.991172924718526,22.3029615502936,24.61475017587269,26.926538801455777,29.238327427042837,31.550116052633904,33.861904678228889,36.17369330382791,38.331840115325619,40.131483309564274,41.931126503806958,43.730769698053642,45.530412892304327,47.330056086559011,49.129699280817775,50.929342475080517,52.728985669347281,54.528628863618,56.137948906556382,57.393806528551949,58.649664150551473,59.905521772555112,61.1613793945628,62.417237016574539,63.673094638590278,64.928952260610046,66.184809882633942,67.440667504661789,68.473142751809647,69.170539158027125,69.867935564248683,70.565331970474318,71.262728376704061,71.960124782937953,72.657521189175867,73.35491759541793,74.052314001664087,74.749710407914336,75.196026793668,75.3354623249353,75.474897856206653,75.614333387482418,75.753768918762077,75.893204450046028,76.032639981334071,76.1720755126263,76.311511043922678,76.450946575223227,75.5074438441661,75.102154615736154,74.696865387310382,74.291576158888958,73.886286930471641,73.480997702058573,73.075708473649726,72.670419245245142,71.97824778696021,71.051349573951569,70.1244513609473,69.197553147947389,68.270654934951679,67.343756721960332,66.416858508973263,65.4899602959905,64.563062083012071,63.636163870037869,62.414281679754396,60.995738857548154,59.577196035346319,58.158653213148831,56.740110390955785,55.321567568767094,53.903024746582851,52.484481924402928,51.065939102227524,49.647396280056384,47.931283602108813,46.054936674633488,44.178589747162718,42.302242819696446,40.425895892234657,38.549548964777344,36.67320203732455,34.796855109876326,32.920508182432528,31.044161254993274,28.871829126319589,26.572641201226766,24.273453276138412,21.974265351054786,19.675077425975758,17.375889500901376,15.076701575831637,12.777513650766453,10.478325725705961,8.1791378006500786,5.5879970850507608,2.8995350931713597,0.21107310129666662,-2.4773888905733124,-5.1658508824385194,-7.8543128742991,-10.542774866154836,-13.231236858005886,-15.919698849852303,-18.608160841693884,-21.583756718331429,-24.631139458698879,-27.678522199061451,-30.725904939418946,-33.773287679771492,-36.820670420118965,-39.868053160461471,-42.91543590079894,-45.962818641131427,-49.010201381459019,-52.341536302899428,-55.722983590359377,-59.10443087781443,-62.485878165264779,-65.867325452709991,-69.248772740150557,-72.630220027586063,-76.011667315016766,-79.393114602442523,-82.774561889863477,-86.43940754716894,-90.135744888588519,-93.832082230002882,-97.528419571411789,-101.22475691281547,-104.92109425421368,-108.61743159560675,-112.31376893699431,-116.01010627837664,-119.70644361975367,-123.69113934202709,-127.69101469023855,-131.69089003844459,-135.6907653866451,-139.69064073484029,-143.6905160830301,-147.69039143121438,-151.6902667793928,-155.69014212756639,-159.69001747573407,0.80402641216752391,0.80402641216752391,0.80402641216752391,0.80402641216752391,0.80402641216752391,0.80402641216752391,0.80402641216752391,0.80402641216752391,0.80402641216752391,0.80402641216752391,0.80402641216752391,0.80402641216752391
DP 219,264.95990548238956,0.0059878976657241336,-283.88093333006839,-275.98621552331781,-268.09149771656189,-260.19677990980136,-252.30206210303635,-244.40734429626661,-236.51262648949165,-228.61790868271225,-220.72319087592783,-212.82847306913908,-204.94952389554092,-197.37018173363208,-189.79083957171815,-182.21149740979976,-174.63215524787651,-167.0528130859486,-159.47347092401611,-151.89412876207882,-144.31478660013693,-136.73544443819037,-129.21913185470081,-122.27009143503054,-115.32105101535559,-108.37201059567607,-101.42297017599208,-94.473929756303519,-87.524889336610428,-80.575848916912719,-73.626808497210448,-66.6777680775037,-59.860555384499513,-53.790374783223179,-47.720194181942212,-41.650013580656584,-35.57983297936638,-29.50965237807155,-23.439471776772042,-17.369291175467897,-11.299110574159171,-5.2289299728458172,0.62949542863388275,5.6408900230432844,10.652284617457202,15.663679211875671,20.675073806298634,25.686468400726213,30.697862995158282,35.7092575895949,40.720652184036055,45.732046778481731,50.452614200889059,54.3006891113993,58.148764021914161,61.996838932433484,65.844913842957311,69.692988753485736,73.541063664018751,77.389138574556284,81.237213485098309,85.085288395644952,88.57481173132976,91.227700604481754,93.880589477638324,96.5334783507995,99.1863672239651,101.83925609713533,104.49214497031014,107.14503384348943,109.7979227166733,112.45081158986184,114.69624336752324,116.18495810678753,117.67367284605626,119.1623875853297,120.65110232460758,122.13981706389002,123.62853180317717,125.11724654246881,126.60596128176503,128.09467602106588,129.14952285460976,129.553557577057,129.95759229950872,130.36162702196512,130.76566174442604,131.16969646689162,131.57373118936178,131.97776591183654,132.38180063431605,132.78583535679988,132.752144142023,132.18344536514834,131.61474658827825,131.04604781141282,130.477349034552,129.90865025769588,129.33995148084443,128.77125270399759,128.20255392715535,127.63385515031781,123.8186487863662,122.40630440132325,120.99396001628523,119.58161563125184,118.16927124622322,116.7569268611992,115.34458247618016,113.93223809116542,112.12919501177532,110.00648264982301,107.88377028787552,105.76105792593273,103.63834556399478,101.51563320206157,99.392920840133115,97.270208478209526,95.147496116290668,93.024783754376585,90.552439210702673,87.847001037901492,85.141562865105072,82.436124692313555,79.730686519526884,77.025248346745045,74.3198101739681,71.614372001195989,68.908933828428786,66.203495655666345,63.194320953038414,60.021591394391521,56.848861835749652,53.676132277112593,50.503402718480594,47.3306731598534,44.15794360123116,40.985214042613926,37.812484484001565,34.639754925394143,31.209597389351423,27.669109232174737,24.128621075002954,20.588132917836475,17.047644760674938,13.507156603518531,9.96666844636719,6.4261802892208415,2.885692132079654,-0.6547960250564947,-4.4095307564563138,-8.2356837127233771,-12.061836668985288,-15.887989625242051,-19.714142581493586,-23.540295537740075,-27.366448493981256,-31.192601450217317,-35.018754406448359,-38.844907362674043,-42.847609612694377,-46.8944512721185,-50.941292931537248,-54.98813459095058,-59.034976250358461,-63.081817909760879,-67.1286595691579,-71.175501228549408,-75.222342887935483,-79.269184547316286,-83.46265928216296,-87.682012072669991,-91.9013648631715,-96.120717653668009,-100.34007044415897,-104.55942323464464,-108.77877602512503,-112.99812881560013,-117.21748160606998,-121.43683439653439,-125.78110221707217,-130.13925079729447,-134.49739937751082,-138.85554795772154,-143.21369653792661,-147.57184511812568,-151.92999369831912,-156.2881422785068,-160.64629085868864,-165.00443943886472,-169.476202728521,-173.9539468701455,-178.43169101176412,-182.90943515337705,-187.387179294984,-191.86492343658503,-196.34266757818054,-200.82041171976968,-205.29815586135337,-209.77590000293074,0.872093702628292,0.872093702628292,0.872093702628292,0.872093702628292,0.872093702628292,0.872093702628292,0.872093702628292,0.872093702628292,0.872093702628292,0.872093702628292,0.872093702628292,0.872093702628292
DP 220,208.32173175167952,0.0022701322454944562,-90.647747101428408,-88.2353214832606,-85.822895865091041,-83.410470246919587,-80.998044628746484,-78.585619010571349,-76.173193392394538,-73.760767774215878,-71.348342156035343,-68.935916537853075,-66.527670729381384,-64.198842095614935,-61.870013461846739,-59.541184828076716,-57.212356194304895,-54.883527560531313,-52.5546989267559,-50.225870292978712,-47.897041659199658,-45.568213025418821,-43.256257771249352,-41.096164528497596,-38.936071285744106,-36.775978042988861,-34.615884800231875,-32.455791557473113,-30.295698314712652,-28.135605071950405,-25.975511829186445,-23.815418586420726,-21.69117061083811,-19.77004807473968,-17.84892553863946,-15.92780300253747,-14.006680466433712,-12.085557930328161,-10.164435394220831,-8.24331285811172,-6.3221903220008384,-4.4010677858881815,-2.5387777557145097,-0.9118205297738905,0.71513669616846587,2.3420939221125789,3.9690511480584263,5.5960083740060318,7.2229655999553763,8.8499228259064786,10.476880051859313,12.103837277813897,13.647782146404797,14.942686804318861,16.237591462234661,17.532496120152214,18.827400778071492,20.122305435992587,21.417210093915372,22.712114751839923,24.007019409766219,25.30192406769428,26.491134363012087,27.433720316241892,28.376306269473449,29.318892222706737,30.261478175941804,31.204064129178626,32.14665008241721,33.089236035657564,34.031821988899665,34.9744079421435,35.792353015297572,36.378818802214418,36.965284589133049,37.551750376053405,38.138216162975567,38.7246819498995,39.311147736825149,39.897613523752632,40.484079310681835,41.070545097612786,41.518667280986094,41.75927078991139,41.999874298838535,42.240477807767391,42.4810813166981,42.72168482563054,42.962288334564768,43.20289184350078,43.443495352438568,43.684098861378139,43.77860940063249,43.694558797177237,43.610508193723781,43.526457590272138,43.442406986822292,43.358356383374208,43.274305779927964,43.190255176483468,43.1062045730408,43.022153969599977,42.0303046237539,41.6503744467725,41.270444269792947,40.890514092815216,40.510583915839277,40.130653738865192,39.750723561892926,39.370793384922507,38.846330360595893,38.203610704532046,37.56089104847004,36.918171392409889,36.275451736351592,35.632732080295135,34.990012424240582,34.347292768187877,33.70457311213697,33.061853456087995,32.282184148592556,31.411212916020595,30.540241683450525,29.669270450882344,28.79829921831606,27.927327985751663,27.056356753189146,26.185385520628504,25.314414288069791,24.443443055512933,23.445994834175291,22.380441779681977,21.314888725190592,20.249335670701146,19.183782616213637,18.118229561728043,17.052676507244378,15.987123452762676,14.921570398282874,13.856017343805021,12.676007855702878,11.44694367843984,10.217879501178711,8.9888153239196171,7.7597511466624614,6.5306869694073031,5.3016227921541237,4.0725586149028885,2.8434944376536624,1.6144302604064003,0.28317527976719886,-1.0821445898960453,-2.4474644595572848,-3.8127843292165156,-5.1781041988737089,-6.5434240685289318,-7.9087439381820905,-9.2740638078332562,-10.639383677482442,-12.004703547129566,-13.46078077634782,-14.939548417770547,-16.418316059191184,-17.897083700609684,-19.375851342026078,-20.854618983440325,-22.333386624852466,-23.812154266262482,-25.290921907670352,-26.769689549076169,-28.329825617877258,-29.904321725752343,-31.478817833625282,-33.053313941496214,-34.627810049365067,-36.202306157231831,-37.776802265096514,-39.351298372959128,-40.925794480819654,-42.500290588678162,-44.149334058251625,-45.80666135093746,-47.463988643621086,-49.12131593630243,-50.778643228981586,-52.435970521658376,-54.093297814333063,-55.750625107005334,-57.407952399675452,-59.065279692343296,-60.794137774529069,-62.526761346811881,-64.259384919092525,-65.9920084913708,-67.724632063646709,-69.45725563592049,-71.189879208191883,-72.922502780460945,-74.655126352727734,-76.387749924992193,0.34097434980491226,0.34097434980491226,0.34097434980491226,0.34097434980491226,0.34097434980491226,0.34097434980491226,0.34097434980491226,0.34097434980491226,0.34097434980491226,0.34097434980491226,0.34097434980491226,0.34097434980491226
DP 221,64.6082718266857,0.0030502786825559883,-50.693712997375442,-49.59917996238655,-48.504646927396038,-47.410113892403942,-46.315580857410225,-45.22104782241496,-44.126514787418074,-43.031981752419632,-41.937448717419528,-40.842915682417889,-39.74948194166857,-38.6769349995588,-37.604388057447458,-36.5318411153345,-35.459294173219909,-34.386747231103769,-33.314200288985973,-32.241653346866585,-31.169106404745595,-30.096559462623031,-29.028586884293631,-28.001784012492529,-26.97498114068982,-25.948178268885524,-24.921375397079604,-23.894572525272089,-22.867769653462972,-21.840966781652249,-20.814163909839941,-19.787361038026003,-18.770715290672243,-17.811627221979752,-16.852539153285633,-15.893451084589842,-14.93436301589243,-13.975274947193354,-13.016186878492638,-12.057098809790293,-11.098010741086286,-10.138922672380636,-9.1975659997688481,-8.32713574953749,-7.4567054993044808,-6.5862752490698186,-5.7158449988335009,-4.8454147485955144,-3.97498449835588,-3.104554248114586,-2.2341239978716367,-1.363693747627033,-0.52030672352705321,0.24194959966877949,1.0042059228663036,1.7664622460655186,2.5287185692664291,3.2909748924690323,4.0532312156733212,4.8154875388793084,5.5777438620869759,6.340000185296347,7.0644345607714643,7.7006162352908989,8.3367979098120717,8.9729795843349631,9.6091612588595936,10.245342933385949,10.881524607914036,11.517706282443843,12.153887956975383,12.790069631508659,13.376485123661807,13.870476361686572,14.364467599713095,14.858458837741404,15.352450075771472,15.846441313803302,16.340432551836912,16.834423789872297,17.328415027909436,17.822406265948356,18.253828659762458,18.591396308713581,18.92896395766649,19.266531606621236,19.604099255577815,19.941666904536181,20.27923455349638,20.616802202458366,20.954369851422225,21.29193750038786,21.55357553622224,21.722409116678275,21.891242697136221,22.060076277595982,22.228909858057651,22.397743438521168,22.566577018986582,22.735410599453861,22.904244179923,23.073077760393996,23.131633051587372,23.121288113252554,23.110943174919658,23.100598236588677,23.09025329825965,23.079908359932514,23.069563421607338,23.059218483284077,22.945570234202844,22.747399319160358,22.549228404119848,22.351057489081342,22.15288657404481,21.954715659010283,21.756544743977724,21.558373828947175,21.360202913918616,21.162031998892058,20.846960637000056,20.453953802265517,20.060946967533059,19.667940132802638,19.274933298074281,18.881926463347995,18.488919628623748,18.095912793901586,17.702905959181464,17.3098991244634,16.786656218046463,16.193284302239,15.599912386433648,15.006540470630432,14.413168554829353,13.819796639030416,13.226424723233579,12.633052807438895,12.039680891646334,11.446308975855889,10.709712476888912,9.9117315962372068,9.1137507155876953,8.3157698349404381,7.517788954295372,6.7198080736525414,5.9218271930119064,5.1238463123734777,4.3258654317372836,3.527884551103301,2.5740524947550529,1.5682680823355493,0.56248366991831877,-0.4433007424966367,-1.4490851549092949,-2.4548695673197107,-3.4606539797277982,-4.4664383921336217,-5.4722228045372034,-6.47800721693846,-7.6517945993300174,-8.8675847092004112,-10.083374819068384,-11.2991649289339,-12.514955038796987,-13.730745148657604,-14.946535258515802,-16.162325368371516,-17.378115478224803,-18.593905588075692,-19.9896783024102,-21.417214654262359,-22.844751006112077,-24.272287357959478,-25.699823709804441,-27.127360061647028,-28.554896413487203,-29.982432765325033,-31.40996911716044,-32.8375054689935,-34.456345571271939,-36.096443654962108,-37.736541738649628,-39.376639822334489,-41.016737906016751,-42.656835989696326,-44.296934073373258,-45.93703215704749,-47.577130240719164,-49.217228324388124,-51.0599399086331,-52.913317377252476,-54.76669484586921,-56.62007231448316,-58.4734497830944,-60.32682725170298,-62.180204720308808,-64.033582188911851,-65.886959657512264,-67.740337126109779,0.38700010763042136,0.38700010763042136,0.38700010763042136,0.38700010763042136,0.38700010763042136,0.38700010763042136,0.38700010763042136,0.38700010763042136,0.38700010763042136,0.38700010763042136,0.38700010763042136,0.38700010763042136
DP 222,177.90643348632517,0.0050835549744231,-180.02980795221822,-175.36964217033938,-170.70947638845638,-166.04931060656941,-161.38914482467851,-156.72897904278358,-152.06881326088438,-147.40864747898144,-142.74848169707431,-138.08831591516329,-133.43555095905532,-128.92340309236684,-124.41125522567438,-119.89910735897786,-115.38695949227741,-110.87481162557273,-106.3626637588643,-101.85051589215179,-97.3383680254351,-92.826220158714534,-88.344109992980449,-84.132341975373166,-79.920573957761817,-75.708805940146775,-71.49703792252771,-67.2852699049048,-63.07350188727797,-58.861733869647281,-54.649965852012677,-50.438197834374172,-46.290785995865974,-42.508063227820287,-38.725340459770656,-34.942617691717011,-31.159894923659436,-27.377172155597876,-23.594449387532304,-19.811726619462771,-16.029003851389305,-12.246281083311851,-8.57044084333377,-5.3221357671196312,-2.0738306909016107,1.1744743853203299,4.4227794615461464,7.6710845377758883,10.919389614009532,14.167694690247075,17.415999766488518,20.664304842733856,23.759553159638589,26.395625411649441,29.031697663664175,31.66776991568285,34.303842167705426,36.939914419731963,39.575986671762372,42.212058923796718,44.848131175834979,47.484203427877176,49.921903270644712,51.896726345745158,53.871549420849583,55.8463724959579,57.821195571070184,59.796018646186383,61.770841721306496,63.745664796430646,65.720487871558589,67.695310946690526,69.431339155191722,70.723884733876716,72.016430312565632,73.3089758912585,74.601521469955216,75.894067048656012,77.186612627360745,78.4791582060695,79.771703784782062,81.064249363498661,82.085513580355524,82.69984934394175,83.314185107532026,83.928520871126224,84.542856634724473,85.157192398326714,85.771528161932935,86.385863925543134,87.0001996891573,87.614535452775542,87.93490415030017,87.895973592331742,87.857043034367308,87.818112476406966,87.779181918450647,87.7402513604983,87.701320802550072,87.662390244605888,87.623459686665782,87.584529128729642,85.936573849058661,85.285176690970374,84.633779532886138,83.982382374806079,83.330985216730042,82.6795880586581,82.028190900590346,81.376793742526615,80.416848200558562,79.204448678226,77.99204915589749,76.779649633573285,75.567250111253159,74.354850588937254,73.142451066625441,71.9300515443178,70.7176520220145,69.505252499715183,67.990567484361691,66.274354044896967,64.558140605436591,62.84192716598038,61.125713726528431,59.409500287080789,57.693286847637424,55.977073408198208,54.260859968763306,52.544646529332617,50.539009081570313,48.377523728282391,46.21603837499881,44.054553021719592,41.893067668444679,39.731582315174187,37.570096961907979,35.408611608646169,33.24712625538865,31.085640902135538,28.651872019439914,26.101405599721126,23.550939180006711,21.000472760296862,18.450006340591404,15.899539920890437,13.349073501193921,10.798607081501812,8.2481406618142312,5.697674242131086,2.8938287804639744,0.0055204448420693311,-2.8827878907753051,-5.771096226388142,-8.659404561996384,-11.547712897600176,-14.436021233199307,-17.32432956879391,-20.212637904384088,-23.10094623996957,-26.224220544639333,-29.406239117738572,-32.588257690833132,-35.770276263922824,-38.952294837007734,-42.134313410087827,-45.316331983163124,-48.498350556233653,-51.680369129299315,-54.862387702360323,-58.264224137496967,-61.704854404463347,-65.14548467142491,-68.586114938382025,-72.026745205334308,-75.467375472281859,-78.908005739224762,-82.348636006162977,-85.789266273096459,-89.229896540025365,-92.879770141544853,-96.552895200009246,-100.22602025846862,-103.89914531692285,-107.5722703753721,-111.24539543381601,-114.91852049225504,-118.5916455506887,-122.26477060911765,-125.93789566754116,-129.81725252167402,-133.70746573276543,-137.59767894385172,-141.48789215493267,-145.37810536600858,-149.26831857707947,-153.15853178814473,-157.04874499920479,-160.93895821025993,-164.82917142130955,0.77159055876346438,0.77159055876346438,0.77159055876346438,0.77159055876346438,0.77159055876346438,0.77159055876346438,0.77159055876346438,0.77159055876346438,0.77159055876346438,0.77159055876346438,0.77159055876346438,0.77159055876346438
DP 223,216.16575353895632,0.0031047112099689225,-127.41106459347644,-123.99781953547887,-120.58457447747894,-117.17132941947636,-113.75808436147139,-110.34483930346397,-106.93159424545402,-103.51834918744159,-100.10510412942673,-96.691859071409368,-93.284653921948916,-89.99220817692715,-86.699762431902869,-83.407316686876143,-80.114870941847,-76.822425196815388,-73.52997945178123,-70.237533706744685,-66.9450879617057,-63.652642216664169,-60.384544631076835,-57.335582782026748,-54.286620932974252,-51.237659083919375,-48.18869723486209,-45.139735385802489,-42.090773536740421,-39.041811687675988,-35.992849838609189,-32.943887989539988,-29.946538211837108,-27.24166009086338,-24.536781969887276,-21.831903848908713,-19.12702572792773,-16.422147606944307,-13.717269485958443,-11.012391364970146,-8.3075132439794324,-5.6026351229863023,-2.9822144410151892,-0.69962750666629092,1.5829594276849814,3.865546362038653,6.1481332963946915,8.4307202307531348,10.71330716511396,12.995894099477168,15.278481033842759,17.56106796821074,19.724936755293179,21.53264661194536,23.340356468599939,25.148066325256906,26.955776181916274,28.763486038578016,30.571195895242155,32.378905751908711,34.186615608577632,35.994325465248956,37.6515590221669,38.957675286638434,40.263791551112391,41.5699078155887,42.876024080067452,44.182140344548607,45.488256609032128,46.794372873518057,48.100489138006388,49.406605402497107,50.536194551517085,51.337942861630587,52.139691171746492,52.941439481864826,53.74318779198552,54.54493610210865,55.3466844122342,56.148432722362166,56.950181032492459,57.751929342625296,58.358888995834917,58.6736610607304,58.988433125628376,59.303205190528772,59.617977255431541,59.932749320336804,60.247521385244454,60.562293450154563,60.877065515067173,61.191837579982106,61.302237835529148,61.162846031287259,61.023454227047843,60.884062422810842,60.744670618576343,60.605278814344224,60.465887010114663,60.326495205887532,60.187103401662796,60.047711597440568,58.602064871003826,58.051683764338833,57.50130265767627,56.950921551016243,56.400540444358704,55.850159337703609,55.29977823105105,54.749397124400978,53.999783969984648,53.087159352541576,52.17453473510092,51.261910117662886,50.349285500227367,49.436660882794413,48.524036265363883,47.611411647935967,46.698787030510623,45.786162413087709,44.686312878483463,43.461643782964565,42.23697468744826,41.012305591934478,39.787636496423325,38.5629674009147,37.338298305408692,36.113629209905241,34.888960114404384,33.664291018906056,32.268243607534941,30.779913072399353,29.291582537266429,27.803252002136091,26.314921467008411,24.826590931883374,23.338260396760955,21.849929861641193,20.361599326524015,18.873268791409494,17.231324727821519,15.523543702067339,13.815762676315765,12.107981650566984,10.400200624820828,8.6924195990774216,6.9846385733366816,5.2768575475986061,3.5690765218632685,1.8612954961306079,0.0177606543128135,-1.8710271704156753,-3.75981499514143,-5.648602819864446,-7.5373906445846828,-9.426178469302247,-11.314966294016978,-13.203754118728982,-15.092541943438336,-16.981329768144835,-18.989384652350598,-21.02725771058914,-23.065130768824858,-25.103003827057616,-27.140876885287518,-29.1787499435145,-31.216623001738597,-33.254496059959777,-35.292369118178073,-37.330242176393568,-39.473888307839736,-41.636201451948921,-43.798514596055234,-45.960827740158749,-48.123140884259463,-50.285454028357329,-52.44776717245233,-54.610080316544504,-56.772393460633872,-58.934706604720468,-61.1929587890038,-63.461871874226539,-65.730784959446339,-67.999698044662964,-70.268611129876689,-72.537524215087259,-74.80643730029476,-77.075350385499064,-79.3442634707005,-81.613176555898818,-83.973487578427864,-86.3386099280822,-88.703732277733508,-91.068854627381668,-93.4339769770267,-95.799099326668681,-98.164221676307619,-100.52934402594315,-102.89446637557586,-105.25958872520518,0.46464038595975687,0.46464038595975687,0.46464038595975687,0.46464038595975687,0.46464038595975687,0.46464038595975687,0.46464038595975687,0.46464038595975687,0.46464038595975687,0.46464038595975687,0.46464038595975687,0.46464038595975687
DP 224,189.23546100994292,0.0040183420815298812,-149.23098601022321,-145.32620260167167,-141.42141919311678,-137.51663578455887,-133.61185237599759,-129.70706896743306,-125.80228555886539,-121.89750215029467,-117.99271874172057,-114.08793533314329,-110.18956455145596,-106.41303489300834,-102.63650523455738,-98.85997557610338,-95.083445917646131,-91.306916259185655,-87.530386600722125,-83.753856942255368,-79.977327283785371,-76.200797625312234,-72.450242481861892,-68.933460428799052,-65.416678375733113,-61.899896322664041,-58.383114269591921,-54.86633221651671,-51.349550163438437,-47.83276811035698,-44.315986057272518,-40.799204004184936,-37.337896415139319,-34.1909476180415,-31.043998820940523,-27.89705002383641,-24.750101226729182,-21.603152429618763,-18.456203632505208,-15.309254835388494,-12.162306038268648,-9.0153572411456757,-5.9601312186702007,-3.2718006296866284,-0.58347004069997854,2.1048605482897762,4.7931911372826015,7.4815217262785474,10.169852315277561,12.85818290427969,15.546513493284881,18.234844082293179,20.792550456089746,22.958379245524043,25.124208034961459,27.29003682440193,29.45586561384556,31.621694403292267,33.787523192742093,35.953351982194995,38.11918077165101,40.285009561110144,42.282668713308112,43.887925422041938,45.493182130778877,47.0984388395189,48.7036955482621,50.308952257008343,51.914208965757716,53.5194656745102,55.124722383265876,56.7299790920246,58.13435811167421,59.165673140902,60.196988170132819,61.228303199366863,62.259618228603969,63.290933257844287,64.322248287087632,65.353563316334188,66.384878345583871,67.41619337483661,68.2212953460904,68.68707238484582,69.152849423604309,69.618626462366009,70.0844035011309,70.550180539898875,71.015957578670069,71.481734617444488,71.94751165622192,72.4132886950025,72.636314755379743,72.562640076556335,72.488965397736209,72.415290718919223,72.3416160401054,72.267941361294788,72.1942666824874,72.120592003683143,72.0469173248821,71.973242646084259,70.501320555329229,69.927285708905586,69.353250862485126,68.779216016067934,68.20518116965394,67.631146323243257,67.057111476835743,66.48307663043154,65.65990496168024,64.632889793050651,63.605874624424231,62.578859455801158,61.551844287181368,60.524829118564881,59.497813949951762,58.470798781341806,57.4437836127353,56.416768444131947,55.148757334011748,53.720078466334208,52.291399598660092,50.862720730989338,49.434041863321973,48.005362995657883,46.576684127997282,45.148005260339907,43.719326392685993,42.290647525035361,40.634379090087769,38.855559117044933,37.076739144005543,35.297919170969593,33.519099197937095,31.740279224908004,29.961459251882363,28.182639278860204,26.403819305841417,24.624999332826121,22.63521162827011,20.555005620731908,18.474799613197124,16.394593605665996,14.314387598138303,12.234181590614167,10.153975583093557,8.0737695755763976,5.9935635680628137,3.9133575605527353,1.6398948175597807,-0.69798927284286827,-3.0358733632419446,-5.37375745363744,-7.7116415440293107,-10.049525634417677,-12.387409724802362,-14.725293815183488,-17.063177905561108,-19.401061995935049,-21.915261006359543,-24.473540829983961,-27.031820653604644,-29.590100477221529,-32.148380300834646,-34.706660124443964,-37.264939948049495,-39.823219771651239,-42.381499595249196,-44.939779418843457,-47.660405694457076,-50.409683149270968,-53.158960604081116,-55.90823805888769,-58.657515513690456,-61.406792968489576,-64.15607042328493,-66.9053478780767,-69.654625332864669,-72.403902787649,-75.305554404741741,-78.224138084599034,-81.142721764452432,-84.061305444301723,-86.979889124147135,-89.898472803988412,-92.817056483825752,-95.735640163658857,-98.654223843488111,-101.57280752331339,-104.64011246636061,-107.7152463240292,-110.79038018169358,-113.86551403935398,-116.94064789701025,-120.0157817546625,-123.09091561231062,-126.16604946995466,-129.24118332759454,-132.31631718523033,0.60802337847354448,0.60802337847354448,0.60802337847354448,0.60802337847354448,0.60802337847354448,0.60802337847354448,0.60802337847354448,0.60802337847354448,0.60802337847354448,0.60802337847354448,0.60802337847354448,0.60802337847354448
DP 225,193.98177634549967,0.0025659075750766995,-97.1069266659293,-94.554959334888451,-92.002992003845634,-89.451024672800784,-86.899057341753817,-84.3470900107048,-81.795122679653829,-79.243155348600709,-76.691188017545642,-74.1392206864885,-71.591501843213251,-69.124505070985819,-66.6575082987563,-64.190511526524915,-61.723514754291436,-59.256517982055939,-56.789521209818353,-54.32252443757875,-51.855527665337107,-49.388530893093389,-46.938728495166991,-44.643677091353936,-42.348625687538977,-40.053574283722064,-37.758522879903076,-35.463471476082169,-33.168420072259281,-30.873368668434455,-28.578317264607623,-26.283265860778844,-24.024887705464661,-21.974326936022386,-19.923766166578094,-17.873205397131773,-15.822644627683454,-13.772083858233135,-11.72152308878081,-9.6709623193264367,-7.6204015498700874,-5.5698407804117256,-3.5798061213547934,-1.8318787644224825,-0.083951407488208341,1.6639759494480508,3.4119033063862716,5.1598306633264786,6.9077580202686555,8.65568537721282,10.403612734158937,12.151540091107048,13.813471140765436,15.217410017149357,16.621348893535252,18.025287769923139,19.429226646312998,20.833165522704828,22.237104399098673,23.641043275494475,25.04498215189227,26.448921028292038,27.742451827227242,28.778359430436542,29.814267033647788,30.850174636861041,31.886082240076256,32.921989843293474,33.957897446512689,34.993805049733886,36.029712652957073,37.065620256182271,37.970069208130489,38.630377114657655,39.290685021186853,39.950992927718033,40.611300834251232,41.271608740786412,41.9319166473236,42.592224553862756,43.252532460403934,43.912840366947115,44.425646742622305,44.71719733647862,45.008747930336952,45.300298524197338,45.59184911805972,45.88339971192412,46.174950305790539,46.466500899658982,46.758051493529429,47.049602087401951,47.183504001155491,47.124720883388783,47.065937765624071,47.007154647861441,46.948371530100829,46.889588412342256,46.830805294585694,46.772022176831243,46.713239059078781,46.654455941328351,45.669331951005823,45.2870383668624,44.904744782721068,44.522451198581741,44.140157614444554,43.757864030309385,43.375570446176319,42.9932768620453,42.450677607223611,41.776916412323722,41.103155217425972,40.4293940225303,39.755632827636738,39.081871632745283,38.408110437855932,37.73434924296869,37.060588048083524,36.386826853200496,35.558806273568976,34.627943673969504,33.697081074372193,32.766218474777013,31.835355875183975,30.904493275593058,29.973630676004341,29.042768076417733,28.111905476833282,27.18104287725097,26.105321667009129,24.95159755991445,23.797873452821968,22.64414934573167,21.490425238643564,20.336701131557657,19.182977024473939,18.029252917392412,16.875528810313075,15.721804703235927,14.434615982900496,13.090225889867643,11.74583579683698,10.401445703808625,9.0570556107824665,7.71266551775858,6.36827542473694,5.0238853317175005,3.6794952387003419,2.3351051456854184,0.86924451462756958,-0.63710782665062249,-2.1434601679265373,-3.6498125092001716,-5.1561648504714892,-6.6625171917405686,-8.1688695330073084,-9.675221874271779,-11.181574215534006,-12.687926556793887,-14.304354107006871,-15.948301760013218,-17.5922494130172,-19.236197066018761,-20.88014471901791,-22.524092372014611,-24.168040025008931,-25.811987678000818,-27.455935330990329,-29.09988298397743,-30.844513124756546,-32.606911882984178,-34.369310641209381,-36.131709399432332,-37.894108157652823,-39.656506915871027,-41.418905674086808,-43.181304432300244,-44.94370319051135,-46.706101948720061,-48.562436612120663,-50.429209584867543,-52.295982557611929,-54.162755530353621,-56.029528503092905,-57.8963014758295,-59.763074448563643,-61.629847421295032,-63.496620394024028,-65.363393366750415,-67.32146851325291,-69.2843499457412,-71.247231378226914,-73.210112810710015,-75.1729942431905,-77.135875675668387,-79.098757108143658,-81.061638540616286,-83.0245199730864,-84.9874014055538,0.38762799472435822,0.38762799472435822,0.38762799472435822,0.38762799472435822,0.38762799472435822,0.38762799472435822,0.38762799472435822,0.38762799472435822,0.38762799472435822,0.38762799472435822,0.38762799472435822,0.38762799472435822
DP 226,127.8006931926093,0.0036788137397198617,-100.37230935376715,-97.919557908686187,-95.466806463602467,-93.014055018515975,-90.561303573426756,-88.108552128334736,-85.655800683239946,-83.20304923814237,-80.750297793042037,-78.297546347939047,-75.848079879331138,-73.461028585188714,-71.073977291043519,-68.686925996895553,-66.299874702744873,-63.912823408591422,-61.525772114435149,-59.138720820276227,-56.751669526114455,-54.364618231949976,-51.991031418750445,-49.738626206943842,-47.486220995134559,-45.233815783322591,-42.981410571507944,-40.729005359690589,-38.476600147870563,-36.224194936047837,-33.971789724222432,-31.71938451239437,-29.496249227995275,-27.438978710136222,-25.381708192274413,-23.324437674409889,-21.267167156542641,-19.209896638672614,-17.152626120799841,-15.095355602924341,-13.038085085046099,-10.98081456716511,-8.9731517076608238,-7.1639218261695667,-5.354691944675614,-3.5454620631789457,-1.7362321816795832,0.072997699822503564,1.88222758132729,3.6914574628347903,5.5006873443449864,7.3099172258578919,9.046267018574893,10.56397378940342,12.081680560234663,13.599387331068657,15.117094101905355,16.63480087274479,18.152507643586947,19.670214414431825,21.187921185279428,22.705627956129781,24.12590870848603,25.318858247334379,26.511807786185461,27.704757325039306,28.897706863895888,30.0906564027552,31.283605941617274,32.476555480482105,33.669505019349657,34.862454558219952,35.933811113640331,36.779348844608542,37.624886575579566,38.470424306553333,39.3159620375299,40.161499768509195,41.007037499491311,41.852575230476155,42.698112961463792,43.543650692454186,44.245240539835187,44.7309051602589,45.216569780685461,45.702234401114744,46.18789902154689,46.673563641981815,47.159228262419582,47.644892882860113,48.130557503303464,48.61622212374963,48.93851935882558,49.061141913620411,49.1837644684181,49.306387023218647,49.429009578022061,49.551632132828267,49.674254687637386,49.79687724244927,49.9194997972641,50.042122352081734,49.514327642841735,49.278684570917527,49.0430414989962,48.807398427077793,48.571755355162274,48.336112283249641,48.100469211339913,47.864826139433113,47.438259203749126,46.855478552902724,46.272697902059157,45.689917251218596,45.107136600381011,44.524355949546383,43.941575298714667,43.358794647885937,42.77601399706014,42.193233346237335,41.411603283212642,40.497403812799114,39.583204342388605,38.669004871981151,37.754805401576682,36.84060593117524,35.926406460776796,35.012206990381422,34.098007519989089,33.183808049599733,32.066242349416356,30.839168798966021,29.61209524851883,28.385021698074731,27.157948147633718,25.930874597195782,24.703801046760955,23.476727496329268,22.249653945900597,21.022580395475082,19.590284883998319,18.070033639588271,16.549782395181314,15.029531150777634,13.509279906377092,11.989028661979756,10.468777417585613,8.9485261731946188,7.4282749288068439,5.9080236844222407,4.1823416375815423,2.388180067578662,0.594018497579021,-1.2001430724173705,-2.9943046424104787,-4.7884662124003983,-6.5826277823869885,-8.3767893523703414,-10.170950922350507,-11.965112492327343,-13.964246022921877,-16.014624965446085,-18.065003907966929,-20.115382850484281,-22.165761792998204,-24.216140735508631,-26.266519678015651,-28.316898620519197,-30.367277563019297,-32.417656505516014,-34.67341362642577,-36.96541623912497,-39.257418851820731,-41.549421464513273,-43.841424077202277,-46.133426689888,-48.425429302570343,-50.717431915249321,-53.009434527924888,-55.301437140597159,-57.80063492844949,-60.32285657846959,-62.84507822848613,-65.367299878498883,-67.889521528508112,-70.411743178513433,-72.933964828515229,-75.45618647851326,-77.978408128507738,-80.500629778498521,-83.2351621633735,-85.980870909858709,-88.726579656340263,-91.4722884028179,-94.217997149291975,-96.963705895762274,-99.709414642228737,-102.45512338869148,-105.20083213515048,-107.94654088160563,0.55408919162032377,0.55408919162032377,0.55408919162032377,0.55408919162032377,0.55408919162032377,0.55408919162032377,0.55408919162032377,0.55408919162032377,0.55408919162032377,0.55408919162032377,0.55408919162032377,0.55408919162032377
DP 227,112.32065072472821,0.0028559627514019572,-70.425563868287355,-68.7435087504103,-67.061453632531155,-65.379398514649964,-63.697343396766726,-62.015288278881386,-60.33323316099397,-58.651178043104522,-56.969122925212922,-55.287067807319261,-53.607128719799078,-51.9673946094363,-50.3276604990714,-48.687926388704376,-47.048192278335357,-45.408458167964312,-43.768724057591164,-42.128989947215956,-40.4892558368387,-38.849521726459351,-37.218489661123883,-35.665776823731981,-34.113063986338048,-32.56035114894209,-31.007638311544166,-29.454925474144179,-27.90221263674221,-26.349499799338236,-24.796786961932238,-23.244074124524229,-21.710370442623542,-20.28438650645964,-18.85840257029367,-17.432418634125643,-16.006434697955562,-14.58045076178343,-13.154466825609244,-11.728482889432989,-10.302498953254682,-8.8765150170743237,-7.4829660980131436,-6.2191587803399591,-4.95535146266475,-3.6915441449875033,-2.4277368273082325,-1.1639295096269118,0.099877808056434633,1.3636851257418208,2.6274924434292362,3.8912997611186833,5.1070479913125162,6.1786171419678269,7.2501862926251812,8.3217554432845979,9.3933245939460583,10.464893744609578,11.536462895275152,12.608032045942773,13.679601196612429,14.751170347284173,15.757824427751567,16.613007454463958,17.468190481178425,18.32337350789496,19.178556534613584,20.033739561334261,20.888922588057028,21.744105614781837,22.599288641508718,23.454471668237687,24.227646075088604,24.848516544570913,25.469387014055311,26.090257483541794,26.711127953030374,27.331998422521025,27.952868892013782,28.573739361508654,29.194609831005604,29.815480300504635,30.337898612448036,30.71263636159604,31.087374110746161,31.462111859898389,31.836849609052727,32.211587358209243,32.5863251073678,32.961062856528564,33.335800605691404,33.710538354856354,33.971770338297588,34.094270668357765,34.21677099842011,34.339271328484607,34.461771658551243,34.584271988620067,34.706772318691,34.829272648764139,34.9517729788394,35.074273308916808,34.808523847650065,34.677723518289007,34.54692318893013,34.416122859573484,34.285322530219005,34.154522200866737,34.023721871516692,33.892921542168786,33.624529478871018,33.243559995911014,32.862590512953261,32.481621029997804,32.100651547044492,31.719682064093508,31.338712581144751,30.95774309819824,30.576773615253977,30.195804132311977,29.668545855068249,29.043759410386361,28.418972965706789,27.794186521029495,27.169400076354506,26.54461363168183,25.919827187011471,25.295040742343396,24.670254297677641,24.04546785301417,23.267760477186084,22.407708837762215,21.547657198340683,20.687605558921554,19.827553919504766,18.967502280090322,18.107450640678234,17.247399001268544,16.387347361861174,15.527295722456193,14.509386740200769,13.423821946558986,12.338257152919567,11.25269235928266,10.167127565648126,9.0815627720160563,7.9959979783864092,6.910433184759162,5.82486839113438,4.73930359751202,3.49207871289823,2.1909650939120744,0.88985147492839778,-0.41126214405279921,-1.7123757630314884,-3.0134893820077395,-4.3146030009814451,-5.6157166199526882,-6.9168302389214888,-8.21794385788775,-9.68392291832465,-11.19112028703988,-12.698317655752533,-14.205515024462525,-15.712712393169882,-17.219909761874579,-18.727107130576666,-20.234304499276103,-21.74150186797289,-23.248699236667083,-24.924345686302313,-26.629720317516448,-28.335094948727996,-30.040469579937039,-31.745844211143442,-33.451218842347288,-35.156593473548547,-36.861968104747234,-38.567342735943349,-40.272717367136927,-42.150723289118915,-44.047912278667816,-45.945101268213939,-47.842290257757185,-49.7394792472977,-51.636668236835334,-53.533857226370166,-55.431046215902114,-57.328235205431376,-59.225424194957725,-61.30130567310124,-63.386593796984883,-65.471881920865613,-67.557170044743529,-69.6424581686185,-71.72774629249065,-73.813034416359869,-75.898322540226189,-77.98361066408971,-80.068898787950175,0.42362574308059858,0.42362574308059858,0.42362574308059858,0.42362574308059858,0.42362574308059858,0.42362574308059858,0.42362574308059858,0.42362574308059858,0.42362574308059858,0.42362574308059858,0.42362574308059858,0.42362574308059858
DP 228,66.804555870608453,0.001858271496520042,-31.564837602974539,-30.879056452140716,-30.193275301305913,-29.507494150470084,-28.821712999633295,-28.135931848795472,-27.45015069795668,-26.764369547116846,-26.078588396276039,-25.392807245434227,-24.707722182430253,-24.035862919955164,-23.364003657479056,-22.6921443950019,-22.020285132523782,-21.348425870044668,-20.676566607564528,-20.004707345083389,-19.332848082601245,-18.660988820118092,-17.992024067277633,-17.349110174823572,-16.706196282368502,-16.063282389912416,-15.420368497455359,-14.777454604997271,-14.134540712538186,-13.491626820078087,-12.84871292761701,-12.205799035154914,-11.569307936784874,-10.969213076336978,-10.369118215888044,-9.769023355438085,-9.16892849498711,-8.5688336345350855,-7.96873877408205,-7.3686439136279791,-6.7685490531728831,-6.1684541927167578,-5.5795602060906928,-5.0354702441502672,-4.4913802822088194,-3.947290320266327,-3.403200358322811,-2.8591103963782567,-2.3150204344326681,-1.7709304724860468,-1.226840510538395,-0.68275054858970907,-0.15571954920854919,0.32013391749219572,0.79598738419399417,1.2718408508968473,1.7476943176007556,2.2235477843057203,2.6994012510117322,3.1752547177188051,3.6511081844269242,4.1269616511361065,4.578993032527281,4.9754386099697987,5.3718841874133929,5.7683297648580645,6.1647753423038116,6.561220919750637,6.9576664971985238,7.3541120746475066,7.7505576520975534,8.147003229548675,8.5121612473170583,8.8192129521460938,9.12626465697623,9.4333163618074742,9.74036806663981,10.047419771473256,10.354471476307804,10.661523181143433,10.968574885980169,11.275626590818016,11.543421836869857,11.752331467097502,11.961241097326269,12.170150727556177,12.379060357787209,12.587969988019376,12.796879618252655,13.005789248487073,13.214698878722626,13.423608508959294,13.584983227888879,13.688258723427383,13.791534218967023,13.894809714507835,13.998085210049817,14.101360705592931,14.204636201137232,14.307911696682689,14.411187192229308,14.514462687777089,14.544524643506536,14.535894115142284,14.527263586779226,14.518633058417358,14.510002530056678,14.501372001697215,14.492741473338928,14.484110944981856,14.411117088513702,14.285461221097682,14.159805353682883,14.034149486269342,13.908493618856996,13.782837751445918,13.657181884036055,13.531526016627426,13.405870149220032,13.280214281813876,13.081904660925336,12.835158059826169,12.58841145872827,12.341664857631642,12.094918256536301,11.848171655442213,11.601425054349429,11.354678453257888,11.107931852167642,10.861185251078659,10.533693416960666,10.16272220626546,9.79175099557158,9.4207797848790129,9.049808574187761,8.6788373634978324,8.3078661528092077,7.9368949421219188,7.5659237314359258,7.19495252075125,6.7353896115755552,6.23785733629202,5.740325061009826,5.2427927857290424,4.7452605104495991,4.2477282351715351,3.7501959598948411,3.2526636846194981,2.755131409345541,2.2575991340729433,1.6638718693557137,1.0380783958274464,0.41228492230058444,-0.213508551224873,-0.83930202474891258,-1.4650954982715667,-2.0908889717927863,-2.7166824453126077,-3.3424759188310409,-3.9682693923480441,-4.6975619515006777,-5.4527305049200292,-6.2078990583378948,-6.9630676117542381,-7.71823616516909,-8.4734047185824224,-9.2285732719942413,-9.9837418254045609,-10.738910378813371,-11.494078932220695,-12.359953012346729,-13.245364592954987,-14.130776173561756,-15.016187754167092,-15.901599334770934,-16.787010915373294,-17.672422495974182,-18.557834076573602,-19.443245657171548,-20.328657237768034,-21.331600811937424,-22.347604730866589,-23.363608649794138,-24.379612568720038,-25.395616487644354,-26.411620406566986,-27.427624325488004,-28.44362824440735,-29.459632163325132,-30.475636082241252,-31.6160307527035,-32.762973542464131,-33.909916332223133,-35.05685912198043,-36.203801911736058,-37.350744701490058,-38.497687491242367,-39.644630280992956,-40.791573070741912,-41.93851586048914,0.23907853676877239,0.23907853676877239,0.23907853676877239,0.23907853676877239,0.23907853676877239,0.23907853676877239,0.23907853676877239,0.23907853676877239,0.23907853676877239,0.23907853676877239,0.23907853676877239,0.23907853676877239
DP 229,91.8361305615021,0.0030117544253522245,-63.785140515465955,-62.315952497558953,-60.846764479650027,-59.377576461738968,-57.908388443825984,-56.439200425911,-54.970012407993991,-53.500824390075,-52.031636372153976,-50.562448354230987,-49.094945712028888,-47.659465527171413,-46.223985342311927,-44.788505157450437,-43.353024972587015,-41.917544787721539,-40.482064602854088,-39.046584417984626,-37.61110423311316,-36.175624048239705,-34.747108365821859,-33.381273863817462,-32.015439361811111,-30.649604859802778,-29.283770357792523,-27.917935855780282,-26.552101353766055,-25.186266851749874,-23.820432349731739,-22.45459784771165,-21.104080529149591,-19.840361548730311,-18.57664256830904,-17.312923587885724,-16.049204607460421,-14.7854856270331,-13.521766646603776,-12.258047666172434,-10.994328685739086,-9.7306097053037348,-8.4932762909278541,-7.361486387799081,-6.2296964846683132,-5.0979065815355469,-3.9661166784007933,-2.8343267752640315,-1.7025368721252834,-0.57074696898452981,0.5610429341582116,1.6928328373029493,2.7850538699515108,3.7585667950633104,4.7320797201771265,5.7055926452929588,6.6791055704108153,7.6526184955306951,8.6261314206525928,9.5996443457765128,10.573157270902435,11.546670196030394,12.465950576507762,13.258686216909696,14.051421857313699,14.844157497719722,15.636893138127792,16.429628778537925,17.222364418950104,18.0151000593643,18.807835699780565,19.600571340198854,20.323608596248832,20.917204113328729,21.510799630410709,22.104395147494756,22.697990664580882,23.291586181669057,23.885181698759322,24.478777215851672,25.072372732946079,25.665968250042585,26.174233840881843,26.5545025259565,26.934771211033262,27.315039896112136,27.695308581193146,28.07557726627622,28.455845951361422,28.83611463644873,29.216383321538164,29.596652006629721,29.876355215677656,30.033142952761448,30.189930689847394,30.346718426935503,30.50350616402573,30.660293901118102,30.817081638212663,30.973869375309395,31.130657112408212,31.287444849509257,31.182990353537342,31.109850573074354,31.036710792613562,30.963571012154961,30.890431231698585,30.817291451244415,30.744151670792448,30.671011890342665,30.469655090332282,30.163391252634916,29.857127414939772,29.550863577246911,29.244599739556278,28.938335901867909,28.63207206418182,28.325808226497983,28.019544388816374,27.713280551137046,27.266838461398226,26.726941995312249,26.187045529228627,25.647149063147328,25.107252597068349,24.567356130991651,24.027459664917306,23.487563198845265,22.947666732775545,22.407770266708123,21.717021591109845,20.945042609032161,20.173063626956864,19.401084644883916,18.629105662813348,17.857126680745164,17.085147698679336,16.31316871661592,15.54118973455483,14.76921075249613,13.836860915794864,12.835778005942602,11.83469509609276,10.833612186245425,9.8325292764005123,8.8314463665580778,7.8303634567181106,6.8292805468805637,5.8281976370455215,4.8271147272129173,3.6570014011179492,2.43054247267327,1.2040835442311009,-0.022375384208551712,-1.2488343126456649,-2.475293241080303,-3.7017521695123659,-4.92821109794193,-6.1546700263690157,-7.381128954793529,-8.7846569547811946,-10.232454314758229,-11.680251674732604,-13.128049034704288,-14.575846394673311,-16.023643754639632,-17.47144111460327,-18.919238474564246,-20.3670358345225,-21.81483319447813,-23.4478140567285,-25.113476419827197,-26.779138782923223,-28.4448011460167,-30.110463509107497,-31.776125872195735,-33.4417882352813,-35.107450598364224,-36.773112961444561,-38.438775324522332,-40.297713321840085,-42.17812841947827,-44.058543517113542,-45.938958614745943,-47.819373712375594,-49.699788810002218,-51.580203907626007,-53.460619005246869,-55.34103410286496,-57.22144920048008,-59.30425391677008,-61.397712731948708,-63.491171547124523,-65.58463036229729,-67.678089177467157,-69.771547992634225,-71.865006807798252,-73.958465622959253,-76.0519244381174,-78.145383253272584,0.42958371319729188,0.42958371319729188,0.42958371319729188,0.42958371319729188,0.42958371319729188,0.42958371319729188,0.42958371319729188,0.42958371319729188,0.42958371319729188,0.42958371319729188,0.42958371319729188,0.42958371319729188
DP 230,171.48096833913806,0.003035525151660722,-104.46998650710231,-101.78297409010958,-99.095961673114161,-96.408949256116529,-93.721936839116552,-91.034924422113974,-88.347912005109222,-85.660899588101913,-82.973887171092272,-80.286874754080188,-77.604046180859939,-75.000711430660644,-72.397376680459,-69.794041930254949,-67.190707180048463,-64.587372429839675,-61.984037679628479,-59.380702929414859,-56.777368179198824,-54.1740334289805,-51.587700716472369,-49.154387950438434,-46.721075184402181,-44.287762418363634,-41.854449652322764,-39.421136886279506,-36.987824120233988,-34.554511354186111,-32.121198588135933,-29.687885822083462,-27.29106581367579,-25.101040398172589,-22.91101498266698,-20.720989567159005,-18.5309641516487,-16.34093873613601,-14.150913320620944,-11.960887905103521,-9.7708624895837364,-7.5808370740615967,-5.4515709581901968,-3.5653449124624816,-1.6791188667324501,0.2071071789999186,2.0933332247345979,3.9795592704716176,5.8657853162109532,7.7520113619526274,9.6382374076966162,11.524463453442927,13.323403471661356,14.86048210712748,16.397560742595946,17.934639378066752,19.471718013539896,21.008796649015359,22.545875284493178,24.08295391997332,25.620032555455811,27.157111190940626,28.580628665023774,29.739165623347269,30.897702581673077,32.056239540001272,33.214776498331787,34.373313456664668,35.53185041499988,36.690387373337458,37.848924331677338,39.007461290019606,40.0286871197139,40.794902859387939,41.561118599064315,42.327334338743043,43.093550078424165,43.859765818107611,44.625981557793438,45.392197297481637,46.158413037172167,46.924628776865084,47.53406642827747,47.908333242543705,48.282600056812306,48.6568668710833,49.031133685356671,49.405400499632414,49.779667313910522,50.153934128191068,50.528200942473973,50.902467756759279,51.105886290521624,51.100486670570724,51.095087050622261,51.089687430676257,51.08428781073264,51.078888190791382,51.073488570852632,51.068088950916206,51.062689330982245,51.057289711050586,50.145677226225182,49.782111479203969,49.418545732185216,49.054979985168906,48.691414238155076,48.327848491143619,47.964282744134678,47.600716997128167,47.055485686210382,46.361615791857972,45.667745897508112,44.973876003160655,44.280006108815748,43.586136214473278,42.892266320133373,42.198396425795927,41.504526531460968,40.810656637128496,39.937491211636633,38.944792607494257,37.952094003354432,36.959395399217115,35.96669679508237,34.97399819095012,33.981299586820448,32.988600982693306,31.995902378568722,31.003203774446671,29.837462931788707,28.578542982812877,27.319623033839662,26.06070308486904,24.801783135901022,23.54286318693562,22.283943237972796,21.025023289012612,19.76610334005499,18.507183391100011,17.084066443667105,15.590576582572467,14.097086721480423,12.60359686039112,11.110106999304437,9.6166171382204375,8.1231272771391119,6.62963741606041,5.1361475549844009,3.6426576939110591,1.9949785309727883,0.29590099085766458,-1.4031765492547523,-3.1022540893644566,-4.8013316294714175,-6.5004091695757173,-8.1994867096772239,-9.8985642497760473,-11.597641789872203,-13.296719329965562,-15.14012220677894,-17.019608122998022,-18.899094039214305,-20.778579955427695,-22.658065871638239,-24.537551787845864,-26.417037704050646,-28.296523620252543,-30.176009536451584,-32.055495452647826,-34.07122404515701,-36.110996977935223,-38.1507699107105,-40.190542843483115,-42.230315776252823,-44.270088709019781,-46.309861641783854,-48.34963457454522,-50.389407507303709,-52.42918044005949,-54.599668415948862,-56.784681658334584,-58.9696949007173,-61.154708143096862,-63.33972138547351,-65.524734627847,-67.709747870217484,-69.894761112584845,-72.079774354949222,-74.2647875973105,-76.579332510915179,-78.90069616968789,-81.22205982845756,-83.543423487224146,-85.8647871459876,-88.186150804747967,-90.5075144635053,-92.828878122259383,-95.150241781010465,-97.471605439758321,0.46129471764260227,0.46129471764260227,0.46129471764260227,0.46129471764260227,0.46129471764260227,0.46129471764260227,0.46129471764260227,0.46129471764260227,0.46129471764260227,0.46129471764260227,0.46129471764260227,0.46129471764260227
DP 231,135.57650125219087,0.0011801965848550102,-33.741417830298424,-32.908310063640592,-32.075202296981864,-31.242094530322188,-30.408986763661684,-29.575878997000217,-28.742771230337894,-27.909663463674633,-27.076555697010487,-26.24344793034545,-25.411489238450038,-24.60136318442,-23.79123713038906,-22.981111076357212,-22.170985022324476,-21.360858968290877,-20.550732914256347,-19.740606860220918,-18.930480806184619,-18.120354752147406,-17.314930716809762,-16.551825294218514,-15.788719871626382,-15.025614449033394,-14.262509026439535,-13.499403603844796,-12.73629818124917,-11.973192758652681,-11.21008733605532,-10.446981913457094,-9.69407433878788,-8.9989552116662086,-8.3038360845436348,-7.6087169574201772,-6.913597830295827,-6.2184787031705833,-5.5233595760444549,-4.8282404489174269,-4.13312132178951,-3.4380021946607107,-2.7601102356423537,-2.1511277632383523,-1.542145290833479,-0.93316281842772308,-0.3241803460210928,0.28480212638642211,0.89378459879481231,1.5027670712040841,2.1117495436142315,2.7207320160252584,3.3045102044203065,3.8126745878265496,4.3208389712336759,4.8290033546416815,5.33716773805058,5.84533212146036,6.3534965048710239,6.8616608882825778,7.3698252716950048,7.8779896551083279,8.3526294915730421,8.7490440648284,9.1454586380846266,9.5418732113417679,9.9382877845997868,10.3347023578587,10.731116931118498,11.1275315043792,11.52394607764078,11.920360650903252,12.275180481163314,12.552751808247578,12.830323135332749,13.107894462418795,13.385465789505767,13.66303711659361,13.940608443682361,14.218179770772023,14.49575109786255,14.773322424953991,15.001983527318025,15.157278136823743,15.312572746330366,15.467867355837921,15.623161965346377,15.778456574855722,15.933751184365997,16.089045793877169,16.244340403389259,16.399635012902241,16.499840588295211,16.532713964853151,16.565587341412026,16.598460717971818,16.631334094532541,16.664207471094159,16.697080847656711,16.729954224220187,16.762827600784597,16.795700977349902,16.594841467986203,16.507922762472859,16.421004056960481,16.334085351449005,16.247166645938492,16.160247940428896,16.073329234920255,15.986410529412538,15.83624206936444,15.634322723154702,15.432403376945903,15.230484030738069,15.028564684531194,14.82664533832526,14.624725992120302,14.422806645916284,14.220887299713217,14.018967953511108,13.751833753296383,13.441221956373287,13.130610159451184,12.819998362530045,12.509386565609894,12.198774768690713,11.888162971772521,11.577551174855296,11.266939377939046,10.956327581023769,10.579734235033055,10.167611403129884,9.75548857122773,9.3433657393265719,8.9312429074264177,8.51912007552726,8.1069972436291025,7.6948744117319556,7.2827515798357974,6.8706287479406507,6.392671069543896,5.8864973457156147,5.380323621888337,4.8741498980621083,4.3679761742368939,3.86180245041272,3.3556287265895679,2.8494550027674306,2.3432812789463351,1.8371075551262643,1.2657880127409218,0.67275237647861152,0.07971674021734762,-0.51331889604286973,-1.1063545323020285,-1.6993901685601569,-2.2924258048172113,-2.885461441073228,-3.4784970773282105,-4.0715327135821191,-4.7288406641127558,-5.4022174525998308,-6.0755942410858133,-6.7489710295706864,-7.4223478180544351,-8.0957246065370772,-8.76910139501861,-9.4424781834990341,-10.115854971978344,-10.789231760456557,-11.526351942197049,-12.274721666878094,-13.023091391558047,-13.771461116236944,-14.519830840914727,-15.268200565591426,-16.016570290267044,-16.76494001494158,-17.513309739615025,-18.261679464287411,-19.073819478797411,-19.893045750805172,-20.712272022811746,-21.531498294817123,-22.350724566821341,-23.169950838824338,-23.989177110826194,-24.808403382826821,-25.627629654826286,-26.446855926824583,-27.331070222690045,-28.218705587468726,-29.106340952246263,-29.993976317022526,-30.881611681797612,-31.769247046571518,-32.656882411344185,-33.544517776115605,-34.432153140885859,-35.319788505654863,0.1785739544238534,0.1785739544238534,0.1785739544238534,0.1785739544238534,0.1785739544238534,0.1785739544238534,0.1785739544238534,0.1785739544238534,0.1785739544238534,0.1785739544238534,0.1785739544238534,0.1785739544238534
DP 232,127.64741259150341,0.0023685461324960758,-64.561879109211162,-62.984544280391866,-61.407209451570736,-59.829874622747909,-58.252539793923169,-56.675204965096746,-55.097870136268533,-53.5205353074385,-51.943200478606727,-50.365865649773134,-48.790642115714007,-47.255533581530536,-45.7204250473453,-44.185316513158263,-42.650207978969476,-41.115099444778878,-39.579990910586531,-38.044882376392437,-36.509773842196537,-34.974665307998841,-33.4482105746018,-31.999640866396831,-30.551071158190037,-29.102501449981578,-27.653931741771373,-26.205362033559442,-24.756792325345781,-23.30822261713039,-21.859652908913286,-20.411083200694424,-18.981327020482947,-17.658182017846233,-16.335037015207767,-15.011892012567545,-13.688747009925548,-12.365602007281773,-11.042457004636235,-9.71931200198893,-8.3961669993398775,-7.0730219966890528,-5.781764730068546,-4.6180599146147863,-3.4543550991592848,-2.2906502837020404,-1.1269454682430617,0.036759347217671996,1.2004641626801422,2.3641689781443613,3.5278737936103139,4.69157860907801,5.8084317879848983,6.7847282858102842,7.7610247836374269,8.7373212814663148,9.71361777929698,10.689914277129386,11.666210774963558,12.642507272799472,13.618803770637133,14.595100268476557,15.508760568683153,16.276267274218672,17.043773979755962,17.811280685295024,18.578787390835839,19.346294096378426,20.113800801922785,20.8813075074689,21.648814213016795,22.416320918566452,23.105643462155964,23.649764736365565,24.193886010576954,24.738007284790111,25.282128559005038,25.82624983322178,26.370371107440281,26.914492381660615,27.458613655882697,28.002734930106566,28.454286976495975,28.76698299368773,29.079679010881282,29.392375028076646,29.7050710452738,30.017767062472807,30.330463079673574,30.643159096876154,30.955855114080549,31.268551131286742,31.476171995990693,31.555365467222973,31.634558938457111,31.713752409693065,31.792945880930812,31.872139352170468,31.951332823411903,32.030526294655182,32.1097197659003,32.188913237147247,31.850331050889441,31.699059046465411,31.547787042043261,31.396515037622947,31.245243033204535,31.09397102878793,30.942699024373262,30.791427019960384,30.5173129755979,30.142689696511972,29.768066417427978,29.393443138345859,29.018819859265644,28.644196580187351,28.26957330111096,27.894950022036468,27.520326742963878,27.145703463893192,26.643113982632784,26.055211683988396,25.467309385345985,24.879407086705495,24.29150478806697,23.703602489430345,23.115700190795717,22.527797892163012,21.939895593532274,21.351993294903455,20.633190089761808,19.84389987758496,19.054609665410116,18.265319453237264,17.476029241066403,16.686739028897556,15.897448816730677,15.108158604565821,14.318868392402951,13.529578180242082,12.608162436579745,11.630119235003615,10.652076033429498,9.6740328318574758,8.6959896302874711,7.7179464287195412,6.7399032271536505,5.7618600255897956,4.7838168240280128,3.8057736224682737,2.6954408471704849,1.5410098800699028,0.38657891297141095,-0.7678520541249918,-1.922283021219281,-3.0767139883115129,-4.2311449554016054,-5.3855759224896174,-6.5400068895755705,-7.6944378566593841,-8.980892251597087,-10.300354063375373,-11.619815875151483,-12.939277686925367,-14.258739498697024,-15.578201310466447,-16.897663122233659,-18.217124933998644,-19.536586745761412,-20.856048557521994,-22.307821648527369,-23.782945260131239,-25.258068871732906,-26.733192483332473,-28.208316094929813,-29.683439706524993,-31.158563318118023,-32.633686929708873,-34.108810541297565,-35.583934152884119,-37.19256167924285,-38.816024376014738,-40.439487072784331,-42.0629497695515,-43.686412466316334,-45.309875163078814,-46.933337859838943,-48.556800556596571,-50.180263253351939,-51.803725950104912,-53.5640023413506,-55.331480814599843,-57.098959287846732,-58.866437761091184,-60.633916234333284,-62.40139470757294,-64.1688731808102,-65.936351654045,-67.703830127277314,-69.471308600507257,0.35670285415148506,0.35670285415148506,0.35670285415148506,0.35670285415148506,0.35670285415148506,0.35670285415148506,0.35670285415148506,0.35670285415148506,0.35670285415148506,0.35670285415148506,0.35670285415148506,0.35670285415148506
DP 233,251.91107915223716,0.0020506255264514232,-93.898490922356274,-91.311810904999618,-88.725130887641257,-86.13845087028136,-83.55177085291983,-80.965090835556651,-78.378410818191867,-75.791730800825434,-73.205050783457267,-70.618370766087637,-68.036700327959281,-65.5502128424795,-63.063725356998184,-60.577237871515173,-58.090750386030557,-55.604262900544406,-53.117775415056542,-50.631287929567129,-48.144800444076068,-45.658312958583416,-43.191894402306239,-40.906098105931569,-38.620301809555379,-36.334505513177618,-34.048709216798322,-31.762912920417403,-29.477116624034966,-27.191320327650896,-24.905524031265351,-22.619727734878168,-20.376055624656331,-18.371089890479876,-16.366124156301833,-14.361158422122186,-12.356192687940959,-10.351226953758136,-8.3462612195737087,-6.3412954853876924,-4.33632975120009,-2.3313640170109009,-0.3943982924949207,1.2705641795880587,2.9355266516725922,4.6004891237586918,6.2654515958463444,7.9304140679355717,9.59537654002635,11.260339012118692,12.925301484212602,14.590263956308062,16.161256776212703,17.450337086679173,18.739417397147207,20.028497707616818,21.317578018087975,22.60665832856073,23.895738639035017,25.184818949510909,26.473899259988318,27.762979570467319,28.935352912999573,29.83540540060422,30.735457888210405,31.635510375818182,32.535562863427529,33.435615351038415,34.33566783865092,35.235720326264975,36.135772813880564,37.035825301497759,37.802130573817458,38.320044548587369,38.837958523358907,39.35587249813198,39.873786472906616,40.391700447682837,40.909614422460656,41.427528397240025,41.945442372020977,42.463356346803494,42.8375083167944,42.9960138824478,43.154519448102739,43.313025013759272,43.4715305794174,43.6300361450771,43.78854171073835,43.947047276401264,44.1055528420657,44.264058407731724,44.276020326771288,44.108870266262137,43.941720205754564,43.774570145248667,43.607420084744341,43.44027002424162,43.273119963740484,43.105969903240968,42.938819842743,42.771669782246668,41.5562151870839,41.103462821214848,40.650710455347458,40.197958089481652,39.74520572361746,39.29245335775488,38.839700991893949,38.386948626034624,37.800343342142689,37.104219734047717,36.408096125954366,35.711972517862662,35.0158489097726,34.319725301684187,33.623601693597429,32.927478085512341,32.231354477428859,31.535230869347025,30.717791565292124,29.819473219433448,28.921154873576452,28.022836527721154,27.124518181867494,26.226199836015528,25.327881490165257,24.429563144316617,23.531244798469682,22.63292645262441,21.627781531226759,20.565113054163241,19.502444577101457,18.439776100041367,17.377107622982994,16.314439145926332,15.25177066887135,14.189102191818112,13.126433714766554,12.063765237716721,10.909240997629713,9.7153484515351423,8.5214559054422754,7.3275633593512106,6.1336708132618663,4.9397782671742894,3.7458857210884582,2.5519931750043452,1.3581006289220166,0.16420808284142513,-1.1073229354544294,-2.4047344229530592,-3.7021459104499153,-4.9995573979449937,-6.296968885438269,-7.5943803729298081,-8.891791860419513,-10.189203347907444,-11.486614835393651,-12.784026322878015,-14.146484445486481,-15.52520499541135,-16.903925545334406,-18.282646095255544,-19.661366645174827,-21.040087195092198,-22.418807745007726,-23.797528294921364,-25.176248844833125,-26.554969394743047,-27.988648937112533,-29.432027736361146,-30.875406535607897,-32.318785334852869,-33.762164134095947,-35.20554293333722,-36.64892173257666,-38.092300531814239,-39.535679331050041,-40.979058130283939,-42.470046780178485,-43.966325913494131,-45.462605046807838,-46.958884180119455,-48.455163313429196,-49.951442446736884,-51.447721580042632,-52.944000713346334,-54.440279846648075,-55.936558979947819,-57.476690053460793,-59.019129560134829,-60.561569066806975,-62.104008573477046,-63.64644808014507,-65.188887586811177,-66.731327093475173,-68.273766600137066,-69.816206106797,-71.358645613454883,0.30100627194854945,0.30100627194854945,0.30100627194854945,0.30100627194854945,0.30100627194854945,0.30100627194854945,0.30100627194854945,0.30100627194854945,0.30100627194854945,0.30100627194854945,0.30100627194854945,0.30100627194854945
DP 234,156.71335682549852,0.0015446556854854748,-49.532227225353218,-48.2779956542729,-47.023764083191367,-45.769532512108668,-44.515300941024677,-43.261069369939555,-42.006837798853205,-40.752606227765632,-39.498374656676852,-38.244143085586906,-36.991774053802764,-35.774793620955215,-34.557813188106493,-33.340832755256535,-32.123852322405376,-30.906871889553017,-29.689891456699495,-28.472911023844702,-27.255930590988779,-26.038950158131581,-24.829559836427421,-23.688481232540489,-22.547402628652421,-21.40632402476319,-20.26524542087278,-19.124166816981205,-17.983088213088458,-16.842009609194516,-15.700931005299415,-14.559852401403161,-13.435133572007285,-12.403121162355495,-11.371108752702508,-10.339096343048324,-9.307083933392958,-8.2750715237363828,-7.2430591140786191,-6.21104670441966,-5.179034294759516,-4.1470218850981784,-3.1424087060416674,-2.24739374431781,-1.3523787825927867,-0.45736382086658339,0.4376511408607871,1.3326661025893409,2.2276810643190639,3.1226960260499688,4.0177109877820358,4.9127259495152842,5.7680883137081835,6.5044913860678246,7.240894458428647,7.9772975307906524,8.71370060315384,9.4501036755182017,10.186506747883746,10.922909820250483,11.659312892618377,12.395715964987474,13.080067616037889,13.642963900686778,14.205860185336869,14.768756469988141,15.331652754640565,15.894549039294201,16.457445323949035,17.020341608605037,17.583237893262229,18.146134177920619,18.645436738971004,19.026634953041707,19.407833167113598,19.789031381186703,20.170229595260981,20.551427809336477,20.932626023413135,21.313824237491005,21.695022451570075,22.076220665650336,22.383946257091786,22.5814611783892,22.778976099687778,22.976491020987595,23.174005942288613,23.371520863590845,23.569035784894275,23.766550706198903,23.964065627504738,24.161580548811795,24.277964126915819,24.295185470292761,24.312406813670904,24.329628157050291,24.346849500430881,24.364070843812694,24.381292187195726,24.39851353057999,24.415734873965505,24.432956217352189,24.053149835378477,23.89778268765043,23.742415539923627,23.587048392198064,23.431681244473712,23.276314096750628,23.120946949028792,22.965579801308177,22.721260463350283,22.404160531945788,22.087060600542568,21.7699606691406,21.452860737739897,21.135760806340471,20.818660874942289,20.501560943545382,20.184461012149736,19.867361080755376,19.460924046681892,18.99492753677761,18.528931026874609,18.062934516972902,17.596938007072492,17.130941497173357,16.664944987275536,16.198948477378984,15.732951967483725,15.266955457589765,14.713095303506877,14.111922678707995,13.51075005391046,12.90957742911425,12.308404804319339,11.70723217952577,11.106059554733509,10.50488692994259,9.9037143051529668,9.3025416803646817,8.6162947371625389,7.8935859358262,7.170877134491187,6.4481683331575619,5.725459531825277,5.0027507304943519,4.2800419291647858,3.5573331278365568,2.8346243265097018,2.1119155251841915,1.3076019968123493,0.47608586430768207,-0.35543026819560725,-1.1869464006975163,-2.0184625331980297,-2.8499786656971891,-3.6814947981949313,-4.5130109306913013,-5.3445270631863178,-6.1760431956799149,-7.0856128381882018,-8.01469678041428,-8.9437807226389161,-9.872864664862087,-10.801948607083805,-11.731032549304043,-12.660116491522839,-13.589200433740158,-14.518284375956023,-15.447368318170442,-16.451667076321382,-17.469239873683776,-18.486812671044706,-19.504385468404287,-20.521958265762386,-21.539531063119092,-22.55710386047431,-23.574676657828153,-24.592249455180532,-25.609822252531519,-26.700848859303026,-27.800037771892161,-28.89922668447975,-29.998415597065716,-31.097604509650207,-32.196793422233092,-33.295982334814468,-34.395171247394217,-35.494360159972466,-36.593549072549138,-37.766406013027904,-38.943140951099828,-40.119875889170224,-41.296610827238965,-42.473345765306156,-43.650080703371778,-44.826815641435793,-46.003550579498139,-47.180285517558993,-48.357020455618191,0.23493794807413967,0.23493794807413967,0.23493794807413967,0.23493794807413967,0.23493794807413967,0.23493794807413967,0.23493794807413967,0.23493794807413967,0.23493794807413967,0.23493794807413967,0.23493794807413967,0.23493794807413967
DP 235,72.0297206280939,0.0015860698174721725,-28.322370343205698,-27.698391332777152,-27.074412322347694,-26.450433311917319,-25.826454301486031,-25.202475291053876,-24.578496280620811,-23.95451727018683,-23.330538259751954,-22.706559249316179,-22.083229991933969,-21.472246165417964,-20.861262338901028,-20.250278512383183,-19.639294685864435,-19.028310859344785,-18.417327032824222,-17.806343206302749,-17.195359379780378,-16.584375553257086,-15.976089611800978,-15.392084890965382,-14.808080170128857,-14.224075449291462,-13.640070728453153,-13.056066007613932,-12.472061286773821,-11.888056565932805,-11.304051845090886,-10.720047124248055,-10.142018281508546,-9.59785312459232,-9.0536879676751632,-8.5095228107570744,-7.9653576538380815,-7.4211924969181471,-6.877027339997297,-6.3328621830755161,-5.7886970261528186,-5.2445318692291956,-4.7107612698674854,-4.2185693920114078,-3.7263775141544095,-3.2341856362964738,-2.7419937584376219,-2.2498018805778361,-1.7576100027171255,-1.2654181248554883,-0.773226246992926,-0.281034369129437,0.19537621510494524,0.62444232178127845,1.0535084284585543,1.4825745351367734,1.9116406418159357,2.3407067484960398,2.769772855177087,3.198838961859078,3.627905068542006,4.0569711752258817,4.4640854388861868,4.8199778709421164,5.1758703029990061,5.5317627350568568,5.8876551671156658,6.2435475991754359,6.5994400312361634,6.955332463297851,7.3112248953605015,7.6671173274241129,7.9943056536734733,8.2681855796513357,8.542065505630184,8.8159454316100039,9.0898253575908026,9.36370528357259,9.6375852095553451,9.9114651355390855,10.18534506152381,10.45922498750951,10.697268982769017,10.881558235122469,11.065847487476907,11.250136739832357,11.434425992188796,11.618715244546253,11.803004496904711,11.987293749264172,12.171583001624629,12.355872253986087,12.497004231932678,12.58538752352996,12.673770815128245,12.762154106727566,12.850537398327935,12.938920689929311,13.027303981531736,13.115687273135171,13.20407056473964,13.292453856345141,13.305067741916389,13.292436446866374,13.27980515181742,13.267173856769515,13.25454256172268,13.241911266676896,13.229279971632163,13.216648676588493,13.146270061311975,13.028642646143286,12.911015230975687,12.793387815809169,12.675760400643744,12.558132985479407,12.440505570316171,12.322878155154005,12.205250739992934,12.087623324832945,11.905211297323616,11.679608507659358,11.454005717996219,11.228402928334212,11.002800138673322,10.777197349013543,10.551594559354903,10.32599176969738,10.100388980040986,9.8747861903857,9.57762264341867,9.2419253403574437,8.90622803729739,8.5705307342384742,8.2348334311807285,7.8991361281241268,7.5634388250686868,7.2277415220144139,6.8920442189612823,6.5563469159093186,6.1425963420302363,5.6953930489186853,5.24818975580832,4.8009864626991767,4.3537831695912255,3.9065798764844804,3.4593765833789361,3.0121732902745855,2.5649699971714455,2.1177667040695067,1.5862739587352626,1.0266836670376058,0.46709337534117895,-0.092496916354014733,-0.6520872080479635,-1.2116774997406983,-1.7712677914321733,-2.3308580831224215,-2.8904483748114549,-3.4500386664992284,-4.0998822830253117,-4.7722902971180492,-5.4446983112094962,-6.1171063252996039,-6.7895143393884085,-7.4619223534758783,-8.1343303675620326,-8.8067383816468734,-9.4791463957303712,-10.151554409812581,-10.920112243857711,-11.70563876239013,-12.491165280921232,-13.276691799451102,-14.062218317979621,-14.847744836506886,-15.633271355032859,-16.418797873557512,-17.204324392080892,-17.989850910602996,-18.877151005811537,-19.775760345069706,-20.674369684326496,-21.57297902358183,-22.471588362835771,-23.370197702088255,-24.268807041339343,-25.167416380588925,-26.06602571983716,-26.964635059083967,-27.970756316425991,-28.982537165473484,-29.99431801451955,-31.006098863564116,-32.017879712607254,-33.029660561648946,-34.041441410689139,-35.053222259727875,-36.065003108765154,-37.076783957800949,0.21010589302667432,0.21010589302667432,0.21010589302667432,0.21010589302667432,0.21010589302667432,0.21010589302667432,0.21010589302667432,0.21010589302667432,0.21010589302667432,0.21010589302667432,0.21010589302667432,0.21010589302667432
DP 236,192.76134820258017,0.0057433650130284614,-216.31770538805753,-210.63917578542964,-204.96064618279743,-199.28211658016045,-193.60358697751872,-187.92505737487261,-182.24652777222178,-176.56799816956655,-170.88946856690657,-165.21093896424196,-159.54183042044642,-154.05172377624464,-148.56161713203852,-143.07151048782771,-137.58140384361243,-132.09129719939267,-126.60119055516829,-121.11108391093939,-115.62097726670582,-110.1308706224678,-104.67889869682507,-99.570142843136054,-94.461386989442843,-89.352631135745156,-84.243875282043021,-79.135119428336509,-74.026363574625535,-68.917607720910183,-63.808851867190405,-58.700096013466187,-53.672705486545382,-49.106390272060139,-44.540075057570448,-39.9737598430762,-35.407444628577458,-30.841129414074274,-26.274814199566521,-21.708498985054277,-17.142183770537553,-12.575868556016337,-8.1439029233453244,-4.2493419675583608,-0.3547810117669985,3.5397799440288038,7.434340899828987,11.32890185563364,15.223462811442687,19.118023767256169,23.012584723074053,26.907145678896359,30.6107081964414,33.741268177759046,36.871828159081169,40.002388140407724,43.132948121738679,46.263508103074109,49.394068084413931,52.524628065758208,55.655188047106947,58.785748028460084,61.670914679366255,63.983487227998765,66.29605977663573,68.608632325277128,70.921204873923031,73.233777422573283,75.546349971227983,77.858922519887187,80.1714950685509,82.484067617219026,84.50421849648923,85.981292663979261,87.458366831473583,88.935440998972567,90.412515166475913,91.889589333983736,93.366663501496021,94.8437376690128,96.320811836534091,97.797886004059819,98.94654808469474,99.60258427449206,100.25862046429386,100.9146566541002,101.57069284391108,102.2267290337265,102.88276522354626,103.53880141337065,104.19483760319953,104.85087379303295,105.15554133475084,105.03075092613051,104.90596051751467,104.78117010890359,104.6563797002969,104.53158929169484,104.40679888309725,104.28200847450439,104.15721806591597,104.03242765733211,101.85340503449075,101.00675270246252,100.16010037043908,99.31344803842002,98.466795706405691,97.620143374395937,96.7734910423909,95.92683871039047,94.722047609613014,93.224227724965246,91.7264078403222,90.228587955683949,88.7307680710503,87.2329481864215,85.735128301797261,84.237308417177871,82.739488532563016,81.241668647952949,79.398756362390529,77.325777039756673,75.2527977171276,73.1798183945033,71.106839071883812,69.033859749269141,66.960880426659287,64.887901104054166,62.814921781453918,60.741942458858347,58.344433595250365,55.772173336484833,53.199913077724318,50.627652818968656,48.055392560217918,45.483132301472075,42.910872042731079,40.338611783995077,37.766351525263907,35.1940912665377,32.322360879775474,29.322281097714178,26.322201315657754,23.322121533606513,20.322041751560207,17.321961969518977,14.321882187482771,11.321802405451509,8.3217226234253463,5.3216428414041879,2.0485529857384552,-1.3155436685087167,-4.6796403227507861,-8.0437369769877449,-11.407833631219535,-14.771930285446317,-18.136026939667818,-21.500123593884279,-24.864220248095695,-28.228316902301845,-31.840241632569374,-35.514126309978089,-39.188010987381517,-42.861895664779475,-46.535780342172089,-50.20966501955921,-53.883549696940975,-57.557434374317339,-61.231319051688267,-64.905203729053952,-68.806157210780469,-72.747184183018263,-76.688211155250741,-80.629238127478047,-84.5702650996999,-88.511292071916628,-92.452319044128046,-96.393346016333979,-100.33437298853478,-104.27539996073044,-108.4286060313739,-112.60538978577833,-116.78217354017713,-120.95895729457,-125.13574104895748,-129.31252480333893,-133.48930855771474,-137.66609231208463,-141.84287606644921,-146.01965982080765,-150.40289582694891,-154.79699979519302,-159.19110376343122,-163.58520773166353,-167.97931169989002,-172.37341566811085,-176.76751963632569,-181.16162360453458,-185.55572757273762,-189.9498315409347,0.86801490788903346,0.86801490788903346,0.86801490788903346,0.86801490788903346,0.86801490788903346,0.86801490788903346,0.86801490788903346,0.86801490788903346,0.86801490788903346,0.86801490788903346,0.86801490788903346,0.86801490788903346
DP 237,63.876478101810065,0.0012911918700991118,-21.300743334907352,-20.841816091336767,-20.382888847765532,-19.923961604193618,-19.465034360621058,-19.006107117047826,-18.547179873473929,-18.088252629899376,-17.62932538632414,-17.170398142748247,-16.711930261816491,-16.262190357975037,-15.812450454132916,-15.362710550290158,-14.912970646446686,-14.46323074260256,-14.013490838757756,-13.56375093491229,-13.114011031066136,-12.664271127219314,-12.216442764475039,-11.785818452341266,-11.355194140206796,-10.924569828071675,-10.493945515935867,-10.063321203799392,-9.6326968916622384,-9.2020725795244083,-8.7714482673859138,-8.34082395524675,-7.9144457714492908,-7.5121292491589955,-7.1098127268679976,-6.70749620457632,-6.3051796822839483,-5.9028631599908854,-5.5005466376971306,-5.0982301154026795,-4.6959135931075489,-4.2935970708117246,-3.8986951748790086,-3.5334521348220393,-3.1682090947643813,-2.8029660547060229,-2.4377230146469708,-2.0724799745872193,-1.7072369345267748,-1.3419938944656329,-0.97675085440379694,-0.61150781434126533,-0.25757828643238562,0.062410277265908289,0.38239884096491189,0.7023874046646259,1.0223759683650522,1.3423645320661877,1.6623530957680344,1.9823416594705923,2.3023302231738554,2.6223187868778326,2.9264760232294726,3.1936928722596476,3.4609097212905482,3.7281265703221784,3.9953434193545285,4.2625602683876131,4.5297771174214247,4.7969939664559549,5.0642108154912133,5.331427664527201,5.5778015771060385,5.7854666162337383,5.9931316553621814,6.2007966944913733,6.4084617336213014,6.616126772751981,6.8237918118834058,7.0314568510155713,7.2391218901484757,7.4467869292821307,7.62822982181144,7.7703388747948408,7.912447927779013,8.0545569807639552,8.1966660337496542,8.3387750867361152,8.4808841397233419,8.6229931927113377,8.7651022457000867,8.9072112986896137,9.0174747657718211,9.0888151811690179,9.1601555965669981,9.2314960119657634,9.3028364273653121,9.3741768427656567,9.4455172581667757,9.5168576735686887,9.5881980889713887,9.6595385043748649,9.685549968574886,9.6816863290089064,9.6778226894437509,9.6739590498793966,9.67009541031585,9.6662317707531216,9.6623681311911973,9.65850449163009,9.61124642694445,9.5284830868473165,9.4457197467510241,9.36295640665557,9.2801930665609369,9.1974297264671527,9.11466638637421,9.0319030462821051,8.94913970619083,8.8663763661003969,8.73446896065814,8.5697980707870425,8.4051271809168142,8.2404562910474457,8.0757854011789458,7.9111145113113146,7.746443621444552,7.5817727315786518,7.4171018417136274,7.25243095184946,7.0329659093449859,6.7839955263082654,6.5350251432724411,6.2860547602375014,6.0370843772034641,5.7881139941703177,5.5391436111380594,5.2901732281067089,5.0412028450762412,4.7922324620466741,4.4829576405046305,4.1478370417305293,3.8127164429573477,3.4775958441851156,3.1424752454138023,2.8073546466434314,2.4722340478739944,2.1371134491054771,1.8019928503379059,1.4668722515712642,1.0660849818651859,0.64340799425980455,0.22073100665538206,-0.20194598094808131,-0.62462296855057653,-1.0472999561521263,-1.4699769437526986,-1.892653931352313,-2.3153309189509814,-2.7380079065486735,-3.2315149634864571,-3.7427303746275609,-4.2539457857676544,-4.7651611969067025,-5.2763766080447247,-5.787592019181707,-6.2988074303176633,-6.810022841452585,-7.3212382525864808,-7.8324536637193569,-8.4195872172596964,-9.0201189342690142,-9.6206506512773071,-10.221182368284628,-10.82171408529091,-11.422245802296208,-12.022777519300478,-12.623309236303756,-13.223840953306029,-13.824372670307303,-14.505629154655884,-15.195855905398838,-15.886082656140671,-16.576309406881386,-17.266536157621012,-17.956762908359494,-18.646989659096874,-19.337216409833115,-20.027443160568264,-20.71766991130227,-21.493412972763888,-22.273657743537822,-23.053902514310661,-23.834147285082302,-24.614392055852857,-25.394636826622243,-26.174881597390488,-26.955126368157529,-27.735371138923515,-28.515615909688282,0.16301830257795583,0.16301830257795583,0.16301830257795583,0.16301830257795583,0.16301830257795583,0.16301830257795583,0.16301830257795583,0.16301830257795583,0.16301830257795583,0.16301830257795583,0.16301830257795583,0.16301830257795583
DP 238,308.87791187678982,0.0030663509842490727,-160.80231590166719,-156.19523378846395,-151.58815167525833,-146.98106956205046,-142.37398744884007,-137.7669053356274,-133.1598232224124,-128.55274110919493,-123.94565899597515,-119.33857688275296,-114.74163567164308,-110.33737351779442,-105.93311136394345,-101.52884921009013,-97.124587056234418,-92.720324902376461,-88.316062748516089,-83.911800594653371,-79.507538440788238,-75.1032762869207,-70.7392475147277,-66.737322980553458,-62.7353984463769,-58.733473912198107,-54.731549378016979,-50.729624843833612,-46.727700309647879,-42.725775775459887,-38.723851241269635,-34.721926707077074,-30.803145311568105,-27.355513607833689,-23.907881904096929,-20.460250200357841,-17.012618496616444,-13.56498679287272,-10.117355089126653,-6.6697233853782585,-3.2220916816275524,0.22554002212546964,3.541803967682168,6.3325906719002223,9.1233773761205423,11.914164080343165,14.704950784568029,17.4957374887952,20.28652419302465,23.077310897256389,25.868097601490387,28.658884305726655,31.272934488226717,33.356768423350218,35.440602358475992,37.524436293604033,39.6082702287344,41.692104163867022,43.77593809900192,45.859772034139105,47.943605969278558,50.027439904420326,51.898649014419007,53.273725158404659,54.64880130239257,56.023877446382734,57.398953590375228,58.774029734369911,60.14910587836696,61.524182022366361,62.899258166367886,64.2743343103718,65.414448763228393,66.118199444258508,66.821950125290883,67.525700806325545,68.2294514873625,68.9332021684017,69.63695284944329,70.340703530487076,71.0444542115332,71.748204892581526,72.209432054873815,72.306868208110188,72.404304361348778,72.50174051458977,72.599176667833063,72.696612821078674,72.794048974326515,72.891485127576715,72.988921280829175,73.086357434083922,72.947286448650644,72.519146214819429,72.091005980990488,71.662865747163934,71.234725513339669,70.806585279517719,70.378445045698143,69.950304811880869,69.522164578065883,69.0940243442533,66.710952940437352,65.843351594915049,64.975750249395091,64.10814890387752,63.24054755836228,62.3729462128494,61.505344867338856,60.637743521830664,59.574399890245431,58.350900115171335,57.1274003400995,55.903900565030156,54.680400789963187,53.456901014898556,52.233401239836333,51.009901464776569,49.786401689719121,48.562901914664081,47.171315447820113,45.667668538485309,44.164021629152863,42.660374719822876,41.1567278104953,39.653080901170135,38.149433991847431,36.645787082527129,35.142140173209285,33.638493263893807,31.995056259747589,30.2763456332846,28.557635006824103,26.838924380366077,25.120213753910495,23.401503127457406,21.682792501006766,19.964081874558666,18.245371248112985,16.5266606216698,14.69482593350979,12.814507595208633,10.934189256909917,9.053870918613848,7.1735525803202176,5.293234242029186,3.4129159037406649,1.5325975654546329,-0.3477207728288173,-2.2280391111097533,-4.1979803096081261,-6.1977969243468367,-8.1976135390829867,-10.197430153816562,-12.197246768547524,-14.197063383275985,-16.196879998001776,-18.196696612725024,-20.196513227445756,-22.196329842163838,-24.266193678772975,-26.353570148472411,-28.44094661816915,-30.528323087863178,-32.615699557554528,-34.703076027243107,-36.790452496929021,-38.877828966612206,-40.965205436292656,-43.052581905970477,-45.195006251018391,-47.347145539152635,-49.499284827284178,-51.651424115413143,-53.803563403539435,-55.955702691663134,-58.107841979784055,-60.259981267902418,-62.412120556018088,-64.564259844131129,-66.760757006089008,-68.96218328655641,-71.163609567021012,-73.365035847482631,-75.566462127941563,-77.767888408397468,-79.9693146888506,-82.17074096930078,-84.372167249748173,-86.573593530192667,-88.8136690250092,-91.055779073545182,-93.297889122078161,-95.539999170608326,-97.782109219135478,-100.02421926765987,-102.26632931618119,-104.50843936469953,-106.75054941321505,-108.99265946172767,0.434367125065806,0.434367125065806,0.434367125065806,0.434367125065806,0.434367125065806,0.434367125065806,0.434367125065806,0.434367125065806,0.434367125065806,0.434367125065806,0.434367125065806,0.434367125065806
DP 239,79.898991092071043,0.00300469135582287,-57.601625381916669,-56.308161479328319,-55.014697576738079,-53.721233674146028,-52.427769771552171,-51.134305868956446,-49.840841966358866,-48.547378063759446,-47.253914161158207,-45.960450258555106,-44.668386263024018,-43.402920766538806,-42.137455270051824,-40.871989773562923,-39.606524277072268,-38.341058780579687,-37.075593284085322,-35.810127787589046,-34.544662291090958,-33.279196794591044,-32.019534797173918,-30.812104840073687,-29.604674882971693,-28.39724492586781,-27.18981496876215,-25.982385011654653,-24.774955054545291,-23.567525097434157,-22.360095140321203,-21.152665183206402,-19.958051942532755,-18.836067569339757,-17.714083196144898,-16.592098822948152,-15.470114449749541,-14.348130076549078,-13.226145703346736,-12.104161330142533,-10.982176956936458,-9.8601925837285371,-8.76041572840251,-7.7494699941549756,-6.7385242599055841,-5.7275785256543266,-4.7166327914012127,-3.7056870571462284,-2.6947413228893815,-1.6837955886306692,-0.6728498543701007,0.338095879892332,1.31549179860474,2.1922370021912281,3.0689822057796121,3.945727409369884,4.8224726129620485,5.6992178165561045,6.5759630201520514,7.4527082237498936,8.3294534273496073,9.2061986309512367,10.036548257741577,10.758639711399347,11.480731165059037,12.202822618720656,12.924914072384196,13.647005526049638,14.369096979717009,15.0911884333863,15.813279887057519,16.535371340730642,17.197212333868983,17.747157987451594,18.29710364103617,18.847049294622682,19.396994948211152,19.946940601801586,20.496886255393971,21.046831908988285,21.5967775625846,22.146723216182814,22.622027653936069,22.985368504121286,23.348709354308504,23.712050204497707,24.075391054688911,24.438731904882115,24.80207275507729,25.165413605274477,25.528754455473663,25.892095305674818,26.166305474219765,26.331576270792613,26.496847067367533,26.662117863944474,26.827388660523443,26.992659457104466,27.157930253687521,27.32320105027264,27.488471846859778,27.653742643448929,27.632765628691228,27.591320272695157,27.549874916701171,27.508429560709253,27.466984204719456,27.425538848731744,27.384093492746103,27.342648136762563,27.184160428898942,26.929908785313494,26.675657141730166,26.421405498148978,26.167153854569964,25.912902210993067,25.658650567418309,25.404398923845729,25.150147280275302,24.895895636706992,24.511632466889033,24.040692898092718,23.569753329298603,23.098813760506687,22.627874191717,22.156934622929519,21.685995054144261,21.215055485361194,20.744115916580373,20.27317634780173,19.660045839813062,18.970348912237036,18.280651984663308,17.590955057091875,16.901258129522745,16.211561201955917,15.521864274391387,14.832167346829149,14.142470419269237,13.452773491711614,12.60947662944686,11.700348631145934,10.791220632847317,9.882092634551114,8.9729646362572364,8.0638366379657409,7.1547086396765938,6.2455806413897852,5.336452643105364,4.4273246448232859,3.353819560762231,2.2255200431577213,1.0972205255556235,-0.031078992044061123,-1.1593785096413052,-2.2876780272361708,-3.4159775448285665,-4.5442770624185593,-5.6725765800061669,-6.8008760975913152,-8.103766262881436,-9.45030615291347,-10.796846042942951,-12.143385932969833,-13.489925822994143,-14.836465713015858,-16.183005603034996,-17.529545493051558,-18.876085383065522,-20.22262527307695,-21.753907677271563,-23.31779375597927,-24.881679834684405,-26.4455659133871,-28.009451992087211,-29.573338070784779,-31.137224149479863,-32.701110228172425,-34.264996306862479,-35.828882385550031,-37.587320288538606,-39.3673771041463,-41.147433919751293,-42.927490735353466,-44.707547550952917,-46.4876043665495,-48.267661182143378,-50.047717997734331,-51.8277748133227,-53.60783162890818,-55.592757807683945,-57.588468622890254,-59.584179438093756,-61.579890253294423,-63.575601068492162,-65.571311883687144,-67.567022698879285,-69.562733514068483,-71.558444329254883,-73.55415514443834,0.41232072720785973,0.41232072720785973,0.41232072720785973,0.41232072720785973,0.41232072720785973,0.41232072720785973,0.41232072720785973,0.41232072720785973,0.41232072720785973,0.41232072720785973,0.41232072720785973,0.41232072720785973
DP 240,236.68002840770106,0.00268894515243592,-117.83854064337281,-114.62952617026062,-111.4205116971462,-108.2114972240296,-105.00248275091099,-101.79346827779023,-98.584453804667135,-95.375439331542,-92.166424858414743,-88.9574103852854,-85.7543826159509,-82.665103350514286,-79.575824085075581,-76.486544819634645,-73.397265554191677,-70.307986288746548,-67.218707023299231,-64.129427757849911,-61.040148492398373,-57.950869226944739,-54.885637725490064,-52.036838373080464,-49.188039020668747,-46.339239668254969,-43.4904403158391,-40.641640963421239,-37.792841611001258,-34.944042258579209,-32.095242906155114,-29.246443553729005,-26.448331265010008,-23.937448864661349,-21.426566464310586,-18.915684063957734,-16.404801663602775,-13.893919263245735,-11.383036862886566,-8.87215446252531,-6.3612720621619685,-3.8503896617965307,-1.4218048465774713,0.67758573859942073,2.77697632377836,4.8763669089593682,6.9757574941424121,9.07514807932753,11.174538664514712,13.273929249703947,15.373319834895232,17.472710420088593,19.457548125253869,21.098722859244941,22.739897593238055,24.381072327233259,26.022247061230505,27.663421795229826,29.304596529231244,30.945771263234672,32.586945997240157,34.228120731247735,35.725791423332204,36.8886136991694,38.051435975008644,39.214258250849973,40.377080526693341,41.539902802538812,42.702725078386308,43.865547354235886,45.028369630087575,46.191191905941331,47.187920441005389,47.876184686193348,48.564448931383481,49.252713176575625,49.940977421769823,50.629241666966188,51.317505912164556,52.005770157365014,52.69403440256756,53.382298647772146,53.890042420722814,54.127001219525923,54.363960018331134,54.600918817138428,54.837877615947804,55.074836414759254,55.311795213572815,55.548754012388486,55.785712811206245,56.022671610026073,56.073362501649939,55.896388705296665,55.719414908945538,55.542441112596492,55.365467316249465,55.188493519904711,55.011519723562024,54.834545927221392,54.657572130882933,54.480598334546521,53.030066845560292,52.485248313858641,51.940429782159249,51.39561125046189,50.8507927187667,50.30597418707368,49.761155655382709,49.216337123694,48.49666030936033,47.633914622343532,46.771168935328824,45.908423248316332,45.045677561305993,44.182931874297871,43.32018618729186,42.457440500288094,41.594694813286424,40.731949126286985,39.708302616996043,38.5773863580821,37.446470099170355,36.315553840260847,35.184637581353542,34.053721322448467,32.922805063545617,31.791888804644909,30.660972545746478,29.530056286850236,28.255144576375763,26.902694759567161,25.55024494276087,24.19779512595678,22.845345309154954,21.492895492355395,20.140445675558052,18.787995858763026,17.435546041970209,16.083096225179677,14.604666950116588,13.072244352261979,11.539821754409624,10.007399156559655,8.4749765587119459,6.94255396086658,5.4101313630235293,3.8777087651827382,2.3452861673443075,0.8128635695081734,-0.82803571845999813,-2.5050952702520672,-4.1821548220417872,-5.8592143738291647,-7.5362739256141573,-9.21333347739685,-10.890393029177119,-12.567452580955061,-14.244512132730703,-15.921571684503908,-17.69133707363736,-19.484280017443869,-21.277222961247954,-23.070165905049507,-24.863108848848622,-26.656051792645219,-28.448994736439371,-30.241937680231018,-32.03488062402019,-33.827823567806917,-35.70070960396459,-37.58770413363586,-39.474698663304672,-41.361693192971167,-43.248687722635118,-45.1356822522967,-47.022676781955816,-48.909671311612527,-50.796665841266794,-52.683660370918666,-54.641278786475105,-56.606745042181053,-58.572211297884408,-60.537677553585119,-62.503143809283259,-64.468610064978677,-66.4340763206716,-68.399542576361711,-70.365008832049355,-72.330475087734271,-74.361943661463229,-76.396886698099948,-78.431829734734023,-80.466772771365385,-82.501715807994074,-84.536658844620177,-86.571601881243552,-88.606544917864113,-90.641487954482145,-92.676430991097362,0.39815488135287119,0.39815488135287119,0.39815488135287119,0.39815488135287119,0.39815488135287119,0.39815488135287119,0.39815488135287119,0.39815488135287119,0.39815488135287119,0.39815488135287119,0.39815488135287119,0.39815488135287119
DP 241,52.010761806028512,0.0013687492702763144,-19.813883139387645,-19.40353393670545,-18.993184734022687,-18.582835531339377,-18.172486328655474,-17.762137125971005,-17.351787923285983,-16.941438720600367,-16.5310895179142,-16.120740315227447,-15.71078141303445,-15.308238294016853,-14.905695174998653,-14.503152055979895,-14.100608936960567,-13.698065817940655,-13.295522698920148,-12.892979579899071,-12.490436460877428,-12.087893341855201,-11.68697722014622,-11.300704228047717,-10.914431235948625,-10.528158243848948,-10.141885251748672,-9.7556122596478048,-9.3693392675463514,-8.98306627544431,-8.5967932833416754,-8.210520291238451,-7.8278764105274243,-7.4657977230616028,-7.1037190355951871,-6.7416403481281595,-6.3795616606605128,-6.0174829731922728,-5.6554042857234155,-5.29332559825396,-4.9312469107838961,-4.569168223313218,-4.2134587210445957,-3.883226260598823,-3.5529938001524286,-3.2227613397054151,-2.8925288792577843,-2.5622964188095305,-2.2320639583606545,-1.9018314979111597,-1.5715990374610462,-1.2413665770103106,-0.92091599108755862,-0.62981139858913049,-0.33870680609006432,-0.047602213590358565,0.2435023789099876,0.53460697141097291,0.82571156391259659,1.1168161564148613,1.407920748917761,1.6990253414213059,1.9763348742256295,2.2214553910955144,2.4665759079660559,2.7116964248372608,2.9568169417091239,3.20193745858165,3.4470579754548312,3.6921784923286745,3.9372990092031772,4.1824195260783439,4.4092152338966759,4.601978658583711,4.7947420832714291,4.9875055079598294,5.1802689326489109,5.3730323573386762,5.5657957820291157,5.758559206720248,5.9513226314120544,6.1440860561045465,6.3135683446054776,6.4481283786768877,6.582688412748996,6.7172484468218112,6.8518084808953352,6.9863685149695751,7.1209285490445051,7.2554885831201528,7.3900486171965039,7.52460865127356,7.6305922888220623,7.7016486192615021,7.772704949701672,7.8437612801425809,7.9148176105842314,7.9858739410265986,8.0569302714697013,8.1279866019135447,8.1990429323581129,8.2700992628034218,8.3126610728056249,8.3154744017113238,8.318287730617806,8.321101059525045,8.32391438843304,8.3267277173417948,8.3295410462513182,8.3323543751615983,8.2953367564604275,8.22572949609936,8.15612223573909,8.0865149753796057,8.0169077150209134,7.947300454663023,7.8776931943059152,7.8080859339496067,7.73847867359409,7.66887141323936,7.5536323194205091,7.4079712844281245,7.2623102494365765,7.116649214445844,6.9709881794559472,6.8253271444668675,6.6796661094786236,6.5340050744911871,6.3883440395045836,6.2426830045188035,6.0455685482176058,5.8207476552930357,5.5959267623693245,5.3711058694464713,5.14628497652447,4.92146408360333,4.696643190683039,4.4718222977636142,4.2470014048450375,4.0221805119273215,3.7401282545413439,3.4335473035266668,3.1269663525128695,2.8203854014999878,2.5138044504879935,2.2072234994769024,1.9006425484667078,1.5940615974574053,1.2874806464490076,0.9808996954415049,0.61138780196392917,0.22089813455477553,-0.16959153285345158,-0.560081200260753,-0.9505708676671194,-1.3410605350725708,-1.7315502024770797,-2.1220398698806631,-2.5125295372833341,-2.9030192046850605,-3.3619632956104879,-3.8380218012165117,-4.3140803068215421,-4.7901388124255657,-5.2661973180285857,-5.7422558236305923,-6.2183143292316,-6.6943728348315963,-7.1704313404305919,-7.6464898460285893,-8.19643490366334,-8.7594195862277147,-9.3224042687910913,-9.8853889513535158,-10.448373633914949,-11.011358316475418,-11.574342999034881,-12.137327681593376,-12.700312364150893,-13.263297046707443,-13.905248226133347,-14.555974290101183,-15.206700354067932,-15.857426418033574,-16.50815248199816,-17.158878545961631,-17.809604609923991,-18.460330673885252,-19.111056737845445,-19.761782801804529,-20.496430443872676,-21.235495846090505,-21.974561248307225,-22.713626650522816,-23.452692052737291,-24.191757454950672,-24.9308228571629,-25.669888259374034,-26.408953661584039,-27.148019063792887,0.15622746209831284,0.15622746209831284,0.15622746209831284,0.15622746209831284,0.15622746209831284,0.15622746209831284,0.15622746209831284,0.15622746209831284,0.15622746209831284,0.15622746209831284,0.15622746209831284,0.15622746209831284
DP 242,81.866926428137717,0.0028756126615735456,-56.075013118350178,-54.810204539997891,-53.545395961643848,-52.280587383287966,-51.015778804930321,-49.750970226570864,-48.486161648209645,-47.221353069846607,-45.956544491481822,-44.691735913115195,-43.428309688846348,-42.191148453793275,-40.953987218738391,-39.716825983681751,-38.4796647486233,-37.242503513563051,-36.005342278501004,-34.768181043437174,-33.531019808371546,-32.293858573304149,-31.062424653202743,-29.882537109165579,-28.702649565126645,-27.522762021085967,-26.342874477043505,-25.162986932999274,-23.983099388953249,-22.803211844905498,-21.623324300855948,-20.44343675680464,-19.276188976926356,-18.180567323858465,-17.084945670788795,-15.989324017717317,-14.893702364644021,-13.798080711568913,-12.702459058491975,-11.60683740541325,-10.511215752332717,-9.4155940992503666,-8.3418519953302468,-7.3556291221096632,-6.3694062488872722,-5.38318337566307,-4.3969605024370741,-3.4107376292092604,-2.4245147559796449,-1.4382918827482218,-0.45206900951499696,0.53415386372003359,1.4873624991351027,2.3415271728640286,3.1956918465947863,4.0498565203273733,4.9040211940617926,5.7581858677980486,6.6123505415361254,7.4665152152760532,8.3206798890177964,9.1748445627613737,9.9834228340769418,10.685631037689202,11.387839241303331,12.090047444919318,12.792255648537173,13.494463852156866,14.196672055778441,14.898880259401851,15.601088463027144,16.303296666654269,16.946406339881936,17.47976000348584,18.013113667091634,18.546467330699333,19.079820994308889,19.613174657920371,20.146528321533733,20.679881985148963,21.213235648766112,21.746589312385137,22.206872607819335,22.557548624295556,22.90822464077366,23.258900657253719,23.6095766737357,23.960252690219619,24.310928706705443,24.661604723193189,25.012280739682922,25.362956756174526,25.626564805209554,25.783754620732218,25.940944436256853,26.098134251783478,26.255324067312042,26.412513882842578,26.569703698375125,26.726893513909609,26.884083329446074,27.041273144984494,27.009194696988054,26.964924973843676,26.920655250701323,26.876385527560934,26.83211580442261,26.787846081286329,26.743576358152019,26.699306635019756,26.541252835052653,26.290101016760104,26.038949198469602,25.787797380181175,25.536645561894826,25.285493743610566,25.034341925328359,24.783190107048252,24.532038288770217,24.28088647049427,23.903665951702926,23.442397646536403,22.981129341372025,22.519861036209765,22.05859273104965,21.59732442589166,21.136056120735798,20.674787815582096,20.213519510430523,19.752251205281066,19.153460614411358,18.480617562185298,17.807774509961497,17.134931457739867,16.462088405520475,15.789245353303317,15.116402301088348,14.443559248875633,13.770716196665107,13.097873144456816,12.276850748466906,11.392320418330812,10.507790088196929,9.6232597580653909,8.73872942793609,7.8541990978090812,6.9696687676843476,6.0851384375618647,5.2006081074416786,4.31607777732376,3.2733511354003961,2.177890395820024,1.0824296562419788,-0.013031083333738227,-1.1084918229071041,-2.2039525624781739,-3.2994133020468657,-4.3948740416132424,-5.4903347811773218,-6.5857955207390209,-7.8489204749950714,-9.1539634639034677,-10.459006452809435,-11.764049441712887,-13.069092430613857,-14.374135419512314,-15.679178408408314,-16.984221397301816,-18.289264386192816,-19.594307375081385,-21.076440793496552,-22.589827433451958,-24.103214073404882,-25.616600713355474,-27.129987353303537,-28.643373993249241,-30.156760633192469,-31.670147273133246,-33.183533913071621,-34.696920553007615,-36.396543410204487,-38.116861136349236,-39.837178862491335,-41.557496588630706,-43.27781431476749,-44.998132040901496,-46.718449767032887,-48.4387674931616,-50.159085219287647,-51.879402945410952,-53.795665025698483,-55.722241916299168,-57.64881880689709,-59.575395697492311,-61.501972588084755,-63.428549478674491,-65.3551263692615,-67.281703259845685,-69.208280150427242,-71.134857041005944,0.39756512320672349,0.39756512320672349,0.39756512320672349,0.39756512320672349,0.39756512320672349,0.39756512320672349,0.39756512320672349,0.39756512320672349,0.39756512320672349,0.39756512320672349,0.39756512320672349,0.39756512320672349
DP 243,97.563783420808221,0.0019581725374715688,-43.37167850915835,-42.361665784922486,-41.351653060685237,-40.341640336446687,-39.331627612206773,-38.321614887965566,-37.311602163722945,-36.301589439478995,-35.291576715233781,-34.281563990987124,-33.272741301496453,-32.286529497362437,-31.300317693227083,-30.31410588909041,-29.327894084952383,-28.341682280813043,-27.355470476672327,-26.369258672530297,-25.38304686838692,-24.396835064242222,-23.415534807523777,-22.478438941900372,-21.541343076275673,-20.604247210649685,-19.667151345022333,-18.730055479393709,-17.79295961376376,-16.85586374813251,-15.918767882499948,-14.981672016866066,-14.055356596036621,-13.190131041762742,-12.324905487487527,-11.459679933210964,-10.594454378933081,-9.72922882465384,-8.8640032703732619,-7.9987777160913414,-7.133552161808085,-6.2683266075234885,-5.4216210569629943,-4.6489963965732892,-3.8763717361822505,-3.1037470757898866,-2.3311224153961954,-1.5584977550011638,-0.78587309460480848,-0.013248434207119124,0.75937622619189526,1.5320008865922405,2.2769482545280044,2.9388626986272306,3.6007771427277984,4.2626915868297131,4.9246060309329707,5.5865204750375739,6.2484349191435262,6.9103493632508259,7.572263807359449,8.2341782514694373,8.8583167109139875,9.3943097183720887,9.9303027258315648,10.466295733292386,11.002288740754578,11.53828174821812,12.074274755683041,12.610267763149299,13.146260770616928,13.682253778085892,14.1699357388102,14.567895879455465,14.965856020102141,15.36381616075017,15.761776301399577,16.159736442050367,16.557696582702523,16.955656723356082,17.353616864011006,17.751577004667293,18.09072126713966,18.341640322494484,18.592559377850687,18.843478433208311,19.094397488567331,19.345316543927755,19.59623559928956,19.847154654652787,20.098073710017395,20.348992765383418,20.531028095792518,20.628870759922677,20.726713424054239,20.824556088187236,20.922398752321648,21.020241416457488,21.118084080594762,21.215926744733448,21.31376940887359,21.411612073015132,21.314099587596129,21.255525764911077,21.196951942227493,21.138378119545361,21.079804296864666,21.021230474185451,20.962656651507682,20.904082828831374,20.758927947020339,20.542932528868992,20.32693711071915,20.110941692570805,19.894946274423912,19.678950856278544,19.462955438134667,19.246960019992276,19.030964601851391,18.814969183711955,18.505050341266717,18.132514402988637,17.759978464712106,17.387442526437077,17.014906588163598,16.642370649891625,16.269834711621211,15.897298773352311,15.524762835084958,15.152226896819105,14.679425323347086,14.152633103649272,13.62584088395306,13.099048664258417,12.572256444565348,12.045464224873845,11.518672005183925,10.991879785495591,10.465087565808807,9.9382953461236188,9.30576541859211,8.627917545824042,7.950069673057568,7.2722218002927557,6.5943739275295421,5.9165260547679672,5.23867818200801,4.5608303092496554,3.8829824364929424,3.2051345637378486,2.4167048352341167,1.5914130945027545,0.766121353773048,-0.059170386955000459,-0.88446212768137455,-1.7097538684061182,-2.5350456091291633,-3.3603373498505618,-4.1856290905703277,-5.0109208312883986,-5.9512261782689233,-6.9202862857186673,-7.889346393166675,-8.858406500612892,-9.8274666080573585,-10.79652671550004,-11.765586822940968,-12.73464693038013,-13.703707037817514,-14.672767145253157,-15.761373840393064,-16.871078321561697,-17.980782802728569,-19.090487283893776,-20.20019176505722,-21.309896246218958,-22.419600727378949,-23.529305208537227,-24.63900968969379,-25.748714170848622,-26.982595435458592,-28.230275424601029,-29.477955413741647,-30.725635402880297,-31.973315392017135,-33.220995381152008,-34.468675370285048,-35.716355359416085,-36.964035348545352,-38.211715337672686,-39.58903824649051,-40.973185756765886,-42.357333267039373,-43.741480777310834,-45.125628287580433,-46.509775797848164,-47.89392330811387,-49.278070818377579,-50.662218328639476,-52.046365838899362,0.28318511701940763,0.28318511701940763,0.28318511701940763,0.28318511701940763,0.28318511701940763,0.28318511701940763,0.28318511701940763,0.28318511701940763,0.28318511701940763,0.28318511701940763,0.28318511701940763,0.28318511701940763
DP 244,197.2932858097081,0.001462511067003077,-56.063439520719207,-54.585698928837253,-53.107958336954155,-51.630217745069892,-50.152477153184492,-48.674736561297877,-47.196995969410111,-45.719255377521186,-44.241514785631018,-42.763774193739785,-41.288517011317531,-39.860445078303208,-38.432373145287769,-37.00430121227113,-35.57622927925334,-34.148157346234427,-32.720085413214335,-31.29201348019307,-29.863941547170651,-28.435869614147077,-27.017842333286985,-25.690217871345613,-24.362593409403136,-23.034968947459522,-21.707344485514813,-20.379720023568947,-19.052095561621979,-17.72447109967386,-16.396846637724639,-15.069222175774271,-13.763001511997622,-12.578070386626798,-11.39313926125484,-10.208208135881728,-9.023277010507476,-7.8383458851320738,-6.6534147597555275,-5.4684836343778249,-4.2835525089989925,-3.0986213836190077,-1.9489702556747639,-0.94044078483808158,0.068088685999719817,1.0766181568386528,2.0851476276787011,3.0936770985198847,4.1022065693621927,5.1107360402056283,6.1192655110501883,7.127794981895863,8.08627854291931,8.8946224823071685,9.7029664216961624,10.51131036108627,11.319654300477517,12.127998239869889,12.936342179263404,13.744686118658041,14.553030058053798,15.361373997450695,16.10558929615808,16.700168574282596,17.294747852408246,17.88932713053504,18.483906408662961,19.078485686792007,19.673064964922212,20.267644243053521,20.862223521185978,21.456802799319565,21.975197276345821,22.352103636714418,22.729009997084127,23.105916357454991,23.482822717826981,23.859729078200118,24.236635438574407,24.613541798949804,24.990448159326345,25.367354519704055,25.658993369753876,25.822728939408535,25.986464509064323,26.150200078721269,26.31393564837936,26.477671218038598,26.641406787699012,26.80514235736052,26.968877927023211,27.132613496687028,27.205470575651457,27.167252034878761,27.129033494107237,27.090814953336874,27.052596412567667,27.014377871799624,26.976159331032743,26.937940790267024,26.899722249502485,26.861503708739082,26.282048227934958,26.057909392302072,25.833770556670331,25.609631721039808,25.385492885410439,25.161354049782254,24.9372152141553,24.713076378529454,24.397117075860141,24.00603035851849,23.614943641178012,23.223856923838767,22.832770206500708,22.441683489163822,22.050596771828157,21.659510054493708,21.268423337160414,20.877336619828363,20.398211127460186,19.860391731476508,19.322572335494065,18.784752939512796,18.24693354353278,17.709114147553979,17.171294751576418,16.633475355600041,16.09565595962491,15.557836563650991,14.93766573166789,14.273150621222742,13.608635510778861,12.944120400336232,12.279605289894835,11.615090179454716,10.950575069015803,10.286059958578178,9.621544848141772,8.9570297377066233,8.2169582603590356,7.44450420760126,6.6720501548447295,5.8995961020895153,5.1271420493355508,4.3546879965828822,3.5822339438314876,2.8097798910813503,2.0373258383325159,1.2648717855849483,0.42395911667641006,-0.439773953724834,-1.3035070241247801,-2.1672400945234291,-3.030973164920761,-3.8947062353168169,-4.7584393057115415,-5.622172376104972,-6.4859054464971218,-7.3496385168879463,-8.2751176067726018,-9.2160339310691661,-10.156950255364389,-11.097866579658243,-12.038782903950702,-12.979699228241802,-13.920615552531507,-14.861531876819866,-15.80244820110684,-16.743364525392455,-17.740497144184936,-18.747550910670189,-19.75460467715407,-20.761658443636662,-21.768712210117876,-22.775765976597771,-23.782819743076306,-24.789873509553505,-25.796927276029333,-26.803981042503846,-27.863265154008023,-28.928353185723125,-29.993441217436825,-31.058529249149007,-32.12361728085979,-33.188705312569105,-34.25379334427695,-35.318881375983267,-36.383969407688241,-37.449057439391709,-38.564762428381052,-39.683131971371537,-40.801501514360517,-41.91987105734804,-43.038240600334049,-44.15661014331863,-45.274979686301712,-46.393349229283217,-47.511718772263237,-48.630088315241842,0.22067051337129651,0.22067051337129651,0.22067051337129651,0.22067051337129651,0.22067051337129651,0.22067051337129651,0.22067051337129651,0.22067051337129651,0.22067051337129651,0.22067051337129651,0.22067051337129651,0.22067051337129651
DP 245,85.954259670044877,0.0037629772842354709,-75.961840871883538,-74.233147111937569,-72.504453351989184,-70.7757595920384,-69.047065832085181,-67.318372072129591,-65.589678312171571,-63.860984552211086,-62.132290792248227,-60.40359703228301,-58.676830940313089,-56.986690904713342,-55.296550869111194,-53.606410833506644,-51.916270797899678,-50.22613076229031,-48.535990726678527,-46.845850691064349,-45.1557106554477,-43.465570619828696,-41.7834081166423,-40.173044159419319,-38.56268020219391,-36.952316244966127,-35.341952287736007,-33.731588330503477,-32.121224373268589,-30.510860416031321,-28.900496458791661,-27.290132501549639,-25.69734966405974,-24.204194279708368,-22.711038895354559,-21.217883510998309,-19.724728126639651,-18.231572742278537,-16.738417357915004,-15.24526197354902,-13.752106589180627,-12.25895120480979,-10.796168534187059,-9.4548781540029712,-8.1135877738164783,-6.7722973936275563,-5.4310070134362283,-4.0897166332424622,-2.7484262530462811,-1.4071358728476751,-0.065845492646655721,1.2754448875567845,2.5710234938035148,3.7294650498763504,4.8879066059516347,6.0463481620293758,7.2047897181095673,8.363231274192211,9.5216728302773088,10.68011438636486,11.838555942454848,12.996997498547321,14.092511987862206,15.041194176381234,15.989876364902756,16.93855855342677,17.887240741953264,18.835922930482241,19.784605119013722,20.733287307547695,21.681969496084108,22.630651684623025,23.498046248575534,24.214475885886234,24.930905523199439,25.647335160515187,26.363764797833458,27.080194435154237,27.796624072477567,28.51305370980343,29.229483347131765,29.945912984462666,30.562244880532408,31.028427799362507,31.49461071819519,31.96079363703041,32.426976555868229,32.893159474708611,33.359342393551564,33.825525312397083,34.291708231245217,34.757891150095865,35.105337194556746,35.307657898499734,35.509978602445329,35.712299306393568,35.914620010344414,36.116940714297904,36.319261418254015,36.521582122212756,36.72390282617414,36.926223530138138,36.849689203864372,36.7786108157297,36.707532427597684,36.636454039468418,36.565375651341789,36.494297263217895,36.423218875096637,36.352140486978108,36.127446870793726,35.777065428022553,35.426683985254215,35.076302542488612,34.725921099725745,34.375539656965657,34.025158214208332,33.674776771453757,33.324395328701975,32.9740138859529,32.4543512425056,31.821831798476751,31.18931235445077,30.556792910427589,29.924273466407275,29.2917540223898,28.659234578375148,28.026715134363346,27.394195690354362,26.761676246348223,25.945506530048551,25.030445534994513,24.115384539943378,23.200323544895156,22.285262549849904,21.370201554807554,20.455140559768136,19.540079564731677,18.625018569698092,17.709957574667452,16.598079736850956,15.401848501512905,14.205617266177816,13.00938603084581,11.81315479551677,10.616923560190788,9.4206923248678187,8.2244610895478285,7.0282298542308972,5.8319986189169741,4.4267221618120045,2.9517613295477982,1.4768004972866737,0.0018396650286392759,-1.4731211672262747,-2.948081999478148,-4.42304283172686,-5.8980036639725011,-7.37296449621509,-8.84792532845453,-10.543415460231831,-12.294040522481536,-14.044665584728001,-15.795290646971143,-17.54591570921102,-19.296540771447557,-21.0471658336808,-22.797790895910751,-24.5484159581374,-26.299041020360818,-28.281684013205108,-30.305273926819627,-32.328863840430905,-34.352453754039033,-36.376043667643856,-38.399633581245496,-40.423223494843874,-42.4468134084391,-44.470403322031082,-46.493993235619854,-48.760852499088891,-51.054744245223475,-53.348635991354577,-55.642527737482006,-57.93641948360613,-60.230311229726539,-62.524202975843465,-64.81809472195674,-67.111986468066576,-69.405878214172844,-71.955244512004626,-74.518059380743679,-77.080874249479209,-79.643689118211014,-82.206503986939282,-84.769318855664025,-87.332133724385088,-89.894948593102285,-92.457763461816171,-95.0205783305261,0.527602788017207,0.527602788017207,0.527602788017207,0.527602788017207,0.527602788017207,0.527602788017207,0.527602788017207,0.527602788017207,0.527602788017207,0.527602788017207,0.527602788017207,0.527602788017207
DP 246,226.50967791544454,0.0032334440194524954,-137.29948882489165,-133.59026815895496,-129.88104749301579,-126.17182682707404,-122.4626061611295,-118.75338549518254,-115.04416482923308,-111.33494416328092,-107.62572349732618,-103.91650283136889,-100.21402568905781,-96.639676770896642,-93.065327852732992,-89.490978934566769,-85.916630016398045,-82.342281098226692,-78.767932180052767,-75.1935832618763,-71.619234343697286,-68.04488542551573,-64.497672276513129,-61.194683615061976,-57.891694953608436,-54.588706292152395,-51.285717630693853,-47.982728969232873,-44.679740307769357,-41.376751646303347,-38.073762984834886,-34.770774323363945,-31.525141853254347,-28.604531415142596,-25.68392097702834,-22.763310538911515,-19.842700100792193,-16.922089662670338,-14.001479224545927,-11.080868786419016,-8.1602583482895685,-5.2396479101576059,-2.4125250580101492,0.040643031892843379,2.4938111217983052,4.94697921170626,7.4001473016166743,9.8533153915295966,12.306483481444987,14.759651571362868,17.212819661283213,19.665987751206057,21.988394411343453,23.918511838210947,25.848629265080916,27.778746691953376,29.70886411882832,31.638981545705764,33.569098972585707,35.499216399468132,37.429333826353016,39.359451253240408,41.12480693816336,42.50571206953007,43.886617200899209,45.267522332270865,46.648427463645042,48.029332595021714,49.410237726400837,50.79114285778244,52.172047989166572,53.552953120553184,54.741886926320817,55.574297371532381,56.406707816746433,57.239118261963071,58.07152870718204,58.903939152403716,59.736349597627687,60.568760042854336,61.401170488083423,62.23358093331499,62.85577882845422,63.162652931053245,63.469527033654771,63.776401136258826,64.083275238865312,64.390149341474512,64.6970234440861,65.003897546700273,65.310771649316962,65.617645751936124,65.705823279544376,65.526700399577976,65.347577519614177,65.168454639652921,64.989331759694281,64.810208879738141,64.631085999784531,64.45196311983355,64.272840239885,64.093717359939049,62.466937505851575,61.852049316434304,61.237161127019618,60.622272937607505,60.007384748197985,59.392496558791009,58.777608369386648,58.162720179984838,57.338682651979774,56.3435193434638,55.348356034950434,54.353192726439687,53.358029417931512,52.36286610942598,51.367702800923112,50.372539492422874,49.377376183925215,48.382212875430206,47.192596261038943,45.87334104605015,44.554085831064079,43.234830616080636,41.9155754010999,40.596320186121794,39.277064971146423,37.95780975617366,36.638554541203618,35.319299326236219,33.824084004300211,32.234118373690045,30.644152743082675,29.054187112478022,27.464221481876081,25.874255851276903,24.284290220680429,22.694324590086726,21.104358959495713,19.51439332890746,17.768643726174112,15.956126934494973,14.143610142818563,12.331093351145034,10.518576559474228,8.7060597678062663,6.8935429761410871,5.0810261844786542,3.2685093928190687,1.4559926011622557,-0.49238433400164072,-2.4860496958901779,-4.4797150577758806,-6.4733804196587439,-8.46704578153873,-10.460711143415935,-12.454376505290217,-14.448041867161663,-16.441707229030342,-18.4353725908961,-20.546732569194063,-22.687517592179276,-24.828302615161547,-26.9690876381408,-29.109872661117063,-31.250657684090289,-33.391442707060556,-35.532227730027785,-37.673012752992,-39.8137977759533,-42.057487814526723,-44.319338706054808,-46.581189597579858,-48.843040489102108,-51.10489138062136,-53.366742272137678,-55.628593163651033,-57.890444055161517,-60.152294946668981,-62.414145838173617,-64.768103319217829,-67.132295833100954,-69.496488346980939,-71.860680860857627,-74.224873374731274,-76.589065888601581,-78.953258402468876,-81.317450916332831,-83.681643430193731,-86.045835944051333,-88.496936089567811,-90.95261118565503,-93.408286281739208,-95.863961377819962,-98.319636473897589,-100.77531156997208,-103.23098666604331,-105.68666176211116,-108.14233685817594,-110.59801195423726,0.48140297474620408,0.48140297474620408,0.48140297474620408,0.48140297474620408,0.48140297474620408,0.48140297474620408,0.48140297474620408,0.48140297474620408,0.48140297474620408,0.48140297474620408,0.48140297474620408,0.48140297474620408
DP 247,218.99689371035083,0.0031429996553359579,-130.22035913552909,-126.72370489660346,-123.22705065767545,-119.73039641874495,-116.23374217981195,-112.73708794087628,-109.24043370193822,-105.74377946299765,-102.24712522405453,-98.750470985108961,-95.260050923401,-91.888081407793536,-88.516111892183588,-85.14414237657121,-81.772172860956246,-78.400203345338838,-75.028233829718886,-71.6562643140965,-68.284294798471635,-64.912325282844265,-61.565473544323382,-58.444684173958322,-55.323894803590818,-52.20310543322087,-49.082316062848541,-45.96152669247374,-42.840737322096565,-39.719947951716918,-36.599158581334926,-33.4783692109505,-30.410782511953624,-27.644680970037353,-24.878579428118634,-22.11247788619746,-19.346376344273825,-16.580274802347713,-13.814173260419146,-11.048071718488121,-8.2819701765546441,-5.51586863461871,-2.8367321859741517,-0.50546022054303952,1.8258117448904732,4.1570837103264111,6.4883556757647485,8.8196276412055248,11.150899606648698,13.482171572094307,15.813443537542316,18.144715502992739,20.353909847050371,22.196866711338878,24.039823575629811,25.88278043992316,27.725737304218942,29.568694168517148,31.411651032817751,33.2546078971208,35.097564761426227,36.940521625734135,38.628995865658325,39.957004564547226,41.285013263438536,42.613021962332276,43.941030661228453,45.269039360127081,46.597048059028054,47.925056757931529,49.253065456837447,50.581074155745767,51.728194144218833,52.539373071061526,53.3505519979066,54.161730924754146,54.972909851604122,55.784088778456571,56.595267705311393,57.406446632168773,58.217625559028477,59.028804485890625,59.640801994378279,59.954022668572357,60.267243342768765,60.580464016967674,60.8936846911691,61.206905365372961,61.520126039579253,61.833346713787975,62.146567387999177,62.459788062212873,62.564513825079061,62.414408094687289,62.264302364298118,62.114196633911313,61.964090903526952,61.813985173145262,61.663879442765968,61.513773712389089,61.363667982014725,61.21356225164287,59.717695740568139,59.149369491607949,58.581043242650217,58.012716993695037,57.444390744742364,56.8760644957922,56.307738246844551,55.73941199789941,54.968903276530504,54.032969057618963,53.097034838709888,52.16110061980342,51.225166400899489,50.289232181998159,49.353297963099372,48.417363744203151,47.48142952530943,46.54549530641831,45.4201228228381,44.168455178469905,42.91678753410438,41.665119889741383,40.413452245381052,39.161784601023278,37.910116956668148,36.658449312315575,35.406781667965653,34.155114023618296,32.730591506055411,31.212990773917916,29.695390041783089,28.17778930965094,26.660188577521442,25.142587845394612,23.624987113270425,22.107386381148928,20.589785649030059,19.072184916913873,17.400174239230019,15.661985264325629,13.923796289423901,12.185607314524969,10.447418339628715,8.7092293647352257,6.9710403898444389,5.2328514149563405,3.4946624400710116,1.7564734651883926,-0.11767501900270784,-2.0371450531045832,-3.9566150872036956,-5.8760851213000365,-7.7955551553935738,-9.7150251894844,-11.634495223572367,-13.553965257657584,-15.473435291740085,-17.392905325819747,-19.431361701766129,-21.499566069020396,-23.567770436271825,-25.63597480352027,-27.704179170765844,-29.772383538008423,-31.840587905248114,-33.908792272484867,-35.976996639718692,-38.045201006949625,-40.218518054027982,-42.410385566416892,-44.60225307880286,-46.794120591186051,-48.985988103566342,-51.177855615943805,-53.369723128318334,-55.561590640690049,-57.753458153058908,-59.945325665424953,-62.232187948671687,-64.529606204127958,-66.8270244595812,-69.1244427150313,-71.421860970478349,-73.719279225922236,-76.016697481363025,-78.314115736800645,-80.611533992235351,-82.908952247666761,-85.2966323307707,-87.689063934450758,-90.081495538127811,-92.473927141801568,-94.86635874547224,-97.258790349139744,-99.6512219528041,-102.04365355646524,-104.4360851601233,-106.82851676377811,0.46972315087207583,0.46972315087207583,0.46972315087207583,0.46972315087207583,0.46972315087207583,0.46972315087207583,0.46972315087207583,0.46972315087207583,0.46972315087207583,0.46972315087207583,0.46972315087207583,0.46972315087207583
DP 248,147.18374882082264,0.0031950948280754588,-97.495601877415226,-95.053616999172547,-92.611632120927339,-90.169647242679673,-87.72766236442952,-85.285677486176922,-82.843692607921867,-80.401707729664224,-77.959722851404152,-75.517737973141564,-73.079264121545989,-70.707500440407131,-68.335736759265842,-65.963973078122066,-63.592209396975825,-61.220445715827196,-58.848682034676024,-56.476918353522443,-54.105154672366396,-51.73339099120782,-49.375961684287965,-47.1475431004462,-44.919124516602011,-42.690705932755478,-40.462287348906528,-38.233868765055206,-36.005450181201432,-33.777031597345278,-31.548613013486715,-29.320194429625804,-27.122757715724536,-25.1008868839129,-23.079016052098876,-21.057145220282383,-19.035274388463442,-17.013403556642064,-14.99153272481821,-12.969661892991933,-10.947791061163212,-8.9259202293320428,-6.956136562427397,-5.1947040169176883,-3.433271471405583,-1.671838925891052,0.089593619625871868,1.8510261651452218,3.6124587106669761,5.3738912561911469,7.1353238017177221,8.8967563472467077,10.582439851486408,12.040873367886954,13.499306884289943,14.95774040069535,16.416173917103173,17.874607433513443,19.333040949926115,20.791474466341221,22.249907982758732,23.708341499178694,25.066754671813545,26.191783103085818,27.31681153436055,28.441839965637694,29.566868396917293,30.691896828199305,31.81692525948381,32.9419536907707,34.066982122060033,35.192010553351821,36.193999527776654,36.967483330911413,37.740967134048688,38.514450937188414,39.287934740330556,40.061418543475178,40.834902346622265,41.608386149771789,42.381869952923779,43.1553537560782,43.785567247538367,44.200871885925359,44.616176524314817,45.03148116270679,45.446785801101228,45.862090439498125,46.277395077897559,46.692699716299444,47.108004354703795,47.523308993110653,47.779013317074963,47.83964723768517,47.900281158297865,47.960915078913089,48.021548999530857,48.082182920151112,48.142816840773946,48.20345076139926,48.264084682027047,48.324718602657413,47.649536711690963,47.367336523084987,47.085136334481561,46.802936145880693,46.520735957282341,46.2385357686866,45.956335580093409,45.674135391502737,45.213337449139679,44.606411002541769,43.999484555946417,43.392558109353743,42.785631662763635,42.178705216176127,41.571778769591226,40.964852323008969,40.357925876429285,39.750999429852207,38.962601560387853,38.053219883509705,37.143838206634264,36.234456529761445,35.325074852891284,34.415693176023744,33.506311499158947,32.596929822296758,31.687548145437255,30.778166468580398,29.688046135833016,28.500602360118972,27.313158584407713,26.125714808699119,24.938271032993264,23.750827257290137,22.563383481589689,21.375939705892034,20.188495930197057,19.001052154504809,17.636248215915817,16.19542978530642,14.754611354699746,13.313792924095949,11.872974493494896,10.432156062896665,8.99133763230123,7.5505192017085552,6.109700771118721,4.6688823405316677,3.0555462023168576,1.3847019873476329,-0.28614222761874569,-1.9569864425822747,-3.6278306575429222,-5.298674872500774,-6.969519087455704,-8.6403633024077919,-10.311207517357087,-11.982051732303459,-13.820232244974367,-15.70024880918033,-17.580265373383359,-19.460281937583336,-21.34029850178031,-23.220315065974223,-25.100331630165158,-26.980348194353049,-28.860364758537933,-30.740381322719852,-32.783777483660323,-34.856007154950284,-36.928236826237224,-39.000466497521337,-41.072696168802395,-43.144925840080539,-45.217155511355685,-47.289385182627939,-49.361614853897208,-51.433844525163593,-53.667406575704312,-55.918896140533512,-58.170385705359521,-60.421875270182255,-62.673364835001884,-64.9248543998182,-67.176343964631414,-69.427833529441216,-71.679323094248048,-73.930812659051483,-76.345307408153076,-78.76838299931606,-81.191458590475818,-83.61453418163228,-86.03760977278543,-88.460685363935355,-90.883760955081982,-93.306836546225171,-95.729912137365275,-98.152987728502055,0.48537149315329386,0.48537149315329386,0.48537149315329386,0.48537149315329386,0.48537149315329386,0.48537149315329386,0.48537149315329386,0.48537149315329386,0.48537149315329386,0.48537149315329386,0.48537149315329386,0.48537149315329386
DP 249,280.56959597059819,0.0033530007279102569,-165.19887270095242,-160.55420244859778,-155.90953219624063,-151.26486194388076,-146.62019169151819,-141.97552143915314,-137.33085118678531,-132.68618093441484,-128.04151068204166,-123.3968404296659,-118.76178391671195,-114.30939027024198,-109.85699662376959,-105.40460297729454,-100.95220933081686,-96.4998156843366,-92.047422037853678,-87.595028391368146,-83.142634744880027,-78.6902410983893,-74.276173619281778,-70.2070452693016,-66.137916919318869,-62.068788569333648,-57.999660219345863,-53.930531869355562,-49.861403519362668,-45.792275169367251,-41.723146819369319,-37.654018469368886,-33.6647065737831,-30.127692949486434,-26.590679325187228,-23.053665700885439,-19.51665207658111,-15.979638452274166,-12.44262482796465,-8.9056112036525548,-5.3685975793379042,-1.8315839550206796,1.5779704633405032,4.4776820340447516,7.3773936047515063,10.277105175460807,13.176816746172605,16.076528316886954,18.976239887603803,21.875951458323218,24.775663029045091,27.675374599769544,30.401317153022145,32.605946083888021,34.810575014756452,37.0152039456274,39.219832876500867,41.424461807376893,43.629090738255456,45.8337196691365,48.038348600020093,50.242977530906209,52.235236244247957,53.731956086001425,55.228675927757408,56.72539576951597,58.222115611276976,59.718835453040576,61.215555294806649,62.712275136575279,64.208994978346468,65.705714820120178,66.963500107877834,67.7775433426178,68.591586577360374,69.405629812105516,70.219673046853089,71.033716281603262,71.847759516356,72.661802751111253,73.475845985869071,74.289889220629362,74.852332195275636,75.0373688343421,75.222405473411115,75.407442112482741,75.592478751556953,75.777515390633639,75.962552029712938,76.1475886687948,76.332625307879169,76.517661946966129,76.451937350917163,76.079721533630121,75.707505716345523,75.335289899063667,74.963074081784228,74.590858264507474,74.21864244723325,73.84642662996167,73.474210812692633,73.101994995426168,70.792885457050261,69.943683903458279,69.094482349868755,68.245280796281989,67.396079242697738,66.546877689116087,65.697676135537151,64.8484745819607,63.781457947431214,62.536225230632,61.290992513835448,60.045759797041583,58.800527080250255,57.555294363461712,56.310061646675749,55.064828929892457,53.819596213111815,52.574363496333838,51.13709626310289,49.5718029936746,48.006509724249028,46.4412164548261,44.875923185405931,43.3106299159884,41.745336646573641,40.18004337716151,38.614750107752116,37.049456838345385,35.319955301035549,33.502031539286939,31.68410777754108,29.866184015797973,28.0482602540576,26.230336492319942,24.412412730585004,22.594488968852872,20.776565207123422,18.958641445396726,17.003866795552778,14.990439455200342,12.977012114850618,10.963584774503817,8.95015743415976,6.9367300938185572,4.9233027534801712,2.9098754131445448,0.89644807281178962,-1.1169792675181709,-3.242273223760332,-5.4048574618088034,-7.56744169985443,-9.7300259378971869,-11.892610175937044,-14.055194413974112,-16.217778652008224,-18.3803628900395,-20.542947128067976,-22.705531366093496,-24.958537079800514,-27.234149230770363,-29.509761381737281,-31.7853735327011,-34.060985683661961,-36.336597834619724,-38.612209985574545,-40.887822136526324,-43.163434287475063,-45.439046438420846,-47.788264388411726,-50.150472415563023,-52.512680442711265,-54.874888469856685,-57.237096496999051,-59.59930452413856,-61.961512551275028,-64.3237205784086,-66.685928605539189,-69.048136632666925,-71.4718112111197,-73.9023160519278,-76.332820892732812,-78.763325733534614,-81.193830574333234,-83.624335415128584,-86.054840255920823,-88.485345096709764,-90.915849937495665,-93.346354778278226,-95.831922264863536,-98.320388333287255,-100.80885440170769,-103.29732047012487,-105.78578653853882,-108.27425260694959,-110.76271867535716,-113.2511847437613,-115.73965081216225,-118.22811688055988,0.48363564840019624,0.48363564840019624,0.48363564840019624,0.48363564840019624,0.48363564840019624,0.48363564840019624,0.48363564840019624,0.48363564840019624,0.48363564840019624,0.48363564840019624,0.48363564840019624,0.48363564840019624
DP 250,67.87101115543777,0.0015063743980765524,-25.855372114020863,-25.291979916982935,-24.72858771994418,-24.165195522904611,-23.601803325864221,-23.038411128823011,-22.475018931780976,-21.911626734738118,-21.348234537694452,-20.784842340649952,-20.222024955718325,-19.67012910961094,-19.118233263502734,-18.566337417393726,-18.014441571283861,-17.462545725173175,-16.910649879061683,-16.35875403294936,-15.806858186836212,-15.254962340722232,-14.705455951694596,-14.177454902306195,-13.649453852916926,-13.121452803526878,-12.593451754135991,-12.065450704744304,-11.537449655351766,-11.009448605958418,-10.481447556564246,-9.9534465071692573,-9.4307461410032261,-8.9380833138250875,-8.4454204866461016,-7.952757659466271,-7.4600948322856029,-6.967432005104091,-6.4747691779217273,-5.9821063507385306,-5.4894435235544918,-4.9967806963696075,-4.5133561503579784,-4.0668851656505085,-3.6204141809421984,-3.1739431962330364,-2.7274722115230321,-2.2810012268121791,-1.8345302421004774,-1.3880592573879296,-0.94158827267453749,-0.49511728796029747,-0.062708246843738338,0.32751443181545736,0.71773711047551625,1.1079597891364377,1.4981824677982227,1.8884051464608722,2.278627825124385,2.66885050378876,3.0590731824539961,3.4492958611201003,3.8198980163008915,4.14471817728317,4.4695383382663287,4.7943584992503707,5.1191786602352893,5.4439988212210926,5.768818982207776,6.0936391431953378,6.4184593041837781,6.7432794651731038,7.0423523691812813,7.2936082434611285,7.54486411774188,7.79611999202354,8.0473758663060924,8.2986317405895473,8.5498876148739011,8.8011434891591627,9.0523993634453177,9.30365523773237,9.52263951146792,9.6932156217859049,9.8637917321048114,10.034367842424651,10.204943952745401,10.375520063067077,10.54609617338968,10.716672283713207,10.887248394037647,11.057824504363023,11.189365284336281,11.273195396173007,11.357025508010686,11.440855619849309,11.524685731688876,11.608515843529386,11.692345955370858,11.776176067213271,11.860006179056636,11.943836290900943,11.965850966372003,11.957890640671442,11.949930314971878,11.941969989273282,11.934009663575651,11.926049337879014,11.918089012183342,11.910128686488656,11.849439816301679,11.745608503534246,11.641777190767815,11.5379458780024,11.434114565237982,11.330283252474571,11.22645193971217,11.122620626950782,11.018789314190382,10.914958001431007,10.751678127171218,10.548764942050989,10.345851756931774,10.142938571813607,9.94002538669648,9.7371122015804,9.53419901646536,9.3312858313513427,9.1283726462383772,8.9254594611264526,8.6565571955225824,8.3521213885186523,8.0476855815158075,7.7432497745140365,7.4388139675133349,7.1343781605137062,6.8299423535151478,6.5255065465176765,6.22107073952127,5.9166349325259393,5.5398819884015023,5.1321347648773594,4.7243875413543117,4.3166403178324044,3.9088930943115963,3.5011458707919161,3.0933986472733466,2.6856514237558864,2.277904200239552,1.8701569767243276,1.3839708446771566,0.87163742123345034,0.35930399779088984,-0.15302942565052507,-0.6653628490907838,-1.1776962725299136,-1.6900296959678731,-2.202363119404692,-2.7146965428403789,-3.2270299662748982,-3.8236781653236371,-4.4414060544681346,-5.059133943611422,-5.6768618327534677,-6.2945897218942983,-6.9123176110338731,-7.5300455001722364,-8.1477733893093713,-8.7655012784452726,-9.3832291675799588,-10.091072138290256,-10.814818772547659,-11.538565406803835,-12.262312041058852,-12.986058675312634,-13.70980530956524,-14.433551943816616,-15.157298578066802,-15.881045212315819,-16.604791846563622,-17.424154352574892,-18.254141848529592,-19.084129344482918,-19.914116840434929,-20.744104336385654,-21.574091832335007,-22.40407932828305,-23.234066824229721,-24.064054320175114,-24.894041816119159,-25.825187675395078,-26.761658665542026,-27.698129655687627,-28.634600645831839,-29.571071635974729,-30.507542626116248,-31.444013616256367,-32.380484606395086,-33.316955596532509,-34.25342658666851,0.19504852264075398,0.19504852264075398,0.19504852264075398,0.19504852264075398,0.19504852264075398,0.19504852264075398,0.19504852264075398,0.19504852264075398,0.19504852264075398,0.19504852264075398,0.19504852264075398,0.19504852264075398
DP 251,184.92063169170507,0.0039102329944371468,-142.67173427234442,-138.95361266803647,-135.23549106372536,-131.51736945941119,-127.79924785509392,-124.08112625077347,-120.36300464644995,-116.64488304212347,-112.92676143779372,-109.20863983346085,-105.49654769970181,-101.89901664673953,-98.301485593774089,-94.703954540805611,-91.106423487834078,-87.508892434859419,-83.91136138188169,-80.313830328900821,-76.71629927591691,-73.118768222929859,-69.545679377156119,-66.192572706647084,-62.839466036135022,-59.486359365620004,-56.133252695101959,-52.780146024580873,-49.427039354056852,-46.073932683529719,-42.720826012999666,-39.367719342466593,-36.066876312227592,-33.06219720370283,-30.05751809517503,-27.052838986644165,-24.048159878110262,-21.043480769573282,-18.038801661033222,-15.034122552490093,-12.029443443943935,-9.0247643353947158,-6.1066460057123715,-3.5347748824390388,-0.96290375916271975,1.6089673641166222,4.1808384873989439,6.7527096106843034,9.32458073397265,11.896451857264028,14.468322980558384,17.040194103855747,19.488534282861053,21.566276958450057,23.644019634042085,25.721762309637125,27.7995049852352,29.877247660836261,31.954990336440371,34.032733012047494,36.110475687657576,38.188218363270749,40.106517524526716,41.652775539430458,43.19903355433722,44.745291569246973,46.291549584159817,47.83780759907566,49.384065613994551,50.930323628916462,52.476581643841385,54.022839658769286,55.378084586568832,56.378585765458133,57.379086944350412,58.37958812324581,59.380089302144256,60.380590481045679,61.381091659950229,62.381592838857756,63.3820940177683,64.382595196681976,65.167277067502809,65.628224876292578,66.089172685085444,66.550120493881465,67.011068302680485,67.472016111482588,67.932963920287818,68.393911729096089,68.8548595379074,69.315807346721826,69.544299244662625,69.48867347996287,69.43304771526617,69.3774219505726,69.321796185882221,69.266170421194843,69.210544656510521,69.154918891829553,69.099293127151412,69.043667362476512,67.674074317617269,67.137361343161,66.600648368707837,66.063935394257854,65.527222419810983,64.990509445367323,64.453796470926818,63.917083496489482,63.139768257233435,62.165592484567547,61.191416711904729,60.217240939245244,59.243065166588885,58.268889393935794,57.2947136212859,56.320537848639262,55.346362075995707,54.372186303355456,53.164149439894807,51.800201498407318,50.436253556923262,49.07230561544236,47.708357673964748,46.344409732490405,44.98046179101938,43.616513849551595,42.2525659080871,40.888617966625823,39.302668669314883,37.597176952104284,35.891685234897,34.186193517693077,32.480701800492504,30.775210083295253,29.069718366101313,27.364226648910797,25.658734931723554,23.953243214539668,22.040811676190515,20.039688150149331,18.038564624111455,16.037441098077132,14.036317572046169,12.035194046018679,10.034070519994589,8.03294699397389,6.03182346795667,4.0306999419428546,1.8388783448892527,-0.41651167917995946,-2.671901703245692,-4.9272917273079377,-7.1826817513666583,-9.4380717754219479,-11.693461799473663,-13.948851823521906,-16.204241847566738,-18.459631871607979,-20.890081548458006,-23.364298206866383,-25.838514865271151,-28.312731523672163,-30.786948182069562,-33.261164840463223,-35.735381498853229,-38.2095981572395,-40.683814815622114,-43.158031474001149,-45.794417505262807,-48.459423464496254,-51.124429423726056,-53.789435382952412,-56.454441342175066,-59.119447301394139,-61.784453260609524,-64.449459219821392,-67.11446517902958,-69.779471138234328,-72.597507973210071,-75.432549846010048,-78.26759171880623,-81.10263359159832,-83.937675464386729,-86.7727173371711,-89.60775920995161,-92.442801082728081,-95.27784295550083,-98.112884828269443,-101.09785102069068,-104.09070945846268,-107.08356789623093,-110.07642633399497,-113.06928477175515,-116.06214320951128,-119.05500164726344,-122.04786008501149,-125.04071852275568,-128.03357696049568,0.592442045574539,0.592442045574539,0.592442045574539,0.592442045574539,0.592442045574539,0.592442045574539,0.592442045574539,0.592442045574539,0.592442045574539,0.592442045574539,0.592442045574539,0.592442045574539
DP 252,238.66549617831294,0.0019674106754263765,-86.7324086833391,-84.366866170047771,-82.001323656754849,-79.635781143460392,-77.270238630164314,-74.904696116866688,-72.5391536035675,-70.173611090266746,-67.808068576964388,-65.442526063660509,-63.081418760802947,-60.804581294906612,-58.527743829008728,-56.25090636310923,-53.974068897208191,-51.69723143130561,-49.42039396540148,-47.143556499495872,-44.866719033588595,-42.589881567679789,-40.3308529808969,-38.232105989586067,-36.133358998273671,-34.0346120069598,-31.9358650156444,-29.837118024327509,-27.738371033009084,-25.639624041689153,-23.540877050367744,-21.442130059044828,-19.380899488285007,-17.532264331468365,-15.68362917465018,-13.834994017830462,-11.986358861009228,-10.137723704186447,-8.2890885473621232,-6.44045339053627,-4.5918182337088913,-2.7431830768799821,-0.95541492742360357,0.58888231591410922,2.1331795592533203,3.6774768025940414,5.2217740459362547,6.7660712892799868,8.31036853262522,9.854665775971954,11.398963019320206,12.943260262669934,14.402914319136036,15.608635614706387,16.814356910278264,18.02007820585164,19.225799501426525,20.431520797002918,21.637242092580834,22.842963388160229,24.048684683741133,25.254405979323565,26.354211301325567,27.206875180247437,28.059539059170827,28.912202938095742,29.764866817022153,30.6175306959501,31.470194574879503,32.322858453810447,33.175522332742943,34.0281862116769,34.758421049216373,35.261284360686162,35.7641476721575,36.267010983630328,36.769874295104657,37.272737606580527,37.775600918057918,38.278464229536823,38.781327541017227,39.284190852499179,39.654183395646989,39.82486664650753,39.995549897369578,40.166233148233182,40.336916399098307,40.507599649964924,40.678282900833082,40.848966151702783,41.019649402574004,41.190332653446767,41.224133640208187,41.090631206763526,40.95712877332042,40.823626339878878,40.690123906438885,40.556621473000412,40.423119039563495,40.289616606128128,40.156114172694288,40.022611739262004,38.947483861268864,38.5441326866355,38.140781512003713,37.737430337373482,37.334079162744828,36.93072798811766,36.527376813492182,36.124025638868211,35.592638140317071,34.956491449066064,34.320344757816628,33.684198066568818,33.048051375322572,32.411904684077925,31.775757992834862,31.139611301593373,30.503464610353507,29.867317919115209,29.113590185965009,28.281473239219288,27.449356292475176,26.617239345732685,25.785122398991817,24.953005452252558,24.12088850551492,23.288771558778887,22.456654612044513,21.624537665311696,20.687417836823045,19.693756468155541,18.700095099489719,17.70643373082552,16.712772362163008,15.719110993502113,14.725449624842858,13.731788256185304,12.738126887529333,11.744465518875066,10.659148782459146,9.5345496271076744,8.4099504717578473,7.2853513164097627,6.1607521610633276,5.0361530057186163,3.9115538503755825,2.7869546950342112,1.662355539694564,0.53775638435659223,-0.665570482541649,-1.8951409121518885,-3.124711341760412,-4.3542817713672219,-5.583852200972288,-6.8134226305756735,-8.04299306017729,-9.2725634897772,-10.502133919375432,-11.731704348971888,-13.028380884207193,-14.341834738720653,-15.655288593232312,-16.968742447742144,-18.282196302250195,-19.595650156756385,-20.909104011260784,-22.222557865763367,-23.536011720264121,-24.849465574763155,-26.220631931830056,-27.601983489944153,-28.983335048056439,-30.364686606167016,-31.746038164275738,-33.127389722382766,-34.508741280487953,-35.890092838591407,-37.271444396693063,-38.652795954793,-40.085002233763291,-41.522859571367967,-42.960716908970788,-44.398574246571613,-45.836431584170626,-47.274288921767628,-48.712146259362754,-50.150003596955862,-51.587860934547173,-53.02571827213648,-54.51101299502573,-55.998804894386119,-57.486596793744596,-58.974388693101012,-60.462180592455574,-61.949972491808175,-63.437764391158836,-64.92555629050743,-66.413348189854119,-67.9011400891988,0.29099549526664203,0.29099549526664203,0.29099549526664203,0.29099549526664203,0.29099549526664203,0.29099549526664203,0.29099549526664203,0.29099549526664203,0.29099549526664203,0.29099549526664203,0.29099549526664203,0.29099549526664203
DP 253,193.72039831436962,0.0011887621454659081,-44.942721772884468,-43.761907577991309,-42.581093383097247,-41.400279188202184,-40.219464993306246,-39.038650798409286,-37.857836603511423,-36.6770224086126,-35.496208213712791,-34.315394018812064,-33.136544208094506,-31.995018068230092,-30.85349192836474,-29.711965788498507,-28.570439648631293,-27.428913508763134,-26.287387368894059,-25.145861229024014,-24.004335089153024,-22.862808949281106,-21.729233122382855,-20.66721086373262,-19.605188605081466,-18.543166346429416,-17.481144087776432,-16.419121829122535,-15.357099570467721,-14.295077311811994,-13.233055053155361,-12.171032794497822,-11.12596897560608,-10.177004050685854,-9.2280391257646919,-8.2790742008426,-7.3301092759195825,-6.3811443509956378,-5.432179426070749,-4.4832145011449311,-3.534249576218186,-2.5852846512905145,-1.6643110024648826,-0.85530378094053494,-0.046296559415277092,0.76271066211089988,1.5717178836379857,2.3807251051659919,3.18973232669491,3.9987395482247456,4.8077467697554948,5.6167539912871556,6.3859860325535012,7.035891029177499,7.6857960258024134,8.33570102242825,8.9856060190550124,9.63551101568269,10.285416012311284,10.935321008940795,11.585226005571213,12.235131002202566,12.833962086740248,13.313618698232569,13.793275309725782,14.27293192121995,14.752588532715018,15.232245144211003,15.711901755707929,16.191558367205769,16.671214978704523,17.1508715902042,17.569705252568184,17.875580366800598,18.181455481033939,18.487330595268187,18.793205709503361,19.099080823739488,19.404955937976531,19.7108310522145,20.016706166453371,20.322581280693193,20.560197390410423,20.695423380357802,20.830649370306087,20.965875360255346,21.101101350205504,21.236327340156606,21.371553330108654,21.506779320061611,21.642005310015506,21.777231299970342,21.839486771653888,21.812554521609922,21.785622271566851,21.758690021524732,21.731757771483579,21.704825521443354,21.67789327140407,21.650961021365742,21.624028771328348,21.597096521291903,21.141850888590422,20.965138802373168,20.788426716156877,20.611714629941542,20.43500254372719,20.258290457513755,20.081578371301294,19.904866285089806,19.653915843327333,19.342223653002137,19.030531462677914,18.718839272354664,18.407147082032392,18.095454891711096,17.783762701390774,17.472070511071429,17.160378320753026,16.848686130435638,16.465535020846279,16.034743506009363,15.603951991173444,15.173160476338518,14.7423689615046,14.311577446671645,13.880785931839707,13.449994417008753,13.019202902178804,12.588411387349833,12.090495345790917,11.556434352192385,11.02237335859488,10.488312364998391,9.9542513714029113,9.4201903778084546,8.886129384215,8.3520683906225752,7.8180073970311525,7.28394640344075,6.68801986770917,6.0655784839833791,5.4431371002586006,4.8206957165348934,4.1982543328122048,3.5758129490905737,2.9533715653699737,2.3309301816504018,1.7084887979318848,1.0860474142144017,0.40728018125919768,-0.29026304464042285,-0.98780627053898751,-1.6853494964364968,-2.3828927223329339,-3.080435948228335,-3.7779791741226441,-4.4755224000159064,-5.1730656259081353,-5.8706088517992683,-6.6192128856148376,-7.3805827247026059,-8.1419525637892836,-8.9033224028748315,-9.6646922419592727,-10.426062081042572,-11.187431920124769,-11.948801759205848,-12.710171598285802,-13.47154143736466,-14.279632166069383,-15.095968277191869,-15.91230438831322,-16.728640499433542,-17.544976610552713,-18.361312721670817,-19.177648832787828,-19.99398494390374,-20.810321055018559,-21.626657166132308,-22.486597785644481,-23.351383808483753,-24.216169831321888,-25.080955854158784,-25.945741876994575,-26.810527899829125,-27.675313922662511,-28.540099945494674,-29.404885968325676,-30.269671991155505,-31.176849735388647,-32.086259044633557,-32.995668353877328,-33.90507766311984,-34.814486972361124,-35.723896281601242,-36.633305590840152,-37.542714900077769,-38.452124209314285,-39.361533518549486,0.17960128942415327,0.17960128942415327,0.17960128942415327,0.17960128942415327,0.17960128942415327,0.17960128942415327,0.17960128942415327,0.17960128942415327,0.17960128942415327,0.17960128942415327,0.17960128942415327,0.17960128942415327
DP 254,189.58862958544381,0.0056416333294237748,-209.81456509900622,-204.32275742961136,-198.83094976021169,-193.33914209080791,-187.84733442139941,-182.35552675198647,-176.86371908256913,-171.3719114131471,-165.88010374372055,-160.38829607428951,-154.90551649239197,-149.59427228042151,-144.28302806844667,-138.97178385646723,-133.66053964448344,-128.3492954324951,-123.03805122050245,-117.72680700850519,-112.41556279650359,-107.10431858449743,-101.8296410431431,-96.884066994036445,-91.938492944925457,-86.992918895810192,-82.0473448466906,-77.101770797566587,-72.15619674843829,-67.210622699305659,-62.265048650168588,-57.319474601027338,-52.451988158016228,-48.027003070414587,-43.602017982808576,-39.177032895198124,-34.752047807583288,-30.327062719963994,-25.9020776323403,-21.477092544712171,-17.052107457079639,-12.627122369442702,-8.3312328519109453,-4.5517317159741069,-0.77223058003294942,3.0072705559125716,6.7867716918623984,10.566272827816602,14.345773963775128,18.125275099738,21.904776235705203,25.68427737167675,29.279963661916028,32.324198465164883,35.368433268418052,38.412668071675604,41.456902874937477,44.501137678203705,47.545372481474338,50.589607284749285,53.633842088028594,56.678076891312273,59.485709455364166,61.741260809539533,63.996812163719206,66.252363517903262,68.507914872091661,70.763466226284478,73.019017580481744,75.274568934683245,77.530120288889208,79.785671643099491,81.758674387492334,83.206936368816,84.655198350144119,86.103460331476555,87.551722312813439,88.999984294154672,90.448246275500338,91.896508256850439,93.3447702382049,94.793032219563742,95.923192863380336,96.576193984029132,97.229195104682276,97.882196225339911,98.535197346002,99.188198466668467,99.841199587339361,100.49420070801483,101.14720182869453,101.80020294937896,102.11195023989453,102.00660234779988,101.90125445570986,101.79590656362426,101.69055867154313,101.58521077946651,101.47986288739435,101.37451499532663,101.26916710326353,101.16381921120488,99.089879053057444,98.281371238956183,97.472863424859483,96.664355610767217,95.8558477966796,95.047339982596455,94.2388321685179,93.430324354443954,92.271828265719265,90.826972119300052,89.382115972885344,87.93725982647527,86.49240368006987,85.047547533669018,83.602691387272813,82.1578352408813,80.71297909449433,79.268122948112023,77.484847413910956,75.475953623184651,73.467059832463107,71.45816604174621,69.449272251034017,67.4403784603265,65.431484669623828,63.42259087892581,61.41369708823251,59.404803297543921,57.076449970659219,54.576075324937314,52.075700679220269,49.57532603350802,47.0749513878006,44.574576742098024,42.074202096400256,39.573827450707356,37.073452805019244,34.573078159335971,31.776711314496943,28.853485674010823,25.930260033529525,23.007034393053281,20.083808752581877,17.160583112115503,14.237357471654059,11.31413183119747,8.3909061907458913,5.4676805502992289,2.2734420884091793,-1.0111373961575871,-4.2957168807193336,-7.580296365276066,-10.864875849827698,-14.149455334374434,-17.434034818915954,-20.718614303452515,-24.003193787984127,-27.287773272510609,-30.819482031144659,-34.412976028175095,-38.006470025200322,-41.599964022220256,-45.193458019234818,-48.786952016244044,-52.380446013247948,-55.973940010246629,-59.567434007239974,-63.160928004228033,-66.981860117389616,-70.8429308978422,-74.704001678289373,-78.565072458731578,-82.426143239168439,-86.287214019600185,-90.148284800026659,-94.009355580448016,-97.870426360864016,-101.73149714127504,-105.80594108037425,-109.90409538913487,-114.00224969789001,-118.10040400663927,-122.19855831538322,-126.29671262412134,-130.39486693285377,-134.49302124158055,-138.59117555030178,-142.68932985901736,-146.99567733092601,-151.3129844091751,-155.63029148741865,-159.94759856565636,-164.26490564388823,-168.58221272211463,-172.89951980033507,-177.21682687854963,-181.53413395675875,-185.85144103496179,0.85354951522927924,0.85354951522927924,0.85354951522927924,0.85354951522927924,0.85354951522927924,0.85354951522927924,0.85354951522927924,0.85354951522927924,0.85354951522927924,0.85354951522927924,0.85354951522927924,0.85354951522927924
DP 255,70.0388761451313,0.0047913859585452193,-83.970261088921248,-82.129841336475948,-80.289421584027764,-78.449001831577007,-76.608582079123664,-74.768162326667564,-72.927742574208793,-71.0873228217474,-69.246903069283391,-67.4064833168166,-65.567961601168562,-63.765502943936973,-61.963044286702704,-60.1605856294657,-58.358126972226145,-56.555668314983727,-54.753209657738708,-52.95075100049101,-51.1482923432406,-49.345833685987529,-47.55125849639856,-45.827635260967185,-44.104012025533116,-42.380388790096418,-40.656765554657042,-38.933142319214951,-37.209519083770239,-35.485895848322777,-33.7622726128727,-32.038649377419951,-30.332502204230252,-28.725387151789118,-27.118272099345258,-25.511157046898649,-23.904041994449312,-22.296926941997231,-20.689811889542408,-19.082696837084846,-17.475581784624534,-15.868466732161513,-14.291779171702553,-12.836803017295889,-11.381826862886507,-9.9268507084743565,-8.4718745540594771,-7.01689839964183,-5.5619222452214423,-4.1069460907982966,-2.6519699363724096,-1.1969937819437708,0.2117321347416399,1.4817055895343778,2.7516790443299159,4.0216524991282538,5.2916259539293957,6.5615994087333336,7.8315728635400781,9.1015463183496248,10.371519773161948,11.641493227977097,12.847032959559495,13.902224799280422,14.957416639004229,16.012608478730876,17.067800318460371,18.122992158192712,19.178183997927935,20.233375837666014,21.2885676774069,22.34375951715068,23.314555620208189,24.128614504500057,24.942673388794852,25.756732273092538,26.570791157393181,27.384850041696705,28.198908926003121,29.0129678103125,29.827026694624781,30.641085578939954,31.349579850083881,31.899724706938724,32.44986956379649,33.000014420657315,33.550159277521054,34.100304134387812,34.650448991257548,35.200593848130261,35.750738705005951,36.300883561884639,36.723625847668146,36.990651203828342,37.257676559991616,37.52470191615793,37.791727272327286,38.05875262849974,38.325777984675241,38.592803340853813,38.859828697035432,39.12685405322015,39.180780459612279,39.148945385968176,39.117110312327185,39.085275238689377,39.0534401650547,39.0216050914232,38.989770017794818,38.957934944169587,38.754843855938688,38.411631267146262,38.068418678357077,37.725206089571131,37.381993500788433,37.038780912008967,36.695568323232763,36.35235573445987,36.009143145690146,35.6659305569237,35.1301338439952,34.465944681071925,33.801755518151992,33.137566355235407,32.473377192322182,31.809188029412304,31.144998866505787,30.4808097036026,29.81662054070279,29.152431377806295,28.275004237045167,27.282753545811211,26.290502854580772,25.298252163353737,24.30600147213018,23.313750780910052,22.321500089693377,21.3292493984802,20.336998707270446,19.344748016064187,18.119381086727184,16.794103263457419,15.468825440191205,14.14354761692865,12.818269793669639,11.492991970414248,10.167714147162458,8.842436323914221,7.5171585006696082,6.1918806774285828,4.6143184883014143,2.9526583310475312,1.2909981737973351,-0.37066198344917567,-2.0323221406919645,-3.6939822979311177,-5.3556424551665094,-7.0173026123982236,-8.6789627696263079,-10.340622926850632,-12.272925972614436,-14.272892938201,-16.272859903783658,-18.272826869362365,-20.272793834937119,-22.272760800507861,-24.272727766074713,-26.272694731637589,-28.272661697196533,-30.272628662751551,-32.561378828993753,-34.901093947844174,-37.240809066690616,-39.580524185533321,-41.920239304372075,-44.259954423207041,-46.599669542038079,-48.939384660865294,-51.279099779688636,-53.61881489850817,-56.264562728080335,-58.944317406244785,-61.624072084405078,-64.30382676256103,-66.983581440712825,-69.663336118860258,-72.34309079700347,-75.022845475142276,-77.702600153277018,-80.382354831407312,-83.3856365418464,-86.4059492097922,-89.426261877733637,-92.446574545670671,-95.466887213603314,-98.487199881531808,-101.50751254945571,-104.52782521737525,-107.54813788529042,-110.5684505532011,0.62807472037426149,0.62807472037426149,0.62807472037426149,0.62807472037426149,0.62807472037426149,0.62807472037426149,0.62807472037426149,0.62807472037426149,0.62807472037426149,0.62807472037426149,0.62807472037426149,0.62807472037426149
DP 256,119.27175781263732,0.0027904541148782132,-72.10710240123268,-70.366407255673735,-68.62571211011273,-66.885016964549649,-65.144321818984466,-63.403626673417236,-61.662931527847967,-59.92223638227663,-58.181541236703232,-56.440846091127781,-54.702404541229086,-53.006781735256908,-51.311158929282634,-49.615536123306313,-47.919913317327904,-46.224290511347533,-44.528667705365081,-42.833044899380518,-41.137422093393965,-39.44179928740536,-37.755431947051413,-36.15236467226886,-34.549297397484331,-32.94623012269777,-31.343162847909241,-29.740095573118698,-28.137028298326126,-26.533961023531578,-24.930893748735006,-23.327826473936454,-21.744930958953894,-20.276343354051242,-18.807755749146541,-17.339168144239792,-15.870580539331023,-14.401992934420194,-12.9334053295073,-11.464817724592379,-9.9962301196754062,-8.5276425147563923,-7.0933692453396544,-5.79635493966137,-4.49934063398107,-3.202326328298744,-1.9053120226144091,-0.60829771692803991,0.68871658876034281,1.985730894450753,3.2827452001431734,4.5797595058376226,5.82612727490245,6.9205535191989158,8.0149797634974185,9.10940600779795,10.203832252100531,11.298258496405149,12.392684740711795,13.487110985020488,14.581537229331202,15.675963473643959,16.70230209153544,17.569766899551073,18.437231707568777,19.304696515588546,20.172161323610332,21.039626131634183,21.907090939660094,22.774555747688069,23.642020555718055,24.509485363750127,25.291407489289487,25.914462322877295,26.537517156467207,27.160571990059161,27.783626823653204,28.406681657249312,29.029736490847483,29.65279132444774,30.275846158050062,30.898900991654454,31.419915133576151,31.787865826713436,32.155816519852834,32.523767212994315,32.891717906137906,33.259668599283586,33.627619292431383,33.995569985581255,34.363520678733252,34.731471371887366,34.982617086501961,35.090998707217125,35.1993803279344,35.30776194865382,35.416143569375365,35.52452519009907,35.632906810824878,35.74128843155281,35.849670052282889,35.958051673015113,35.636697816780831,35.486479461283871,35.336261105789042,35.186042750296465,35.035824394806014,34.885606039317757,34.735387683831647,34.58516932834776,34.295695070647085,33.892281772466035,33.4888684742872,33.085455176110571,32.682041877936136,32.278628579763961,31.875215281593981,31.47180198342625,31.068388685260697,30.664975387097449,30.114880771709078,29.466996300750015,28.819111829793222,28.171227358838742,27.523342887886493,26.875458416936535,26.227573945988851,25.5796894750434,24.931805004100291,24.283920533159403,23.484211732537567,22.60274916198837,21.721286591441523,20.839824020896998,19.958361450354811,19.076898879814962,18.195436309277429,17.31397373874227,16.432511168209405,15.551048597678902,14.514450597010558,13.411363364918246,12.308276132828265,11.205188900740756,10.102101668655584,8.999014436572855,7.895927204492506,6.79283997241452,5.6897527403389692,4.5866655082658037,3.3263146441138409,2.0135405873015784,0.7007665304917593,-0.61200752631561572,-1.9247815831205206,-3.2375556399230248,-4.5503296967230229,-5.8631037535205826,-7.1758778103157432,-8.4886518671084144,-9.9602596463830135,-11.471577732923047,-12.982895819460525,-14.494213905995389,-16.005531992527679,-17.516850079057328,-19.028168165584397,-20.539486252108876,-22.050804338630748,-23.562122425150044,-25.234335917603303,-26.934944506165632,-28.635553094725413,-30.336161683282739,-32.036770271837433,-33.737378860389647,-35.437987448939296,-37.1385960374864,-38.839204626030977,-40.539813214573059,-42.404181777983105,-44.28674761402128,-46.169313450056741,-48.05187928608936,-49.934445122119328,-51.8170109581464,-53.699576794170767,-55.582142630192251,-57.464708466211142,-59.347274302227142,-61.398603360373535,-63.458816372494731,-65.519029384613134,-67.579242396728631,-69.639455408841357,-71.699668420951312,-73.7598814330584,-75.820094445162582,-77.880307457264,-79.940520469362582,0.41724607399898556,0.41724607399898556,0.41724607399898556,0.41724607399898556,0.41724607399898556,0.41724607399898556,0.41724607399898556,0.41724607399898556,0.41724607399898556,0.41724607399898556,0.41724607399898556,0.41724607399898556
DP 257,140.25679297850442,0.0048523934995346281,-142.51292721900234,-138.97322887018788,-135.43353052136985,-131.89383217254797,-128.35413382372235,-124.81443547489309,-121.27473712606009,-117.73503877722338,-114.19534042838292,-110.65564207953871,-107.12090986628756,-103.68053516819256,-100.24016047009397,-96.799785771991679,-93.359411073885653,-89.919036375775917,-86.478661677662416,-83.038286979545234,-79.597912281424414,-76.157537583299828,-72.737465592385888,-69.500119885445372,-66.262774178501189,-63.025428471553425,-59.788082764601981,-56.55073705764697,-53.313391350688342,-50.076045643726076,-46.838699936760264,-43.601354229790751,-40.407980594812081,-37.463784805343032,-34.519589015870309,-31.575393226393846,-28.631197436913769,-25.687001647429973,-22.742805857942454,-19.798610068451286,-16.854414278956426,-13.910218489457881,-11.040158720509828,-8.4666465375029745,-5.8931343544925188,-3.3196221714784087,-0.746109988460685,1.8274021945606977,4.4009143775857,6.9744265606143525,9.5479387436466165,12.121450926682524,14.58676127369718,16.727462021679091,18.868162769664657,21.008863517653882,23.14956426564677,25.290265013643314,27.430965761643503,29.571666509647358,31.712367257654858,33.853068005666039,35.850277692438638,37.512669251742032,39.175060811049107,40.837452370359856,42.4998439296743,44.1622354889924,45.824627048314177,47.487018607639655,49.149410166968813,50.811801726301653,52.296777851055928,53.452263377426632,54.607748903800996,55.763234430179061,56.918719956560878,58.07420548294639,59.22969100933566,60.385176535728561,61.5406620621252,62.696147588525555,63.643843786141495,64.279851080440125,64.915858374742541,65.551865669048667,66.187872963358529,66.8238802576722,67.459887551989567,68.0958948463107,68.731902140635583,69.367909434964218,69.770928699038365,69.889179921162409,70.007431143290219,70.125682365421923,70.243933587557365,70.362184809696529,70.480436031839631,70.5986872539864,70.7169384761371,70.835189698291543,69.929637178912927,69.543764973736131,69.1578927685633,68.772020563394278,68.386148358229164,68.000276153067929,67.614403947910546,67.228531742757013,66.577940838071015,65.7107573571148,64.8435738761625,63.976390395214175,63.109206914269727,62.242023433329216,61.374839952392712,60.5076564714601,59.640472990531471,58.773289509606755,57.634783043212195,56.315390312199561,54.995997581190942,53.676604850186372,52.35721211918581,51.0378193881892,49.718426657196737,48.39903392620819,47.0796411952237,45.760248464243332,44.168093961731728,42.429063769654434,40.690033577581239,38.951003385512237,37.211973193447335,35.472943001386547,33.733912809329887,31.994882617277412,30.255852425229012,28.516822233184765,26.507468204655407,24.382256540590941,22.257044876530607,20.131833212474618,18.0066215484228,15.881409884375255,13.756198220331948,11.630986556292807,9.5057748922579712,7.3805632282273521,4.9897044524361354,2.5102932914852,0.030882130538570536,-2.4485290304037406,-4.927940191341686,-7.4073513522753993,-9.88676251320468,-12.366173674129669,-14.845584835050406,-17.324995995966738,-20.064706159291404,-22.869494148690805,-25.674282138085665,-28.47907012747595,-31.283858116861694,-34.088646106242791,-36.89343409561932,-39.6982220849913,-42.503010074358713,-45.307798063721542,-48.369129504397925,-51.475736171634551,-54.582342838866637,-57.688949506094282,-60.795556173317379,-63.902162840536093,-67.0087695077503,-70.115376174960048,-73.221982842165332,-76.328589509366182,-79.690521269175193,-83.080825165232227,-86.4711290612844,-89.861432957331616,-93.251736853374126,-96.642040749411677,-100.03234464544433,-103.42264854147196,-106.8129524374949,-110.20325633351297,-113.85287402909555,-117.51614239945897,-121.17941076981735,-124.84267914017084,-128.50594751051926,-132.16921588086285,-135.83248425120141,-139.49575262153468,-143.15902099186326,-146.82228936218675,0.73566137855714087,0.73566137855714087,0.73566137855714087,0.73566137855714087,0.73566137855714087,0.73566137855714087,0.73566137855714087,0.73566137855714087,0.73566137855714087,0.73566137855714087,0.73566137855714087,0.73566137855714087
DP 258,139.45863198203986,0.0027075443478904618,-79.16033470153252,-77.1961314797616,-75.231928257988784,-73.267725036213832,-71.303521814436792,-69.339318592657634,-67.375115370876472,-65.410912149093193,-63.446708927307867,-61.482505705520445,-59.521049951882823,-57.611796612523548,-55.702543273162227,-53.793289933798825,-51.884036594433383,-49.974783255065908,-48.065529915696295,-46.156276576324608,-44.247023236950895,-42.337769897575072,-40.439752607896025,-38.642860827555005,-36.84596904721203,-35.049077266866973,-33.25218548651997,-31.455293706170906,-29.658401925819845,-27.861510145466767,-26.064618365111684,-24.267726584754566,-22.495174262063745,-20.860547066563232,-19.225919871060697,-17.591292675556087,-15.956665480049427,-14.322038284540731,-12.687411089029949,-11.052783893517121,-9.4181566980022442,-7.7835295024853224,-6.1899525879142141,-4.760578737201997,-3.3312048864877579,-1.9018310357714872,-0.47245718505320156,0.95691666566712374,2.3862905163894688,3.8156643671138459,5.2450382178402428,6.6744120685686639,8.0438481574080622,9.2334686944124673,10.423089231418919,11.61270976842739,12.802330305437911,13.991950842450471,15.181571379465087,16.371191916481724,17.560812453500393,18.750432990521119,19.860527253441827,20.785057078069613,21.709586902699453,22.634116727331339,23.558646551965278,24.483176376601271,25.407706201239332,26.332236025879414,27.25676585052155,28.181295675165757,29.007439591556427,29.650864164165242,30.294288736776135,30.937713309389096,31.581137882004104,32.224562454621193,32.867987027240339,33.511411599861582,34.154836172484885,34.798260745110206,35.326377393927174,35.681529432261641,36.036681470598161,36.391833508936763,36.746985547277482,37.10213758562027,37.457289623965146,37.812441662312125,38.167593700661229,38.522745739012407,38.748507652177665,38.816123361194137,38.883739070212677,38.951354779233405,39.018970488256237,39.086586197281171,39.154201906308238,39.221817615337429,39.28943332436873,39.357049033402134,38.859398244232629,38.646814257068996,38.434230269907516,38.221646282748161,38.009062295590923,37.796478308435887,37.583894321283,37.371310334132289,37.011453386109373,36.531097848199977,36.050742310292748,35.570386772387728,35.090031234484918,34.609675696584269,34.129320158685857,33.648964620789613,33.168609082895614,32.688253545003732,32.056799113044292,31.32460970469316,30.592420296344265,29.860230887997606,29.128041479653238,28.39585207131109,27.663662662971177,26.931473254633495,26.199283846298087,25.467094437964931,24.582839722206966,23.616701475770714,22.650563229336761,21.6844249829051,20.718286736475743,19.752148490048683,18.786010243623931,17.819871997201492,16.853733750781327,15.887595504363466,14.770577629752838,13.588894510670505,12.407211391590492,11.225528272512882,10.043845153437598,8.8621620343647134,7.6804789152941844,6.4987957962259788,5.317112677160174,4.1354295580967184,2.8053023514139164,1.4256919113752806,0.046081471339049274,-1.3335289686947744,-2.713139408726164,-4.09274984875519,-5.4723602887817471,-6.8519707288059077,-8.2315811688276987,-9.61119160884703,-11.136427971010551,-12.698072534302696,-14.259717097592359,-15.821361660879433,-17.383006224163978,-18.944650787445937,-20.506295350725377,-22.067939914002242,-23.629584477276559,-25.191229040548354,-26.89655268606576,-28.62723306147566,-30.357913436882985,-32.0885938122879,-33.819274187690283,-35.549954563090189,-37.280634938487559,-39.011315313882484,-40.741995689274894,-42.472676064664832,-44.346480221339021,-46.236188523514365,-48.125896825686993,-50.015605127856858,-51.905313430024108,-53.795021732188509,-55.684730034350324,-57.574438336509274,-59.464146638665596,-61.353854940819183,-63.389008890242508,-65.431819320857613,-67.474629751470019,-69.5174401820796,-71.560250612686389,-73.603061043290566,-75.64587147389183,-77.688681904490252,-79.731492335085989,-81.7743027656789,0.41036244318991588,0.41036244318991588,0.41036244318991588,0.41036244318991588,0.41036244318991588,0.41036244318991588,0.41036244318991588,0.41036244318991588,0.41036244318991588,0.41036244318991588,0.41036244318991588,0.41036244318991588
DP 259,137.48184150043107,0.0012627345275055123,-36.502846212505936,-35.599355889160407,-34.6958655658139,-33.792375242466427,-32.888884919118013,-31.985394595768614,-31.081904272418267,-30.178413949066936,-29.274923625714642,-28.371433302361378,-27.469197777482595,-26.5908036608486,-25.712409544213642,-24.834015427577743,-23.955621310940856,-23.077227194302989,-22.198833077664197,-21.320438961024429,-20.442044844383723,-19.563650727742019,-18.690389843347031,-17.863328534382191,-17.036267225416406,-16.209205916449687,-15.382144607482029,-14.555083298513438,-13.728021989543903,-12.90096068057343,-12.073899371602018,-11.24683806262969,-10.430903241665131,-9.678019220545842,-8.9251351994255881,-8.1722511783043768,-7.4193671571822195,-6.666483136059103,-5.913599114935022,-5.1607150938099924,-4.4078310726840071,-3.6549470515570679,-2.9208439719684649,-2.2618655461385528,-1.6028871203077006,-0.94390869447590375,-0.28493026864316912,0.3740481571905141,1.0330265830251371,1.6920050088607059,2.3509834346972114,3.0099618605346614,3.6414899994047132,4.1906662395133081,4.7398424796228547,5.2890187197333454,5.8381949598447864,6.3873711999571734,6.9365474400705107,7.4857236801848,8.0348999203000364,8.5840761604162221,9.0967850125348058,9.5244018564289625,9.952018700324075,10.379635544220143,10.80725238811716,11.234869232015132,11.662486075914066,12.090102919813967,12.517719763714796,12.945336607616584,13.327771915092532,13.626297434740815,13.924822954390061,14.223348474040272,14.521873993691438,14.820399513343574,15.118925032996666,15.417450552650717,15.715976072305729,16.014501591961707,16.259985320393668,16.425905108591984,16.59182489679127,16.75774468499154,16.923664473192744,17.089584261394961,17.255504049598137,17.42142383780228,17.587343626007392,17.753263414213492,17.859550529287219,17.892952013517085,17.92635349774794,17.9597549819798,17.993156466212632,18.02655795044646,18.059959434681254,18.093360918917067,18.12676240315384,18.160163887391622,17.936847244676795,17.840840046109303,17.744832847542817,17.648825648977329,17.552818450412857,17.456811251849388,17.360804053286902,17.264796854725429,17.100615641594057,16.880654517649944,16.660693393706875,16.440732269764812,16.220771145823779,16.000810021883765,15.780848897944781,15.560887774006828,15.34092665006988,15.120965526133972,14.830882730450464,14.494051048935432,14.157219367421442,13.820387685908491,13.48355600439659,13.146724322885737,12.809892641375937,12.473060959867178,12.136229278359465,11.799397596852804,11.391805299274367,10.946110102520247,10.500414905767219,10.054719709015252,9.60902451226435,9.1633293155145275,8.71763411876577,8.2719389220180961,7.8262437252714765,7.3805485285259458,6.86444428095467,6.3181635374627607,5.7718827939719235,5.2256020504822214,4.6793213069935966,4.1330405635060874,3.5867598200196724,3.040479076534349,2.4941983330501376,1.9479175895670244,1.3321608796650137,0.69324463869602815,0.054328397728163315,-0.58458784323857982,-1.2235040842041882,-1.8624203251686968,-2.5013365661320521,-3.1402528070942943,-3.7791690480554347,-4.4180852890154236,-5.125355318704413,-5.8497146031861647,-6.5740738876667377,-7.2984331721461269,-8.0227924566243178,-8.7471517411013089,-9.471511025577124,-10.195870310051744,-10.920229594525177,-11.644588878997439,-12.436567456778377,-13.240479602961551,-14.044391749143553,-14.848303895324424,-15.652216041504094,-16.456128187682626,-17.26004033385998,-18.063952480036193,-18.867864626211212,-19.6717767723851,-20.543194893176846,-21.422114386786461,-22.301033880394833,-23.179953374001908,-24.058872867607782,-24.937792361212324,-25.816711854815612,-26.695631348417628,-27.574550842018404,-28.45347033561789,-29.401090000939906,-30.352326148312446,-31.303562295683715,-32.254798443053637,-33.206034590422348,-34.15727073778973,-35.108506885155819,-36.059743032520572,-37.01097917988406,-37.962215327246206,0.19122896827318292,0.19122896827318292,0.19122896827318292,0.19122896827318292,0.19122896827318292,0.19122896827318292,0.19122896827318292,0.19122896827318292,0.19122896827318292,0.19122896827318292,0.19122896827318292,0.19122896827318292
DP 260,206.49373927990538,0.002825558472043058,-112.087477746641,-109.10913699378915,-106.13079624093501,-103.15245548807864,-100.17411473522,-97.195773982359142,-94.217433229495981,-91.23909247663066,-88.260751723763,-85.2824109708931,-82.309205033824426,-79.433561567730351,-76.557918101634016,-73.682274635535492,-70.806631169434723,-67.930987703331709,-65.055344237226407,-62.179700771118895,-59.304057305009067,-56.428413838897093,-53.573504747474992,-50.905206988129159,-48.236909228781144,-45.568611469430984,-42.900313710078628,-40.2320159507241,-37.5637181913674,-34.8954204320085,-32.227122672647425,-29.558824913284241,-26.934597517094417,-24.560104955969493,-22.185612394842348,-19.811119833712986,-17.436627272581426,-15.062134711447646,-12.687642150311639,-10.313149589173417,-7.9386570280329884,-5.5641644668903565,-3.2620552728441021,-1.2494829680864319,0.76308933667340251,2.7756616414354194,4.7882339461995969,6.800806250965965,8.8133785557345,10.825950860505216,12.838523165278099,14.851095470053171,16.761445013662893,18.365122408871105,19.968799804081495,21.572477199294092,23.176154594508837,24.779831989725771,26.383509384944894,27.987186780166205,29.59086417538968,31.194541570615343,32.667928491654841,33.837299174903151,35.006669858153657,36.176040541406316,37.345411224661213,38.514781907918284,39.684152591177536,40.853523274438942,42.022893957702607,43.1922646409684,44.207800963395968,44.937640746935514,45.667480530477235,46.397320314021158,47.12716009756727,47.856999881115584,48.58683966466608,49.316679448218828,50.046519231773736,50.776359015330854,51.33521843390178,51.637603264663063,51.939988095426564,52.2423729261923,52.544757756960223,52.847142587730339,53.149527418502771,53.451912249277328,53.7542970800541,54.056681910833134,54.178233422360904,54.078762634218442,53.979291846078247,53.879821057940269,53.780350269804586,53.680879481671084,53.581408693539863,53.481937905410867,53.382467117284079,53.282996329159587,52.067473148383023,51.601157340212993,51.13484153204525,50.668525723879839,50.202209915716594,49.7358941075557,49.269578299397047,48.803262491240666,48.157424149961216,47.364700650903394,46.571977151847925,45.779253652794672,44.9865301537438,44.193806654695265,43.401083155648983,42.608359656605025,41.8156361575634,41.022912658524028,40.059755399274088,38.982972948277322,37.906190497282907,36.829408046290808,35.752625595301105,34.6758431443137,33.599060693328695,32.522278242346019,31.445495791365715,30.368713340387728,29.134200136037087,27.81475269388147,26.49530525172829,25.175857809577533,23.856410367429149,22.536962925283152,21.217515483139561,19.898068040998421,18.578620598859654,17.259173156723289,15.7966640292043,14.27284033608982,12.749016642977724,11.225192949868166,9.7013692567610263,8.17754556365637,6.6537218705541781,5.1298981774543995,3.6060744843571269,2.0822507912623052,0.43038777877592166,-1.264156620498859,-2.9587010197711434,-4.6532454190409256,-6.3477898183081694,-8.0423342175729662,-9.7368786168351829,-11.431423016094916,-13.125967415352187,-14.820511814606888,-16.629059670857995,-18.466109738326018,-20.303159805791452,-22.140209873254229,-23.977259940714355,-25.81431000817182,-27.65136007562667,-29.488410143078841,-31.325460210528352,-33.162510277975343,-35.1020299896021,-37.059633719089682,-39.017237448574562,-40.974841178056977,-42.932444907536727,-44.890048637014,-46.847652366488525,-48.80525609596058,-50.76285982543,-52.720463554896924,-54.772166113982578,-56.834325086839513,-58.896484059693627,-60.958643032544884,-63.020802005393456,-65.082960978239129,-67.145119951082023,-69.20727892392209,-71.269437896759371,-73.331596869593852,-75.4841970466095,-77.641558186855221,-79.798919327098147,-81.956280467338217,-84.1136416075754,-86.2710027478098,-88.428363888041261,-90.585725028269721,-92.743086168495537,-94.90044730871837,0.42473968645573246,0.42473968645573246,0.42473968645573246,0.42473968645573246,0.42473968645573246,0.42473968645573246,0.42473968645573246,0.42473968645573246,0.42473968645573246,0.42473968645573246,0.42473968645573246,0.42473968645573246
DP 261,80.926565684559876,0.0011866962353127351,-22.953810332308944,-22.437165464586382,-21.920520596863106,-21.403875729139102,-20.887230861414331,-20.370585993688852,-19.85394112596266,-19.337296258235693,-18.820651390508022,-18.304006522779602,-17.787923799927679,-17.282521936012877,-16.777120072097333,-16.271718208181046,-15.766316344264046,-15.2609144803463,-14.755512616427827,-14.250110752508599,-13.744708888588656,-13.239307024667985,-12.736234209370487,-12.254123051833377,-11.772011894295543,-11.28990073675698,-10.807789579217667,-10.325678421677667,-9.8435672641369241,-9.36145610659546,-8.8793449490532712,-8.3972337915103576,-7.9202646652046571,-7.47243403993578,-7.0246034146661591,-6.5767727893957959,-6.1289421641246919,-5.6811115388528419,-5.2332809135802458,-4.7854502883069108,-4.3376196630328341,-3.8897890377580158,-3.4508639231640146,-3.0475612721771683,-2.6442586211895827,-2.2409559702012536,-1.8376533192121876,-1.4343506682223763,-1.0310480172318262,-0.62774536624053368,-0.2244427152485024,0.17885993574426998,0.56871759636679953,0.91823977754063646,1.2677619587152262,1.617284139890566,1.9668063210666591,2.3163285022435014,2.6658506834210978,3.015372864599446,3.3648950457785354,3.7144172269583913,4.045361411473821,4.3329562054312687,4.6205509993894793,4.9081457933484547,5.1957405873081921,5.483335381268696,5.7709301752299558,6.0585249691919847,6.346119763154773,6.6337145571183269,6.8972043252602457,7.1159269658919291,7.3346496065243967,7.5533722471576361,7.7720948877916545,7.9908175284264411,8.2095401690620058,8.4282628096983583,8.6469854503354728,8.86570809097337,9.0545996304301042,9.1987438131947457,9.3428879959601776,9.4870321787264018,9.6311763614934236,9.7753205442612288,9.91946472702983,10.063608909799216,10.207753092569401,10.351897275340372,10.460459026057313,10.525530390196035,10.590601754335577,10.655673118475914,10.720744482617071,10.785815846759037,10.850887210901806,10.915958575045384,10.98102993918978,11.04610130333498,11.035255459964375,11.017902693972923,11.000549927982309,10.983197161992516,10.965844396003558,10.94849163001542,10.931138864028133,10.913786098041658,10.849824907292634,10.747728749829751,10.645632592367718,10.54353643490653,10.441440277446194,10.339344119986716,10.237247962528089,10.135151805070315,10.033055647613397,9.9309594901573277,9.7771598721354085,9.5888904658890173,9.4006210596435142,9.212351653398887,9.024082247155139,8.8358128409122632,8.6475434346702631,8.4592740284291423,8.2710046221889,8.082735215949528,7.8379950445888564,7.5628467169791156,7.287698389370278,7.0125500617623455,6.7374017341553332,6.4622534065492143,6.1871050789439987,5.9119567513397069,5.6368084237363068,5.3616600961338161,5.0255900479762809,4.6634096627209036,4.3012292774664447,3.9390488922129423,3.5768685069603618,3.2146881217087246,2.8525077364580227,2.4903273512082449,2.1281469659594139,1.7659665807115144,1.3386712710983855,0.88967016606426086,0.44066906103109377,-0.0083320440011155957,-0.45733314903235772,-0.906334254062657,-1.3553353590919774,-1.8043364641203425,-2.253337569147766,-2.7023386741742121,-3.2204231225014794,-3.7557792228843985,-4.2911353232663094,-4.8264914236471927,-5.3618475240270529,-5.897203624405881,-6.4325597247836956,-6.9679158251604782,-7.5032719255362439,-8.0386280259109952,-8.6470151338002115,-9.26829087866014,-9.8895666235190571,-10.510842368376997,-11.13211811323391,-11.753393858089842,-12.374669602944763,-12.995945347798694,-13.617221092651608,-14.238496837503554,-14.936626706828305,-15.643296730466021,-16.349966754102642,-17.056636777738142,-17.763306801372558,-18.469976825005876,-19.176646848638086,-19.883316872269184,-20.5899868958992,-21.296656919528107,-22.084220826306609,-22.876043110744106,-23.66786539518052,-24.459687679615783,-25.251509964049905,-26.043332248482947,-26.835154532914839,-27.626976817345586,-28.418799101775228,-29.210621386203716,0.16349118765238671,0.16349118765238671,0.16349118765238671,0.16349118765238671,0.16349118765238671,0.16349118765238671,0.16349118765238671,0.16349118765238671,0.16349118765238671,0.16349118765238671,0.16349118765238671,0.16349118765238671
DP 262,200.42410349376655,0.0027608359353400091,-107.0977374298761,-104.26696794875915,-101.43619846763987,-98.605428986518362,-95.7746595053947,-92.943890024268867,-90.113120543140781,-87.282351062010548,-84.451581580878084,-81.620812099743361,-78.794841909036592,-76.060059143780563,-73.325276378522361,-70.590493613261955,-67.8557108479994,-65.120928082734608,-62.386145317467609,-59.651362552198492,-56.916579786927088,-54.181797021653558,-51.4664143939341,-48.925634837954412,-46.384855281972435,-43.844075725988418,-41.303296170002234,-38.762516614013975,-36.221737058023564,-33.680957502031028,-31.140177946036381,-28.5993983900396,-26.099922967479888,-23.834506903832864,-21.569090840183652,-19.303674776532283,-17.038258712878772,-14.772842649223081,-12.507426585565224,-10.242010521905195,-7.9765944582430164,-5.7111783945786776,-3.5137618115564058,-1.588346364819295,0.33706908191993123,2.2624845286612931,4.187899975404763,6.1133154221503769,8.0387308688981083,9.9641463156479713,11.889561762399941,13.814977209154053,15.644080399414021,17.184243178754183,18.724405958096465,20.264568737440872,21.804731516787424,23.344894296136097,24.885057075486923,26.425219854839863,27.965382634194931,29.505545413552131,30.922517843914775,32.05204127489796,33.181564705883318,34.311088136870772,35.440611567860415,36.570134998852176,37.69965842984606,38.8291818608421,39.958705291840268,41.088228722840583,42.071708938945712,42.783962097608807,43.496215256274041,44.208468414941464,44.920721573611011,45.632974732282733,46.345227890956593,47.057481049632571,47.769734208310723,48.481987366991063,49.031174554443844,49.335758931745168,49.640343309048689,49.944927686354362,50.249512063662181,50.554096440972167,50.858680818284341,51.163265195598676,51.467849572915149,51.772433950233875,51.903678896392186,51.823060896843387,51.742442897296762,51.661824897752275,51.581206898210027,51.500588898669989,51.4199708991321,51.339352899596427,51.258734900062954,51.178116900531627,50.05226602508219,49.618048606363921,49.183831187647883,48.74961376893404,48.315396350222485,47.881178931513091,47.446961512805963,47.012744094100988,46.404440821096621,45.653700675511807,44.902960529929281,44.152220384349008,43.401480238770972,42.650740093195218,41.8999999476217,41.149259802050445,40.398519656481483,39.647779510914724,38.73068826990577,37.702693677978765,36.674699086054012,35.646704494131555,34.618709902211442,33.590715310293611,32.562720718378067,31.534726126464832,30.506731534553936,29.478736942645273,28.295705950903312,27.0291915662889,25.762677181676914,24.496162797067246,23.229648412459905,21.963134027854935,20.696619643252316,19.43010525865208,18.163590874054179,16.89707648945863,15.488877690839855,14.019954609026302,12.551031527215111,11.082108445406371,9.6131853636000049,8.1442622817960881,6.6753391999945713,5.206416118195424,3.7374930363987278,2.2685699546044291,0.67181139184398,-0.9675606089941543,-2.6069326098298418,-4.2463046106630795,-5.8856766114938361,-7.52504861232219,-9.1644206131480122,-10.803792613971416,-12.443164614792412,-14.082536615610891,-15.836701646510285,-17.619566291226707,-19.402430935940586,-21.185295580651864,-22.968160225360556,-24.751024870066644,-26.533889514770156,-28.316754159471071,-30.099618804169353,-31.882483448865152,-33.769404260788647,-35.674689082870842,-37.579973904950471,-39.48525872702762,-41.390543549102162,-43.295828371174217,-45.201113193243742,-47.106398015310745,-49.01168283737524,-50.916967659437148,-52.918548357116805,-54.930829607864027,-56.943110858608534,-58.955392109350235,-60.967673360089321,-62.979954610825494,-64.992235861559038,-67.004517112289662,-69.016798363017742,-71.029079613742965,-73.134421509167026,-75.244662259174021,-77.354903009178329,-79.465143759179739,-81.575384509178363,-83.685625259174245,-85.795866009167227,-87.9061067591574,-90.016347509144836,-92.12658825912942,0.41606095004188487,0.41606095004188487,0.41606095004188487,0.41606095004188487,0.41606095004188487,0.41606095004188487,0.41606095004188487,0.41606095004188487,0.41606095004188487,0.41606095004188487,0.41606095004188487,0.41606095004188487
DP 263,180.65969101316807,0.0037138457111486069,-133.0944013129336,-129.63995304780113,-126.18550478266576,-122.73105651752728,-119.27660825238581,-115.82215998724151,-112.36771172209428,-108.91326345694408,-105.45881519179076,-102.00436692663459,-98.555450161422939,-95.211632940907364,-91.867815720388819,-88.523998499867346,-85.18018127934306,-81.836364058815761,-78.492546838285492,-75.148729617752352,-71.804912397216214,-68.461095176677219,-65.13971875412723,-62.02031163464558,-58.900904515161045,-55.781497395673682,-52.662090276183527,-49.542683156690458,-46.42327603719454,-43.303868917695823,-40.1844617981942,-37.065054678689755,-33.993687712918728,-31.194551312209981,-28.395414911498353,-25.596278510783776,-22.797142110066325,-19.998005709345961,-17.198869308622676,-14.399732907896517,-11.600596507167436,-8.8014601064354654,-6.0820248611478185,-3.6813980043871695,-1.2807711476236796,1.1198557091426762,3.5204825659118613,5.9211094226839274,8.3217362794588237,10.722363136236602,13.122989993017221,15.523616849800673,17.810266518581905,19.754980314030941,21.699694109482849,23.644407904937605,25.58912170039526,27.533835495855751,29.478549291319094,31.423263086785351,33.367976882254446,35.312690677726387,37.10992231281493,38.563023098575762,40.016123884339549,41.469224670106158,42.922325455875672,44.375426241648029,45.828527027423284,47.281627813201396,48.734728598982414,50.18782938476626,51.463730071175881,52.410540073254438,53.357350075335866,54.304160077420214,55.250970079507404,56.197780081597543,57.144590083690538,58.091400085786461,59.038210087885226,59.985020089986918,60.730955934440104,61.175575795688268,61.620195656939345,62.064815518193356,62.509435379450352,62.954055240710183,63.398675101972863,63.84329496323862,64.287914824507226,64.732534685778788,64.960000085475571,64.922049915300434,64.884099745128225,64.846149574958986,64.808199404792717,64.7702492346294,64.732299064469046,64.694348894311588,64.656398724157128,64.6184485540056,63.376498444037253,62.8873075810545,62.398116718074768,61.908925855098076,61.419734992124354,60.930544129153631,60.441353266185864,59.952162403221195,59.236297716120227,58.334968731901476,57.433639747685739,56.532310763473056,55.630981779263422,54.729652795056865,53.828323810853334,52.926994826652844,52.02566584245541,51.124336858261067,50.001627686963083,48.731328236734917,47.461028786509949,46.190729336288,44.9204298860692,43.6501304358535,42.379830985640922,41.109531535431415,39.839232085225071,38.568932635021781,37.087387353788067,35.4920912455,33.896795137215115,32.301499028933371,30.706202920654867,29.110906812379486,27.515610704107264,25.920314595838306,24.325018487572454,22.729722379309809,20.936411510198912,19.058233829891034,17.180056149586321,15.30187846928494,13.423700788986787,11.545523108691924,9.6673454284003064,7.7891677481118959,5.9109900678267877,4.03281238754493,1.9710768314204581,-0.15184699666725154,-2.2747708247516529,-4.3976946528327412,-6.5206184809104695,-8.6435423089849621,-10.766466137056032,-12.889389965123819,-15.012313793188353,-17.135237621249487,-19.427703521991688,-21.762556944069328,-24.097410366143539,-26.432263788214211,-28.767117210281405,-31.101970632345047,-33.436824054405228,-35.771677476461868,-38.106530898515039,-40.441384320564744,-42.93423787319243,-45.454975558787446,-47.975713244378966,-50.496450929967182,-53.017188615551866,-55.537926301133176,-58.058663986711032,-60.5794016722854,-63.100139357856435,-65.6208770434241,-68.291503244016553,-70.978785298237312,-73.666067352454419,-76.353349406667618,-79.040631460877336,-81.727913515083088,-84.415195569285316,-87.102477623483537,-89.7897596776783,-92.4770417318693,-95.311708706245355,-98.15413424810292,-100.99655978995689,-103.83898533180688,-106.68141087365311,-109.52383641549554,-112.36626195733417,-115.20868749916902,-118.05111304099994,-120.89353858282716,0.56332905909762021,0.56332905909762021,0.56332905909762021,0.56332905909762021,0.56332905909762021,0.56332905909762021,0.56332905909762021,0.56332905909762021,0.56332905909762021,0.56332905909762021,0.56332905909762021,0.56332905909762021
DP 264,71.233241093329212,0.0052479283624261436,-93.01554730101634,-90.970498084583625,-88.925448868147953,-86.880399651709311,-84.835350435267827,-82.79030121882333,-80.7452520023758,-78.700202785925356,-76.65515356947202,-74.6101043530157,-72.567176135497462,-70.564547298820713,-68.561918462140923,-66.559289625458163,-64.556660788772462,-62.554031952083754,-60.551403115392091,-58.5487742786974,-56.546145441999748,-54.543516605299118,-52.549697077734088,-50.635162165084552,-48.72062725243201,-46.806092339776548,-44.891557427118059,-42.97702251445665,-41.0624876017923,-39.1479526891249,-37.233417776454587,-35.318882863781326,-33.423866988364566,-31.639460220730694,-29.855053453093834,-28.070646685453934,-26.286239917811002,-24.501833150165034,-22.717426382516,-20.933019614863955,-19.148612847208867,-17.364206079550751,-15.61376398145584,-13.999182166820528,-12.384600352182195,-10.770018537540807,-9.1554367228963862,-7.5408549082488978,-5.9262730935983807,-4.3116912789448127,-2.6971094642882054,-1.0825276496285543,0.48046520495269573,1.8886892287854662,3.2969132526213305,4.7051372764603006,6.113361300302369,7.5215853241475328,8.9298093479958,10.338033371847168,11.746257395701612,13.154481419559186,14.490899065599432,15.659765668716419,16.828632271836575,17.9974988749599,19.166365478086362,20.335232081215988,21.504098684348765,22.672965287484693,23.8418318906238,25.010698493766032,26.08560800090661,26.986023220908663,27.886438440913921,28.786853660922471,29.687268880934152,30.587684100949115,31.488099320967265,32.388514540988645,33.288929761013264,34.18934498104111,34.972369623127413,35.579305624317044,36.186241625509986,36.793177626706246,37.400113627905817,38.00704962910865,38.613985630314751,39.220921631524234,39.827857632736922,40.434793633952971,40.900233543717725,41.192730814059338,41.485228084404355,41.77772535475269,42.070222625104456,42.362719895459612,42.655217165818136,42.947714436180057,43.240211706545338,43.532708976914044,43.581499623412313,43.5425158013079,43.503531979207011,43.464548157109505,43.425564335015579,43.386580512925114,43.34759669083806,43.308612868754558,43.079951836781326,42.696097100614679,42.312242364451592,41.928387628292093,41.544532892136175,41.160678155983867,40.776823419835132,40.392968683689958,40.009113947548379,39.625259211410409,39.028405698920217,38.289549646704863,37.550693594493175,36.811837542285225,36.072981490080956,35.334125437880381,34.595269385683487,33.856413333490288,33.117557281300854,32.378701229115059,31.404340888327493,30.303167121340685,29.2019933543577,28.1008195873785,26.99964582040311,25.898472053431526,24.797298286463732,23.696124519499808,22.594950752539653,21.49377698558331,20.135495766754708,18.667021300302217,17.19854683385358,15.730072367409003,14.261597900968315,12.793123434531642,11.324648968098902,9.856174501670079,8.3877000352452722,6.9192255688244071,5.1728586388198385,3.3338573853881015,1.4948561319604219,-0.34414512146319465,-2.1831463748827105,-4.0221476282982209,-5.8611488817095792,-7.7001501351168944,-9.5391513885201977,-11.378152641919369,-13.514932140967831,-15.726159719724949,-17.9373872984778,-20.148614877226262,-22.359842455970387,-24.571070034710122,-26.782297613445543,-28.993525192176584,-31.204752770903269,-33.4159803496257,-35.944646269348652,-38.529334249796086,-41.114022230239222,-43.698710210678222,-46.283398191112873,-48.86808617154329,-51.452774151969443,-54.03746213239134,-56.622150112809031,-59.206838093222466,-62.127690446119956,-65.085897926477841,-68.044105406831008,-71.002312887179485,-73.96052036752333,-76.918727847862414,-79.8769353281968,-82.835142808526413,-85.793350288851471,-88.751557769171754,-92.06499000177574,-95.397121808317522,-98.729253614854485,-102.0613854213867,-105.39351722791395,-108.72564903443654,-112.05778084095424,-115.38991264746709,-118.7220444539752,-122.05417626047839,0.69233198619320824,0.69233198619320824,0.69233198619320824,0.69233198619320824,0.69233198619320824,0.69233198619320824,0.69233198619320824,0.69233198619320824,0.69233198619320824,0.69233198619320824,0.69233198619320824,0.69233198619320824
DP 265,80.395543274211491,0.0033202328480209813,-63.926722968812584,-62.489594003631424,-61.052465038448183,-59.615336073262931,-58.178207108075632,-56.741078142886373,-55.303949177694982,-53.8668202125015,-52.429691247306039,-50.992562282108565,-49.556992869239174,-48.151055245466338,-46.745117621691449,-45.339179997914513,-43.933242374135546,-42.5273047503545,-41.121367126571421,-39.715429502786321,-38.309491878999154,-36.903554255209926,-35.504079068453834,-34.162766425852631,-32.82145378324941,-31.480141140644196,-30.138828498036929,-28.797515855427683,-27.456203212816359,-26.114890570203045,-24.773577927587706,-23.432265284970342,-22.1052235048756,-20.85905084502296,-19.612878185168288,-18.366705525311509,-17.120532865452681,-15.874360205591769,-14.628187545728796,-13.382014885863756,-12.135842225996642,-10.889669566127463,-9.6682183637653285,-8.5456541597936013,-7.4230899558198091,-6.3005257518439457,-5.177961547866035,-4.0553973438860424,-2.9328331399039906,-1.8102689359198698,-0.68770473193368908,0.43485947205455827,1.5200876573075994,2.4933063747276845,3.4665250921498632,4.4397438095741384,5.4129625270005111,6.3861812444289816,7.3593999618595438,8.33261867929221,9.3058373967269521,10.279056114163813,11.200664043287658,12.001844767046029,12.803025490806537,13.604206214569174,14.405386938333942,15.206567662100833,16.007748385869849,16.808929109641003,17.610109833414263,18.411290557189673,19.145476080613651,19.75524013695863,20.365004193305776,20.974768249655064,21.584532306006537,22.194296362360173,22.804060418715977,23.413824475073906,24.023588531434044,24.633352587796335,25.16016177013087,25.562536681168403,25.964911592208132,26.367286503250067,26.769661414294209,27.172036325340574,27.574411236389121,27.976786147439896,28.379161058492887,28.781535969548042,29.084905335759178,29.267265845349296,29.449626354941667,29.631986864536298,29.814347374133195,29.996707883732356,30.179068393333736,30.361428902937408,30.543789412543319,30.726149922151524,30.699527721963811,30.6524063061556,30.605284890349719,30.558163474546152,30.511042058744906,30.463920642945922,30.416799227149287,30.369677811355011,30.192703448413287,29.909483533462698,29.626263618514436,29.343043703568551,29.059823788625032,28.776603873683939,28.493383958745191,28.210164043808831,27.926944128874833,27.643724213943234,27.216357695008881,26.692891169249567,26.169424643492711,25.645958117738282,25.122491591986289,24.59902506623677,24.075558540489688,23.552092014745064,23.028625489002895,22.505158963263167,21.824143970258731,21.058292896158321,20.292441822060447,19.526590747965102,18.760739673872319,17.994888599782055,17.229037525694345,16.463186451609186,15.697335377526556,14.931484303446467,13.99555140215125,12.986723418406223,11.97789543466377,10.969067450923971,9.9602394671867618,8.951411483452171,7.9425834997201932,6.9337555159908062,5.9249275322640544,4.9160995485399015,3.725364898573893,2.4739924006544114,1.2226199027376032,-0.028752595176529921,-1.2801250930879637,-2.5314975909967643,-3.7828700889028308,-5.0342425868062337,-6.2856150847070005,-7.5369875826050423,-8.981462707939329,-10.474215771670265,-11.966968835398365,-13.459721899123613,-14.952474962845997,-16.445228026565502,-17.937981090282161,-19.430734153995967,-20.923487217706914,-22.416240281415046,-24.11323445374143,-25.8462734458378,-27.579312437931289,-29.312351430022083,-31.045390422110014,-32.7784294141952,-34.511468406277537,-36.244507398357136,-37.977546390433922,-39.710585382507936,-41.658633803166673,-43.630574418440204,-45.602515033710695,-47.574455648978123,-49.546396264242496,-51.518336879503686,-53.490277494761926,-55.46221811001692,-57.434158725269008,-59.40609934051794,-61.604406088792906,-63.814629096321411,-66.0248521038469,-68.235075111369113,-70.4452981188882,-72.655521126404125,-74.865744133917019,-77.075967141426588,-79.286190148933116,-81.496413156436333,0.45650133597595471,0.45650133597595471,0.45650133597595471,0.45650133597595471,0.45650133597595471,0.45650133597595471,0.45650133597595471,0.45650133597595471,0.45650133597595471,0.45650133597595471,0.45650133597595471,0.45650133597595471
DP 266,126.69584224619777,0.0018745666632178318,-50.796023803728289,-49.55664014579866,-48.317256487867567,-47.077872829935174,-45.838489172001267,-44.599105514066,-43.359721856129326,-42.120338198191263,-40.880954540251778,-39.64157088231088,-38.403839997816213,-37.197512121272943,-35.991184244728274,-34.784856368182183,-33.578528491634735,-32.372200615085866,-31.1658727385356,-29.959544861983922,-28.753216985430878,-27.546889108876385,-26.347337548846841,-25.208773478062476,-24.070209407276725,-22.931645336489606,-21.793081265701137,-20.654517194911271,-19.515953124120053,-18.37738905332747,-17.238824982533519,-16.100260911738218,-14.976432069940156,-13.936103787665958,-12.895775505390354,-11.855447223113369,-10.815118940834994,-9.7747906585552169,-8.7344623762740348,-7.6941340939914644,-6.6538058117075014,-5.6134775294221422,-4.5981348990454425,-3.6827360571496133,-2.7673372152524132,-1.8519383733538302,-0.93653953145387958,-0.021140689552542506,0.89425815235016692,1.8096569942542575,2.72505583615972,3.6404546780665559,4.5191238730593817,5.2876027386102669,6.0560816041625412,6.8245604697161966,7.5930393352712473,8.3615182008276818,9.1299970663854957,9.8984759319447058,10.6669547975053,11.435433663067284,12.15477778357322,12.759472230494271,13.364166677416724,13.96886112434057,14.573555571265803,15.178250018192443,15.782944465120481,16.387638912049908,16.992333358980741,17.597027805912962,18.140346520266029,18.569680073735064,18.999013627205482,19.428347180677331,19.857680734150563,20.287014287625212,20.716347841101278,21.145681394578755,21.575014948057653,22.00434850153794,22.360952573877562,22.608460705880891,22.855968837885658,23.103476969891872,23.350985101899511,23.598493233908535,23.846001365919012,24.093509497930931,24.34101762994425,24.588525761959023,24.753401101273838,24.817279069383233,24.881157037494056,24.945035005606339,25.008912973720069,25.072790941835247,25.136668909951862,25.200546878069943,25.264424846189481,25.32830281431044,25.066354691961607,24.948799506416975,24.831244320873822,24.713689135332121,24.596133949791909,24.478578764253196,24.361023578715923,24.243468393180144,24.029096056494524,23.73550802317801,23.44191998986301,23.148331956549516,22.854743923237514,22.561155889927029,22.26756785661804,21.973979823310575,21.680391790004592,21.386803756700143,20.9922329365781,20.530338667738565,20.068444398900567,19.606550130064118,19.1446558612292,18.682761592395813,18.22086732356399,17.758973054733687,17.297078785904922,16.8351845170777,16.269854615784002,15.648827100565528,15.027799585348653,14.406772070133346,13.785744554919633,13.164717039707483,12.543689524496921,11.922662009287961,11.301634494080561,10.680606978874756,9.95503091883945,9.1846465749322057,8.414262231026532,7.6438778871225219,6.8734935432201194,6.1031091993193423,5.332724855420186,4.5623405115226356,3.791956167626727,3.0215718237324296,2.14636085017212,1.2362063456105958,0.32605184105072355,-0.58410266350749585,-1.4942571680640435,-2.4044116726189686,-3.3145661771721953,-4.2247206817237783,-5.1348751862737334,-6.045029690822,-7.0599425364915014,-8.1010462051772425,-9.1421498738612588,-10.183253542543511,-11.224357211224016,-12.265460879902745,-13.306564548579725,-14.347668217254942,-15.388771885928421,-16.429875554600162,-17.576096183261029,-18.740868032600083,-19.905639881937368,-21.070411731273015,-22.235183580606883,-23.399955429939055,-24.564727279269498,-25.729499128598267,-26.89427097792527,-28.059042827250586,-29.32998556240647,-30.6127261776987,-31.895466792989062,-33.17820740827753,-34.460948023564178,-35.7436886388489,-37.026429254131777,-38.309169869412749,-39.591910484691873,-40.874651099969121,-42.266265913579595,-43.663612031409123,-45.060958149236775,-46.458304267062481,-47.85565038488636,-49.2529965027083,-50.65034262052832,-52.047688738346352,-53.4450348561626,-54.842380973976816,0.28211465474561837,0.28211465474561837,0.28211465474561837,0.28211465474561837,0.28211465474561837,0.28211465474561837,0.28211465474561837,0.28211465474561837,0.28211465474561837,0.28211465474561837,0.28211465474561837,0.28211465474561837
DP 267,290.20595039691085,0.0054796913775770712,-276.05027907003091,-268.23795669880707,-260.42563432757936,-252.61331195634719,-244.80098958511084,-236.98866721386972,-229.17634484262476,-221.36402247137505,-213.55170010012137,-205.73937772886356,-197.94357498166323,-190.46164821458876,-182.97972144750989,-175.49779468042672,-168.01586791333924,-160.53394114624763,-153.05201437915184,-145.57008761205171,-138.08816084494734,-130.60623407783865,-123.19005690161474,-116.36563225815455,-109.54120761469028,-102.71678297122176,-95.892358327749236,-89.067933684272575,-82.243509040791679,-75.419084397306662,-68.594659753817652,-61.770235110324464,-55.0823762399098,-49.168398689250253,-43.254421138586579,-37.340443587918642,-31.426466037246549,-25.512488486570252,-19.598510935889731,-13.684533385205041,-7.7705558345161752,-1.8565782838231235,3.8401043803310393,8.66759722878523,13.495090077243503,18.322582925705913,23.150075774172389,27.977568622643023,32.805061471117718,37.632554319596565,42.460047168079491,47.287540016566552,51.8201288227273,55.46799435198713,59.11585988125109,62.763725410519129,66.411590939791367,70.059456469067712,73.707321998348078,77.355187527632637,81.003053056921232,84.650918586214019,87.940297987340372,90.393195637466832,92.84609328759754,95.298990937732185,97.751888587871179,100.20478623801405,102.65768388816123,105.11058153831242,107.56347918846778,110.01637683862722,112.06841787687921,113.37600009599554,114.68358231511584,115.99116453424045,117.29874675336916,118.60632897250198,119.91391119163895,121.22149341078001,122.52907562992512,123.83665784907456,124.72500945991284,124.98450525170786,125.24400104350714,125.50349683531053,125.76299262711795,126.02248841892968,126.28198421074556,126.54148000256554,126.80097579438967,127.06047158621807,126.90524032970848,126.24311174731571,125.58098316492719,124.91885458254272,124.25672600016256,123.59459741778655,122.93246883541472,122.2703402530471,121.60821167068377,120.9460830883245,117.00328967379211,115.5585965450891,114.11390341639026,112.66921028769566,111.22451715900532,109.77982403031923,108.33513090163727,106.89043777295969,105.09143198855575,103.00252794216827,100.91362389578502,98.824719849406151,96.735815803031585,94.646911756661225,92.558007710295371,90.469103663933723,88.3801996175763,86.291295571223245,83.892834194370792,81.287996387219636,78.683158580072913,76.078320772930439,73.473482965792513,70.868645158658822,68.26380735152965,65.658969544404741,63.0541317372843,60.44929393016821,57.582279558017156,54.574089376802775,51.565899195593047,48.557709014387655,45.549518833186724,42.541328651990241,39.533138470798157,36.524948289610649,33.516758108427467,30.508567927248812,27.284089179937268,23.966911682150133,20.649734184367425,17.332556686589442,14.015379188815944,10.698201691047093,7.3810241932827934,4.0638466955229786,0.74666919776784046,-2.570508299982758,-6.0625827946685789,-9.61295849252924,-13.163334190385276,-16.713709888236671,-20.264085586083326,-23.814461283925468,-27.364836981762803,-30.915212679595513,-34.465588377423657,-38.015964075247062,-41.706072720410418,-45.431116253373048,-49.156159786330875,-52.881203319283742,-56.606246852231727,-60.33129038517481,-64.056333918112983,-67.781377451046225,-71.5064209839746,-75.231464516898129,-79.068879505414017,-82.926126000383078,-86.783372495347322,-90.640618990306933,-94.497865485261471,-98.355111980211461,-102.21235847515659,-106.06960497009688,-109.92685146503244,-113.78409795996322,-117.73404353333684,-121.69428997787038,-125.65453642239882,-129.6147828669221,-133.57502931144009,-137.535275755953,-141.49552220046073,-145.45576864496309,-149.41601508946047,-153.37626153395274,-157.41876976765985,-161.46560838768821,-165.51244700771164,-169.55928562772968,-173.60612424774226,-177.65296286774978,-181.69980148775184,-185.74664010774868,-189.79347872774022,-193.84031734772631,0.7855848284029433,0.7855848284029433,0.7855848284029433,0.7855848284029433,0.7855848284029433,0.7855848284029433,0.7855848284029433,0.7855848284029433,0.7855848284029433,0.7855848284029433,0.7855848284029433,0.7855848284029433
DP 268,200.46543494998818,0.0016397936104020248,-63.620386955297782,-61.938733715691427,-60.2570804760838,-58.575427236474916,-56.89377399686466,-55.212120757253111,-53.53046751764029,-51.848814278026111,-50.16716103841059,-48.485507798793861,-46.806706044456341,-45.182083049506979,-43.557460054556309,-41.932837059604331,-40.3082140646511,-38.683591069696512,-37.058968074740648,-35.434345079783448,-33.809722084825019,-32.18509908986524,-30.57200202584378,-29.062639429728875,-27.553276833612657,-26.043914237495205,-24.5345516413765,-23.025189045256511,-21.515826449135254,-20.006463853012761,-18.497101256888996,-16.987738660763991,-15.502915862803837,-14.157153467480352,-12.811391072155615,-11.465628676829569,-10.119866281502256,-8.7741038861736484,-7.42834149084376,-6.08257909551258,-4.7368167001801229,-3.3910543048463793,-2.0856907812366616,-0.941924653810203,0.20184147361751242,1.345607601046495,2.489373728476731,3.6331398559082397,4.7769059833410052,5.9206721107750422,7.0644382382103288,8.20820436564688,9.2947512271825765,10.209638127631917,11.124525028082505,12.039411928534381,12.954298828987509,13.869185729441908,14.784072629897587,15.698959530354507,16.613846430812696,17.528733331272168,18.370434968797174,19.04136811048177,19.712301252167659,20.383234393854814,21.054167535543215,21.725100677232906,22.396033818923858,23.066966960616089,23.737900102309574,24.40883324400437,24.993006921998308,25.416053538651454,25.839100155305847,26.262146771961564,26.685193388618536,27.108240005276787,27.531286621936331,27.954333238597126,28.377379855259189,28.800426471922577,29.126603883161938,29.307475197209534,29.48834651125841,29.669217825308564,29.850089139360033,30.030960453412732,30.211831767466755,30.392703081522093,30.573574395578682,30.754445709636585,30.832348612967238,30.784399073691912,30.736449534417943,30.688499995145232,30.640550455873804,30.592600916603704,30.544651377334883,30.496701838067374,30.448752298801171,30.400802759536269,29.731854722891963,29.473865019027045,29.215875315163451,28.957885611301162,28.69989590744024,28.441906203580597,28.183916499722269,27.925926795865294,27.564533518794391,27.11853554112048,26.672537563447914,26.226539585776706,25.780541608106788,25.334543630438244,24.888545652771036,24.442547675105196,23.996549697440667,23.550551719777495,23.005748697420707,22.395074088736198,21.784399480053072,21.173724871371292,20.563050262690922,19.952375654011867,19.341701045334212,18.731026436657906,18.120351827982976,17.509677219309406,16.806922457776729,16.054584736467177,15.302247015159013,14.549909293852247,13.797571572546888,13.04523385124293,12.292896129940372,11.540558408639219,10.788220687339455,10.035882966041092,9.1993995697996969,8.3268523211573768,7.4543050725164628,6.5817578238770125,5.7092105752389655,4.8366633266023689,3.9641160779672013,3.0915688293334407,2.2190215807011366,1.3464743320702568,0.39801039691080453,-0.57576005719001244,-1.5495305112893769,-2.523300965387286,-3.4970714194837207,-4.470841873578733,-5.44461232767224,-6.4183827817643051,-7.3921532358549378,-8.3659236899440828,-9.4078614765154764,-10.466841901614648,-11.525822326712309,-12.584802751808423,-13.64378317690301,-14.702763601996034,-15.761744027087527,-16.820724452177494,-17.879704877265915,-18.93868530235283,-20.059453554838885,-21.191126228660785,-22.322798902481136,-23.454471576300044,-24.586144250117421,-25.717816923933306,-26.84948959774766,-27.981162271560525,-29.112834945371873,-30.244507619181761,-31.433357197498491,-32.628560365696245,-33.823763533892418,-35.018966702086956,-36.214169870279868,-37.409373038471145,-38.604576206660781,-39.799779374848768,-40.99498254303515,-42.1901857112199,-43.440642676922067,-44.69400828698263,-45.947373897041643,-47.200739507098859,-48.4541051171545,-49.707470727208495,-50.960836337260815,-52.214201947311366,-53.467567557360375,-54.720933167407608,0.24711458891896637,0.24711458891896637,0.24711458891896637,0.24711458891896637,0.24711458891896637,0.24711458891896637,0.24711458891896637,0.24711458891896637,0.24711458891896637,0.24711458891896637,0.24711458891896637,0.24711458891896637
DP 269,167.47662275343316,0.0041191168915467313,-139.16916508050068,-135.60433638381846,-132.03950768713307,-128.47467899044446,-124.90985029375251,-121.34502159705733,-117.78019290035904,-114.21536420365739,-110.65053550695252,-107.08570681024445,-103.52635940785824,-100.07115763385217,-96.615955859843211,-93.160754085830916,-89.705552311815339,-86.250350537796635,-82.7951487637746,-79.33994698974935,-75.884745215720955,-72.4295434416892,-68.996633623444069,-65.764353514377916,-62.532073405308651,-59.299793296236253,-56.067513187160714,-52.835233078081991,-49.602952969000185,-46.370672859915182,-43.138392750827052,-39.906112641735795,-36.721733525980994,-33.808796390938006,-30.895859255891743,-27.982922120842311,-25.069984985789702,-22.157047850733843,-19.244110715674797,-16.331173580612543,-13.418236445547086,-10.505299310478453,-7.6722422347305042,-5.1587091714710667,-2.6451761082084886,-0.13164304494274987,2.3818900183261187,4.8954230815981639,7.4089561448733443,9.9224892081516955,12.436022271433169,14.949555334717811,17.348105408672584,19.401702167283833,21.455298925898255,23.508895684515828,25.562492443136556,27.616089201760431,29.669685960387518,31.723282719017757,33.776879477651114,35.830476236287723,37.73411810965829,39.287859344923383,40.841600580191667,42.395341815463091,43.949083050737734,45.502824286015532,47.056565521296541,48.610306756580684,50.164047991868067,51.717789227158569,53.089707549911509,54.1239498390427,55.158192128176978,56.192434417314558,57.226676706455343,58.26091899559929,59.295161284746456,60.329403573896826,61.363645863050294,62.397888152207095,63.223871779190979,63.737462491684695,64.251053204181744,64.764643916682,65.27823462918542,65.79182534169216,66.305416054202041,66.819006766715219,67.332597479231566,67.846188191751182,68.1320242536102,68.139488736282189,68.146953218957449,68.154417701635921,68.161882184317733,68.169346667002884,68.1768111496912,68.184275632382764,68.191740115077678,68.199204597775832,67.023260277726621,66.5513887470305,66.0795172163377,65.60764568564818,65.13577415496195,64.663902624279132,64.192031093599567,63.720159562923357,63.004120592720724,62.08830406671354,61.172487540709739,60.256671014709354,59.340854488712274,58.425037962718619,57.509221436728268,56.59340491074142,55.677588384757854,54.761771858777749,53.603848015572787,52.284515480163918,50.96518294475856,49.645850409356584,48.326517873958124,47.007185338563062,45.687852803171445,44.368520267783317,43.049187732398629,41.729855197017358,40.175676999632223,38.495040030716538,36.814403061804342,35.133766092895712,33.453129123990607,31.772492155089047,30.091855186190994,28.411218217296533,26.730581248405567,25.049944279518176,23.145257898399322,21.144546558912992,19.143835219430162,17.143123879951048,15.14241254047549,13.141701201003581,11.140989861535292,9.14027852207057,7.13956718260952,5.1388558431520579,2.92654515050771,0.64369867338324471,-1.6391478037375464,-3.9219942808546553,-6.2048407579680411,-8.48768723507781,-10.770533712183802,-13.053380189286125,-15.336226666384844,-17.619073143479785,-20.101142278209107,-22.633019431192949,-25.164896584172975,-27.69677373714908,-30.228650890121283,-32.760528043089565,-35.292405196053991,-37.824282349014524,-40.3561595019711,-42.88803665492393,-45.609036624531285,-48.363413311914051,-51.117789999292938,-53.872166686668209,-56.626543374039485,-59.38092006140711,-62.13529674877077,-64.889673436130735,-67.644050123486892,-70.398426810839211,-73.33513765880609,-76.29210977288912,-79.249081886968085,-82.206054001042844,-85.163026115113553,-88.1199982291799,-91.076970343242323,-94.033942457300483,-96.990914571354537,-99.947886685404455,-103.08614250749872,-106.23394138108327,-109.3817402546636,-112.52953912823973,-115.67733800181172,-118.82513687537961,-121.9729357489431,-125.12073462250221,-128.26853349605736,-131.41633236960811,0.626288100788469,0.626288100788469,0.626288100788469,0.626288100788469,0.626288100788469,0.626288100788469,0.626288100788469,0.626288100788469,0.626288100788469,0.626288100788469,0.626288100788469,0.626288100788469
DP 270,274.22722423272927,0.0042489082326394433,-206.17043498863558,-200.39922003877183,-194.6280050889051,-188.85679013903496,-183.08557518916149,-177.31436023928464,-171.54314528940446,-165.77193033952082,-160.00071538963408,-154.22950043974376,-148.47006122260296,-142.93436315389968,-137.39866508519296,-131.86296701648308,-126.32726894776985,-120.7915708790532,-115.25587281033326,-109.72017474161014,-104.18447667288359,-98.648778604153691,-93.1600759553528,-88.094336528027384,-83.028597100698846,-77.962857673367083,-72.897118246032065,-67.831378818693892,-62.765639391352451,-57.69989996400777,-52.63416053665992,-47.568421109308836,-42.600721897422574,-38.188590084473887,-33.776458271521932,-29.364326458566723,-24.952194645608252,-20.540062832646473,-16.127931019681448,-11.71579920671312,-7.3036673937415539,-2.8915355807667096,1.3636610787934369,4.9911097078028677,8.6185583368154841,12.246006965831334,15.873455594850348,19.50090422387262,23.128352852898068,26.755801481926774,30.383250110958627,34.0106987399937,37.423552033393889,40.192611206330277,42.961670379269883,45.730729552212722,48.499788725158751,51.268847898107985,54.037907071060438,56.806966244016138,59.576025416974979,62.345084589937073,64.8509469944873,66.74267324033984,68.634399486195576,70.526125732054467,72.417851977916655,74.309578223782054,76.201304469650566,78.093030715522431,79.9847569613975,81.87648320727574,83.470886706901013,84.513111362514181,85.555336018130689,86.59756067375028,87.639785329373126,88.682009984999212,89.724234640628552,90.766459296261047,91.808683951896867,92.850908607535885,93.578632603634745,93.834598178654687,94.090563753677813,94.346529328704221,94.602494903733913,94.858460478766844,95.114426053803,95.3703916288424,95.626357203885064,95.882322778931041,95.823284373454726,95.379234486308249,94.935184599164941,94.491134712025087,94.0470848248883,93.603034937754941,93.158985050624779,92.714935163497984,92.2708852763744,91.826835389254171,88.988731775680023,87.942299168928656,86.8958665621807,85.849433955436027,84.803001348694664,83.756568741956656,82.710136135221958,81.663703528490572,80.340627011563313,78.791200722879609,77.241774434199272,75.692348145522331,74.142921856848631,72.593495568178469,71.0440692795116,69.4946429908481,67.945216702188,66.395790413531273,64.600990179795033,62.642603450490853,60.684216721190133,58.725829991892752,56.767443262598896,54.809056533308336,52.850669804021379,50.8922830747377,48.933896345457569,46.975509616180787,44.805960916053884,42.522706545573847,40.239452175097355,37.956197804624296,35.672943434154739,33.389689063688657,31.106434693226031,28.823180322766945,26.539925952311304,24.256671581859102,21.796237932233392,19.259867315234963,16.723496698239988,14.187126081248726,11.650755464260964,9.1143848472768436,6.5780142302962794,4.0416436133192324,1.5052729963458387,-1.0310976206239992,-3.7133526591343591,-6.444237676714379,-9.1751226942907689,-11.906007711863534,-14.636892729432597,-17.367777746998112,-20.098662764559862,-22.829547782118002,-25.560432799672608,-28.29131781722344,-31.141040853702343,-34.020474799001292,-36.899908744296496,-39.77934268958785,-42.658776634875373,-45.538210580158989,-48.417644525438838,-51.297078470714794,-54.17651241598692,-57.055946361255252,-60.032905499031713,-63.027076049389919,-66.021246599744288,-69.015417150095033,-72.009587700441926,-75.003758250785111,-77.997928801124488,-80.992099351460169,-83.986269901792127,-86.980440452120348,-90.05671292998548,-93.1421087065047,-96.227504483019857,-99.312900259530892,-102.39829603603806,-105.48369181254095,-108.56908758903992,-111.65448336553452,-114.73987914202542,-117.82527491851198,-120.98467528401093,-124.14797136419195,-127.31126744436864,-130.47456352454137,-133.63785960470977,-136.80115568487432,-139.96445176503465,-143.12774784519061,-146.29104392534273,-149.45434000549039,0.61529701559030381,0.61529701559030381,0.61529701559030381,0.61529701559030381,0.61529701559030381,0.61529701559030381,0.61529701559030381,0.61529701559030381,0.61529701559030381,0.61529701559030381,0.61529701559030381,0.61529701559030381
DP 271,78.817490862656882,0.0046191804376521954,-87.716507909638665,-85.751725013047675,-83.786942116453886,-81.822159219857355,-79.857376323257924,-77.892593426655708,-75.927810530050735,-73.963027633442948,-71.998244736832376,-70.033461840218877,-68.070793748841623,-66.148307356794973,-64.2258209647455,-62.303334572693181,-60.38084818063809,-58.458361788580184,-56.535875396519415,-54.613389004455883,-52.690902612389536,-50.768416220320319,-48.854700700702836,-47.019923862211392,-45.185147023717178,-43.350370185220122,-41.515593346720287,-39.680816508217717,-37.84603966971234,-36.011262831204149,-34.176485992693244,-32.341709154179519,-30.526310496767788,-28.82072275338696,-27.115135010003289,-25.409547266616773,-23.703959523227411,-21.998371779835196,-20.292784036440118,-18.5871962930422,-16.881608549641435,-15.176020806237837,-13.504026747535377,-11.966409015310713,-10.428791283083221,-8.8911735508528764,-7.3535558186197019,-5.8159380863836612,-4.27832035414479,-2.7407026219030692,-1.2030848896585153,0.33453284258888516,1.8213637280760131,3.1558321530962328,4.4903005781193395,5.8247690031453363,7.1592374281742091,8.4937058532059844,9.82817427824064,11.162642703278179,12.497111128318592,13.831579553361918,15.095760699654843,16.195935427341869,17.296110155031815,18.396284882724682,19.496459610420487,20.596634338119227,21.69680906582089,22.796983793525516,23.897158521233052,24.997333248943505,26.006141787768581,26.845267794070267,27.684393800374913,28.523519806682575,29.36264581299319,30.201771819306813,31.040897825623418,31.880023831943003,32.719149838265579,33.558275844591165,34.28409454910247,34.839949623397438,35.395804697695546,35.95165977199661,36.507514846300765,37.063369920607983,37.619224994918206,38.175080069231491,38.730935143547832,39.286790217867214,39.707181119923426,39.962001854930058,40.216822589939795,40.471643324952659,40.72646405996862,40.981284794987708,41.2361055300099,41.490926265035228,41.745747000063652,42.000567735095188,41.978582929668526,41.918824265812283,41.859065601959209,41.799306938109339,41.739548274262674,41.6797896104192,41.620030946578908,41.560272282741828,41.322159880689163,40.938118627687345,40.554077374688873,40.170036121693641,39.7859948687017,39.401953615713076,39.017912362727685,38.633871109745613,38.249829856766837,37.865788603791309,37.283354002823792,36.568654044458739,35.853954086097104,35.139254127738852,34.424554169383981,33.709854211032464,32.995154252684344,32.280454294339627,31.565754335998285,30.851054377660294,29.919068684864257,28.870079821491405,27.821090958122038,26.772102094756168,25.723113231393846,24.674124368035,23.625135504679665,22.5761466413279,21.527157777979571,20.478168914634772,19.194139723845574,17.809374996941163,16.424610270040258,15.039845543143068,13.655080816249431,12.270316089359431,10.885551362473031,9.5007866355902149,8.1160219087110388,6.7312571818354705,5.0946292894744261,3.3740438344285542,1.6534583793863773,-0.06712707565210399,-1.7877125306868515,-3.5082979857179506,-5.2288834407452756,-6.94946889576892,-8.67005435078892,-10.390639805805144,-12.379044144258897,-14.4344063678938,-16.489768591524808,-18.545130815151833,-20.60049303877495,-22.655855262394038,-24.711217486009211,-26.766579709620437,-28.821941933227681,-30.877304156831041,-33.216337906320369,-35.6054344913162,-37.994531076308107,-40.383627661296266,-42.772724246280468,-45.16182083126089,-47.550917416237333,-49.94001400121001,-52.329110586178778,-54.718207171143717,-57.406258406707735,-60.127529965399532,-62.848801524087214,-65.57007308277052,-68.291344641449726,-71.012616200124484,-73.733887758795049,-76.455159317461309,-79.176430876123391,-81.897702434781223,-84.93393044555485,-87.986738245393269,-91.0395460452274,-94.092353845057119,-97.1451616448825,-100.19796944470357,-103.25077724452009,-106.30358504433245,-109.35639284414034,-112.40920064394388,0.63114053660878633,0.63114053660878633,0.63114053660878633,0.63114053660878633,0.63114053660878633,0.63114053660878633,0.63114053660878633,0.63114053660878633,0.63114053660878633,0.63114053660878633,0.63114053660878633,0.63114053660878633
DP 272,163.99664573001974,0.0015723234630592622,-52.255380124677238,-50.921723882862629,-49.588067641046813,-48.254411399229731,-46.920755157411435,-45.587098915591909,-44.253442673771112,-42.919786431949113,-41.586130190125857,-40.252473948301372,-38.920845686283116,-37.627749423984056,-36.334653161683768,-35.041556899382272,-33.748460637079525,-32.455364374775577,-31.162268112470333,-29.869171850163916,-28.57607558785627,-27.28297932554737,-25.99813657238651,-24.787576181704114,-23.577015791020532,-22.366455400335738,-21.15589500964974,-19.945334618962587,-18.734774228274187,-17.524213837584611,-16.313653446893834,-15.103093056201866,-13.910284734104367,-12.818072586018886,-11.725860437932177,-10.633648289844247,-9.5414361417551081,-8.4492239936647362,-7.35701184557315,-6.264799697480341,-5.1725875493863169,-4.080375401291068,-3.0178079291972768,-2.0738205621443009,-1.1298331950901288,-0.18584582803475119,0.7581415390218188,1.7021289060795994,2.6461162731385754,3.5901036401987545,4.5340910072601313,5.4780783743227115,6.37931980581782,7.1523218144434475,7.9253238230702845,8.69832583169832,9.4713278403275609,10.244329848958014,11.017331857589671,11.790333866222543,12.563335874856604,13.336337883491886,14.053475828870722,14.640262093169493,15.227048357469478,15.813834621770681,16.400620886073085,16.987407150376722,17.574193414681542,18.1609796789876,18.747765943294851,19.33455220760332,19.853437130596518,20.246217728821492,20.638998327047709,21.031778925275145,21.424559523503792,21.817340121733643,22.210120719964749,22.602901318197048,22.995681916430584,23.388462514665335,23.703253383529969,23.901057815412624,24.098862247296488,24.296666679181609,24.494471111067945,24.692275542955535,24.890079974844355,25.087884406734386,25.285688838625674,25.483493270518142,25.595741660431692,25.60341975750773,25.611097854585,25.618775951663537,25.626454048743309,25.634132145824331,25.64181024290659,25.649488339990111,25.657166437074871,25.664844534160892,25.236177326227057,25.063174482077034,24.89017163792834,24.717168793780878,24.544165949634689,24.371163105489803,24.198160261346111,24.025157417203747,23.759771797718006,23.41879868346912,23.07782556922151,22.736852454975189,22.395879340730168,22.054906226486434,21.713933112243989,21.37295999800283,21.031986883762965,20.691013769524385,20.258061561689214,19.763788509124115,19.269515456560335,18.775242403997865,18.280969351436717,17.786696298876898,17.292423246318364,16.798150193761153,16.303877141205273,15.809604088650701,15.225714887974096,14.593569535133055,13.961424182293378,13.32927882945504,12.697133476618061,12.064988123782429,11.432842770948135,10.800697418115204,10.168552065283606,9.5364067124533687,8.8183584995657611,8.06349332528332,7.3086281510022308,6.55376297672256,5.7988978024442455,5.04403262816733,4.2891674538917863,3.5343022796176076,2.7794371053448259,2.0245719310734214,1.188171113687849,0.32459072101751452,-0.53898967165141765,-1.4025700643189449,-2.2661504569850504,-3.1297308496497753,-3.9933112423130575,-4.8568916349749438,-5.72047202763545,-6.5840524202945128,-7.5247913053427675,-8.48482072512763,-9.4448501449110438,-10.404879564692953,-11.364908984473381,-12.324938404252297,-13.284967824029756,-14.244997243805718,-15.205026663580197,-16.165056083353203,-17.198688841310279,-18.245311242132043,-19.291933642952348,-20.338556043771238,-21.385178444588611,-22.431800845404567,-23.478423246219066,-24.525045647032098,-25.571668047843669,-26.618290448653827,-27.736172593895088,-28.861973236912217,-29.987773879927797,-31.113574522941718,-32.239375165954186,-33.365175808964963,-34.490976451974227,-35.616777094981813,-36.742577737987915,-37.868378380992382,-39.065230119708424,-40.265822096707048,-41.466414073704037,-42.667006050699406,-43.867598027693184,-45.068190004685356,-46.268781981675922,-47.469373958664825,-48.6699659356522,-49.870557912637828,0.23913184758919487,0.23913184758919487,0.23913184758919487,0.23913184758919487,0.23913184758919487,0.23913184758919487,0.23913184758919487,0.23913184758919487,0.23913184758919487,0.23913184758919487,0.23913184758919487,0.23913184758919487
DP 273,184.63837762246007,0.0048988050776635587,-178.53180193996187,-173.8803850641967,-169.22896818842742,-164.57755131265441,-159.92613443687759,-155.27471756109665,-150.62330068531196,-145.97188380952346,-141.3204669337309,-136.6690500579345,-132.02516981569732,-127.52448703591671,-123.02380425613227,-118.52312147634386,-114.02243869655162,-109.52175591675548,-105.02107313695561,-100.52039035715168,-96.01970757734405,-91.519024797532467,-87.048895748990148,-82.8537531698944,-78.658610590794879,-74.46346801169166,-70.2683254325847,-66.073182853473867,-61.878040274359392,-57.682897695241074,-53.487755116119018,-49.292612536993232,-45.1628058440021,-41.403239956233485,-37.643674068461024,-33.8841081806847,-30.124542292904579,-26.364976405120622,-22.605410517332832,-18.845844629541183,-15.086278741745724,-11.326712853946431,-7.6753726467750125,-4.4569402769597026,-1.2385079071406386,1.9799244626822066,5.1983568325087885,8.4167892023391673,11.635221572173302,14.853653942011213,18.072086311852871,21.290518681698291,24.354482581992059,26.955035233384148,29.555587884780017,32.156140536179684,34.756693187583096,37.357245838990323,39.957798490401331,42.558351141816104,45.158903793234636,47.759456444657,50.160601284938082,52.096453379084686,54.032305473235084,55.968157567389277,57.904009661547335,59.839861755709109,61.775713849874741,63.711565944044132,65.647418038217324,67.583270132394318,69.280184835840316,70.533352218006272,71.786519600176049,73.039686982349622,74.292854364526974,75.54602174670822,76.799189128893133,78.052356511081967,79.305523893274653,80.558691275471148,81.541832054268227,82.119926547136032,82.69802104000766,83.27611553288321,83.85421002576247,84.4323045186457,85.010399011532613,85.588493504423568,86.166587997318317,86.744682490216846,87.031866478418934,86.963487072593523,86.895107666771949,86.826728260954326,86.75834885514054,86.689969449330633,86.621590043524648,86.553210637722643,86.48483123192436,86.416451826130114,84.705744751312167,84.035136664090274,83.364528576872416,82.693920489658552,82.023312402448568,81.352704315242548,80.682096228040521,80.011488140842431,79.039605929472728,77.821221529805982,76.602837130143229,75.384452730484554,74.166068330829859,72.947683931179157,71.7292995315325,70.510915131889917,69.2925307322513,68.074146332616664,66.562835601196355,64.856236033950864,63.149636466709453,61.443036899472034,59.736437332238836,58.02983776500966,56.323238197784647,54.616638630563635,52.910039063346822,51.203439496134,49.218674407328528,47.084123838805553,44.949573270286862,42.815022701772335,40.680472133261958,38.54592156475578,36.41137099625378,34.276820427756014,32.142269859262356,30.007719290772904,27.61377933793322,25.108668127890976,22.603556917852913,20.098445707819248,17.593334497789808,15.088223287764727,12.583112077743898,10.078000867727321,7.5728896577150993,5.0677784477071484,2.3235430714820806,-0.50040337379030142,-3.3243498190583258,-6.1482962643219761,-8.9722427095812129,-11.796189154836162,-14.620135600086609,-17.444082045332749,-20.268028490574569,-23.091974935811912,-26.135524943919389,-29.233978437393571,-32.332431930863251,-35.430885424328245,-38.529338917788643,-41.627792411244371,-44.726245904695539,-47.824699398142087,-50.923152891583975,-54.021606385021322,-57.32357419505032,-60.661458559349377,-63.999342923643759,-67.337227287933842,-70.675111652219258,-74.0129960165003,-77.350880380776729,-80.688764745048587,-84.02664910931604,-87.364533473578973,-90.894531384588674,-94.44587726287962,-97.997223141165776,-101.54856901944697,-105.09991489772335,-108.65126077599473,-112.20260665426129,-115.75395253252282,-119.30529841077959,-122.85664428903122,-126.59624921574456,-130.34576438652894,-134.09527955730843,-137.84479472808297,-141.59430989885249,-145.34382506961705,-149.09334024037662,-152.84285541113093,-156.59237058188049,-160.34188575262482,0.74228099048859275,0.74228099048859275,0.74228099048859275,0.74228099048859275,0.74228099048859275,0.74228099048859275,0.74228099048859275,0.74228099048859275,0.74228099048859275,0.74228099048859275,0.74228099048859275,0.74228099048859275
DP 274,198.53390370213469,0.004763345743463287,-183.46338362327603,-178.62224844377346,-173.78111326426693,-168.93997808475689,-164.09884290524278,-159.25770772572497,-154.4165725462033,-149.5754373666779,-144.73430218714861,-139.89316700761546,-135.06019574969224,-130.38234054576975,-125.70448534184362,-121.02663013791364,-116.34877493397983,-111.67091973004223,-106.99306452610097,-102.31520932215584,-97.637354118206986,-92.959498914254368,-88.314658298405831,-83.966952096122242,-79.619245893834872,-75.271539691543992,-70.923833489249375,-66.576127286951021,-62.228421084649078,-57.880714882343412,-53.533008680034129,-49.185302477721116,-44.907920864265705,-41.029049685821938,-37.15017850737447,-33.271307328923292,-29.39243615046836,-25.513564972009711,-21.6346937935473,-17.755822615081147,-13.876951436611288,-9.9980802581377066,-6.23507201196328,-2.9355209707724987,0.36403007042193419,3.6635811116200547,6.963132152821812,10.26268319402725,13.562234235236366,16.861785276449158,20.1613363176656,23.460887358885692,26.5961845445583,29.238713953370091,31.881243362185561,34.5237727710047,37.166302179827504,39.808831588654037,42.451360997484223,45.093890406318067,47.736419815155564,50.378949223996827,52.811153962374092,54.752592852914411,56.694031743458332,58.635470634006083,60.576909524557436,62.518348415112492,64.45978730567127,66.401226196233665,68.3426650867998,70.284103977369639,71.975886914280125,73.204016337862441,74.432145761448353,75.660275185038046,76.8884046086314,78.116534032228486,79.344663455829291,80.57279287943382,81.800922303042029,83.029051726653961,83.978023491361071,84.5082521711102,85.0384808508632,85.568709530619813,86.098938210380268,86.629166890144433,87.1593955699123,87.6896242496839,88.219852929459307,88.7500816092384,88.983095094142357,88.852839320149812,88.722583546161147,88.592327772176134,88.462071998194943,88.331816224217576,88.201560450243974,88.07130467627411,87.941048902308083,87.810793128345836,85.901642295952172,85.164031969643531,84.426421643338728,83.6888113170377,82.9512009907405,82.213590664447281,81.475980338157711,80.738370011872064,79.70117959785496,78.418873054468719,77.136566511086244,75.854259967707748,74.571953424333174,73.289646880962465,72.007340337595622,70.725033794232758,69.442727250873716,68.160420707518625,66.591258047015117,64.830853456072319,63.070448865133379,61.3100442741984,59.549639683267408,57.7892350923404,56.02883050141736,54.268425910498252,52.508021319583214,50.747616728672085,48.719276998788416,46.546660605519776,44.374044212255214,42.201427818994716,40.028811425738269,37.856195032485914,35.683578639237588,33.510962245993362,31.33834585275315,29.165729459517021,26.747670531844648,24.22441780376823,21.701165075695837,19.177912347627743,16.654659619563738,14.131406891503929,11.608154163448281,9.0849014353967323,6.5616487073494074,4.0383959793062187,1.29312922134433,-1.5261450112624555,-4.3454192438650159,-7.16469347646335,-9.98396770905739,-12.803241941647297,-15.622516174232828,-18.441790406814182,-21.261064639391375,-24.080338871964237,-27.09950827547538,-30.168653833512426,-33.237799391545067,-36.306944949573221,-39.376090507596963,-42.445236065616115,-45.514381623630882,-48.583527181641145,-51.652672739646945,-54.721818297648355,-57.972640999765659,-61.255526394648335,-64.538411789526535,-67.8212971844005,-71.104182579270017,-74.387067974135164,-77.669953368995834,-80.952838763852313,-84.2357241587043,-87.518609553552039,-90.970026376496122,-94.440170683648049,-97.9103149907953,-101.38045929793756,-104.85060360507543,-108.32074791220832,-111.79089221933653,-115.26103652646,-118.73118083357866,-122.20132514069256,-125.83461411083583,-129.47649126541259,-133.11836841998473,-136.76024557455165,-140.4021227291139,-144.04399988367143,-147.68587703822413,-151.32775419277183,-154.96963134731473,-158.61150850185285,0.7183745606231241,0.7183745606231241,0.7183745606231241,0.7183745606231241,0.7183745606231241,0.7183745606231241,0.7183745606231241,0.7183745606231241,0.7183745606231241,0.7183745606231241,0.7183745606231241,0.7183745606231241
DP 275,192.45175723475353,0.0015765646619010788,-59.307044144322923,-57.750620964667959,-56.194197785011717,-54.637774605354224,-53.081351425695459,-51.524928246035458,-49.968505066374156,-48.412081886711626,-46.855658707047859,-45.299235527382791,-43.7453922938935,-42.240568525490588,-40.735744757086444,-39.230920988681049,-37.726097220274369,-36.221273451866509,-34.716449683457327,-33.211625915046952,-31.706802146635333,-30.201978378222446,-28.707598195230577,-27.307211268184044,-25.906824341136282,-24.506437414087333,-23.106050487037141,-21.705663559985769,-20.30527663293315,-18.904889705879338,-17.504502778824314,-16.104115851768082,-14.726013736477109,-13.474193625461391,-12.222373514444415,-10.970553403426218,-9.7187332924067977,-8.46691318138612,-7.21509307036421,-5.96327295934107,-4.7114528483166946,-3.4596327372910913,-2.244613325828317,-1.1767984518513794,-0.10898357787323383,0.95883129610612972,2.0266461700866993,3.0944610440684883,4.1622759180514874,5.2300907920357087,6.2979056660211263,7.3657205400077759,8.38120963273535,9.239719403317908,10.098229173901688,10.956738944486691,11.815248715072908,12.67375848566035,13.532268256248997,14.390778026838868,15.249287797429934,16.10779756802226,16.899067621282143,17.533442352599273,18.167817083917615,18.802191815237176,19.436566546557962,20.070941277879992,20.705316009203219,21.339690740527679,21.974065471853361,22.608440203180255,23.162672082527092,23.56806507241803,23.97345806231019,24.378851052203579,24.784244042098205,25.189637031994042,25.59503002189112,26.000423011789422,26.405816001688958,26.811208991589705,27.126574112957321,27.306895304132691,27.48721649530933,27.6675376864872,27.847858877666294,28.028180068846652,28.208501260028225,28.388822451211063,28.569143642395112,28.749464833580419,28.833439773403686,28.799656160053168,28.765872546703882,28.732088933355882,28.698305320009112,28.664521706663614,28.630738093319369,28.596954479976354,28.563170866634596,28.529387253294079,27.933053427558249,27.701276245644785,27.469499063732609,27.237721881821667,27.005944699912021,26.77416751800364,26.542390336096549,26.310613154190705,25.980574244538897,25.570137687124141,25.159701129710655,24.749264572298493,24.338828014887611,23.928391457477993,23.517954900069697,23.107518342662694,22.69708178525697,22.286645227852546,21.781494218930437,21.213198750239382,20.644903281549642,20.076607812861191,19.508312344174097,18.940016875488308,18.3717214068038,17.80342593812065,17.235130469438808,16.666835000758276,16.009435922054156,15.30405668069179,14.59867743933078,13.89329819797114,13.187918956612817,12.482539715255852,11.77716047390023,11.07178123254597,10.36640199119303,9.66102274984146,8.8733879455526115,8.0504993687682056,7.2276107919851356,6.4047222152034875,5.5818336384231966,4.7589450616442992,3.9360564848667807,3.1131679080906154,2.2902793313158551,1.4673907545424649,0.5694826019168765,-0.35343302145184191,-1.2763486448191597,-2.1992642681850749,-3.1221798915495698,-4.0450955149126893,-4.9680111382743641,-5.8909267616346455,-6.8138423849935519,-7.7367580083510141,-8.72780336340178,-9.7358819563388721,-10.743960549274505,-11.752039142208645,-12.760117735141312,-13.768196328072467,-14.776274921002173,-15.784353513930375,-16.7924321068571,-17.800510699782375,-18.871039395460713,-19.952589391960846,-21.034139388459483,-22.115689384956717,-23.197239381452459,-24.278789377946815,-25.360339374439665,-26.441889370931094,-27.523439367421059,-28.604989363909581,-29.744917002088748,-30.891331658002304,-32.037746313914319,-33.1841609698247,-34.330575625733594,-35.476990281640823,-36.623404937546525,-37.769819593450592,-38.916234249353181,-40.062648905254093,-41.265881123314394,-42.472104304694248,-43.678327486072511,-44.8845506674491,-46.09077384882417,-47.296997030197588,-48.503220211569463,-49.709443392939662,-50.915666574308283,-52.121889755675205,0.23829732127521944,0.23829732127521944,0.23829732127521944,0.23829732127521944,0.23829732127521944,0.23829732127521944,0.23829732127521944,0.23829732127521944,0.23829732127521944,0.23829732127521944,0.23829732127521944,0.23829732127521944
DP 276,211.72064600115357,0.005180799826585967,-209.37346691106023,-203.78528963260877,-198.19711235415295,-192.60893507569321,-187.020757797229,-181.43258051876086,-175.84440324028867,-170.25622596181208,-164.66804868333159,-159.07987140484684,-153.50146627493078,-148.10873381526216,-142.7160013555895,-137.32326889591286,-131.93053643623188,-126.53780397654694,-121.14507151685787,-115.75233905716468,-110.35960659746749,-104.96687413776594,-99.613564621854422,-94.6150653264097,-89.616566030960939,-84.6180667355083,-79.619567440051625,-74.621068144590964,-69.622568849126324,-64.624069553657677,-59.625570258185064,-54.627070962708466,-49.712240848663612,-45.2715413684557,-40.830841888243718,-36.3901424080277,-31.949442927807631,-27.508743447583459,-23.068043967355248,-18.627344487122983,-14.186645006886652,-9.7459455266462776,-5.4423955154220307,-1.687449862069142,2.0674957912877066,5.8224414446485655,9.5773870980133715,13.332332751382195,17.08727840475499,20.842224058131787,24.597169711512546,28.352115364897323,31.913862458004097,34.896006565698734,37.878150673397386,40.860294781100009,43.842438888806669,46.8245829965173,49.806727104231946,52.788871211950614,55.771015319673225,58.753159427399844,61.489797650736726,63.653579141500025,65.817360632267309,67.981142123038524,70.14492361381383,72.30870510459313,74.472486595376452,76.636268086163753,78.800049576955075,80.963831067750419,82.838751888599433,84.177209378533064,85.515666868470717,86.8541243584124,88.192581848358159,89.531039338307863,90.869496828261646,92.207954318219493,93.546411808181333,94.884869298147208,95.9035250615157,96.442470677952755,96.98141629439391,97.520361910839242,98.059307527288652,98.598253143742042,99.137198760199439,99.676144376660957,100.21508999312648,100.7540356095961,100.95621441841477,100.74678227750454,100.53735013659852,100.32791799569661,100.11848585479869,99.909053713904882,99.699621573015264,99.4901894321297,99.280757291248278,99.071325150370981,96.743157009791815,95.85377489635728,94.9643927829268,94.075010669500585,93.185628556078527,92.296246442660632,91.406864329246929,90.517482215837276,89.297057448332325,87.805773910999136,86.3144903736703,84.823206836345548,83.331923299025064,81.840639761708786,80.349356224396828,78.858072687088978,77.366789149785376,75.875505612486052,74.07167504970559,72.059474879540275,70.047274709379252,68.035074539222549,66.022874369070209,64.010674198922047,61.998474028778276,59.986273858638768,57.974073688503644,55.961873518372762,53.662141634508281,51.207580800496,48.753019966488139,46.298459132484652,43.84389829848557,41.389337464490922,38.934776630500608,36.4802157965148,34.025654962533338,31.571094128556254,28.857410746752315,26.032670470759555,23.207930194771148,20.383189918787398,17.558449642808036,14.733709366833265,11.908969090862966,9.08422881489711,6.2594885389358375,3.4347482629790389,0.379683968612792,-2.7521579012911852,-5.8839997711905934,-9.01584164108542,-12.147683510975611,-15.279525380861319,-18.4113672507423,-21.54320912061873,-24.675050990490686,-27.806892860357934,-31.142328574412154,-34.52866515500461,-37.915001735592334,-41.301338316175183,-44.6876748967532,-48.074011477326351,-51.460348057894677,-54.846684638458193,-58.233021219016791,-61.619357799570686,-65.187367350774338,-68.787438858202563,-72.387510365625928,-75.987581873044732,-79.587653380458718,-83.187724887868015,-86.7877963952725,-90.3878679026723,-93.987939410067341,-97.588010917457723,-101.35380471860061,-105.1380138484101,-108.92222297821451,-112.70643210801359,-116.49064123780782,-120.27485036759674,-124.0590594973806,-127.84326862715925,-131.6274777569329,-135.4116868867012,-139.35442022151861,-143.30549851279827,-147.25657680407286,-151.20765509534212,-155.15873338660614,-159.10981167786511,-163.06088996911885,-167.01196826036721,-170.96304655161055,-174.91412484284842,0.77696351134151476,0.77696351134151476,0.77696351134151476,0.77696351134151476,0.77696351134151476,0.77696351134151476,0.77696351134151476,0.77696351134151476,0.77696351134151476,0.77696351134151476,0.77696351134151476,0.77696351134151476
DP 277,72.899683483578286,0.0037964063883778858,-68.342613466396315,-66.833601228173009,-65.324588989947529,-63.815576751719838,-62.306564513490066,-60.79755227525802,-59.288540037023864,-57.77952779878747,-56.270515560548915,-54.761503322308222,-53.254068713710467,-51.77660936661146,-50.299150019510186,-48.821690672406795,-47.344231325301124,-45.866771978193313,-44.389312631083307,-42.911853283971155,-41.434393936856729,-39.956934589740143,-38.486026957505622,-37.074085378506616,-35.662143799505444,-34.250202220502125,-32.838260641496625,-31.426319062488925,-30.014377483479009,-28.602435904466976,-27.190494325452732,-25.778552746436329,-24.381117742337477,-23.065887576906277,-21.750657411472826,-20.435427246037172,-19.120197080599269,-17.804966915159124,-16.489736749716769,-15.174506584272176,-13.859276418825361,-12.54404625337631,-11.25403764076397,-10.064916431496092,-8.8757952222259942,-7.68667401295365,-6.4975528036790857,-5.3084315944022684,-4.1193103851232333,-2.9301891758419512,-1.741067966558443,-0.55194675727270059,0.598904481728105,1.6349443629350129,2.6709842441441922,3.7070241253556455,4.7430640065693757,5.7791038877853769,6.8151437690036563,7.8511836502242041,8.8872235314470238,9.92326341267212,10.906100349608392,11.764794987862302,12.623489626118527,13.482184264377041,14.340878902637893,15.199573540901028,16.058268179166486,16.916962817434278,17.775657455704351,18.634352093976759,19.423533236923578,20.083616011258385,20.743698785595544,21.403781559935059,22.063864334276929,22.723947108621154,23.384029882967756,24.044112657316706,24.704195431668047,25.364278206021698,25.937650786102079,26.380956025777337,26.824261265455004,27.267566505135076,27.710871744817574,28.154176984502477,28.597482224189829,29.040787463879553,29.484092703571683,29.927397943266246,30.266370539085329,30.477823267572582,30.689275996062371,30.900728724554607,31.112181453049324,31.323634181546531,31.535086910046221,31.746539638548352,31.957992367052992,32.169445095560057,32.193921767044735,32.161421428769636,32.128921090497066,32.096420752227075,32.063920413959593,32.0314200756947,31.998919737432317,31.966419399172477,31.794601119868119,31.508793039976332,31.222984960087121,30.937176880200589,30.651368800316611,30.365560720435294,30.079752640556602,29.7939445606805,29.508136480807018,29.222328400936181,28.780390280492238,28.234363006727904,27.688335732966333,27.142308459207435,26.596281185451229,26.050253911697773,25.504226637946953,24.958199364198876,24.412172090453485,23.866144816710793,23.147840032383975,22.336767929449252,21.525695826517314,20.714623723588144,19.903551620661773,19.092479517738184,18.281407414817366,17.470335311899341,16.659263208984076,15.848191106071596,14.84940386739194,13.770164116396565,12.690924365404005,11.611684614414399,10.532444863427646,9.4532051124437988,8.3739653614628438,7.2947256104847469,6.2154858595095686,5.136246108537275,3.854486264344485,2.5052171700844026,1.155948075827278,-0.19332101842688088,-1.5425901126780497,-2.8918592069262989,-4.2411283011715195,-5.5903973954137971,-6.9396664896531428,-8.2889355838894687,-9.854869561234576,-11.474972319286199,-13.095075077334695,-14.715177835380018,-16.335280593422162,-17.955383351461112,-19.575486109496907,-21.195588867529519,-22.815691625558966,-24.435794383585282,-26.286554889028043,-28.178022267785519,-30.0694896465398,-31.960957025291076,-33.852424404039219,-35.743891782784253,-37.635359161526182,-39.526826540265013,-41.41829391900076,-43.309761297733409,-45.445246726767145,-47.607847835265261,-49.770448943760023,-51.933050052251325,-54.095651160739287,-56.258252269223675,-58.420853377704752,-60.583454486182269,-62.7460555946565,-64.908656703127278,-67.328950424634968,-69.762809479188,-72.196668533737551,-74.63052758828357,-77.064386642826136,-79.498245697365235,-81.932104751900752,-84.36596380643266,-86.7998228609612,-89.233681915486216,0.50511294135843487,0.50511294135843487,0.50511294135843487,0.50511294135843487,0.50511294135843487,0.50511294135843487,0.50511294135843487,0.50511294135843487,0.50511294135843487,0.50511294135843487,0.50511294135843487,0.50511294135843487
DP 278,67.311744371318241,0.0010007248196829137,-17.083101483781508,-16.711429601364625,-16.33975771894718,-15.968085836529209,-15.5964139541107,-15.224742071691637,-14.85307018927204,-14.481398306851897,-14.109726424431209,-13.738054542009998,-13.366760847321688,-13.002652791063188,-12.638544734804148,-12.274436678544564,-11.910328622284426,-11.546220566023761,-11.182112509762533,-10.818004453500775,-10.453896397238474,-10.089788340975614,-9.7272526678018121,-9.3788685910581471,-9.0304845143139421,-8.68210043756919,-8.3337163608239031,-7.9853322840780674,-7.6369482073316988,-7.2885641305847653,-6.9401800538373033,-6.5917959770892995,-6.2469003838240171,-5.9217730834550819,-5.5966457830855951,-5.2715184827155479,-4.9463911823449465,-4.6212638819737855,-4.2961365816020667,-3.9710092812297924,-3.645881980856962,-3.3207546804835775,-3.0017092071744735,-2.706991329556224,-2.4122734519374167,-2.1175555743180503,-1.8228376966981255,-1.5281198190776388,-1.233401941456594,-0.93868406383498826,-0.64396618621282575,-0.349248308590103,-0.063790797083820044,0.19388526595039698,0.4515613289851847,0.70923739202054237,0.9669134550564723,1.2245895180929713,1.4822655811300431,1.739941644167684,1.997617707205894,2.2552937702446778,2.5000435461112338,2.7146314761549197,2.9292194061991887,3.1438073362440426,3.3583952662894729,3.572983196335493,3.7875711263820873,4.0021590564292655,4.2167469864770259,4.4313349165253726,4.628952169664287,4.7950519930870241,4.96115181651035,5.1272516399342747,5.2933514633587944,5.4594512867839136,5.6255511102096225,5.7916509336359194,5.957750757062823,6.1238505804903163,6.2686681806394784,6.3815619429640318,6.4944557052892016,6.6073494676149789,6.7202432299413735,6.8331369922683729,6.9460307545959816,7.0589245169242041,7.1718182792530332,7.2847120415824786,7.3718482696537562,7.427502525933801,7.48315678221447,7.5388110384957656,7.5944652947776881,7.6501195510602429,7.7057738073434159,7.7614280636272159,7.8170823199116555,7.8727365761967114,7.88818991701401,7.8832402875186869,7.8782906580240137,7.8733410285299836,7.8683913990365975,7.8634417695438517,7.8584921400517667,7.8535425105603132,7.8137559871076654,7.7454659517171169,7.6771759163272337,7.608885880938014,7.5405958455494648,7.4723058101615862,7.4040157747743667,7.3357257393878168,7.2674357040019295,7.199145668616711,7.09155482391671,6.9577628205456081,6.8239708171751925,6.6901788138054643,6.5563868104364262,6.4225948070680783,6.2888028037004258,6.1550108003334474,6.0212187969671609,5.8874267936015654,5.7099813153135637,5.5090294849617578,5.30807765461066,5.1071258242602733,4.9061739939105982,4.7052221635616291,4.5042703332133707,4.3033185028658316,4.1023666725189978,3.9014148421728763,3.6525944885695671,3.383258245604714,3.1139220026405874,2.8445857596772122,2.5752495167145684,2.305913273752668,2.036577030791507,1.7672407878310776,1.4979045448713944,1.228568301912448,0.90728190048837509,0.56867812485669866,0.23007434922578038,-0.10852942640437888,-0.44713320203377249,-0.78573697766241779,-1.124340753290288,-1.4629445289174032,-1.8015483045437692,-2.1401520801693623,-2.5346260531350784,-2.9430682355509035,-3.3515104179659296,-3.7599526003801342,-4.1683947827935262,-4.5768369652061018,-4.9852791476178666,-5.3937213300288152,-5.8021635124389475,-6.210605694848284,-6.6787857968304811,-7.1575085489138548,-7.6362313009964176,-8.1149540530782183,-8.5936768051592036,-9.0723995572394021,-9.5511223093187887,-10.029845061397394,-10.508567813475198,-10.98729056555222,-11.529417198667774,-12.078589373344384,-12.627761548020139,-13.176933722694978,-13.726105897368967,-14.275278072042058,-14.824450246714271,-15.373622421385596,-15.922794596056054,-16.471966770725622,-17.088231554091571,-17.708028194933465,-18.327824835774479,-18.94762147661455,-19.567418117453737,-20.187214758292054,-20.807011399129419,-21.426808039965884,-22.046604680801444,-22.666401321636098,0.12914580642963441,0.12914580642963441,0.12914580642963441,0.12914580642963441,0.12914580642963441,0.12914580642963441,0.12914580642963441,0.12914580642963441,0.12914580642963441,0.12914580642963441,0.12914580642963441,0.12914580642963441
DP 279,260.37555054820672,0.0057071015245632071,-267.36142263548231,-259.95055303644136,-252.53968343739527,-245.12881383834491,-237.71794423929035,-230.30707464023078,-222.89620504116698,-215.48533544209855,-208.07446584302565,-200.66359624394795,-193.26737065611243,-186.14938405032373,-179.03139744453037,-171.91341083873266,-164.7954242329302,-157.67743762712362,-150.55945102131238,-143.44146441549671,-136.32347780967658,-129.20549120385184,-122.14608703569631,-115.61393034391408,-109.08177365212738,-102.54961696033646,-96.017460268541015,-89.4853035767414,-82.953146884937269,-76.420990193128887,-69.888833501316114,-63.356676809499113,-56.947196702452764,-51.232891639531687,-45.518586576606225,-39.804281513676266,-34.089976450741958,-28.375671387803205,-22.661366324860005,-16.947061261912374,-11.232756198960377,-5.5184511360039572,-0.0015470169029803071,4.7257439974349005,9.4530350117770858,14.180326026123645,18.90761704047447,23.634908054829705,28.362199069189224,33.089490083553088,37.816781097921314,42.544072112293854,46.999665570576248,50.640156088071031,54.280646605570134,57.921137123073557,61.561627640581378,65.202118158093526,68.842608675610023,72.48309919313084,76.123589710655978,79.764080228185463,83.068736258990867,85.589765260941064,88.1107942628956,90.631823264854418,93.152852266817618,95.673881268785181,98.194910270757148,100.71593927273339,103.23696827471394,105.75799727669886,107.89625771724977,109.32365192088966,110.751046124534,112.17844032818259,113.60583453183563,115.03322873549305,116.46062293915477,117.88801714282079,119.31541134649116,120.74280555016607,121.761275672042,122.16635000819016,122.57142434434283,122.97649868049983,123.38157301666114,123.78664735282692,124.19172168899713,124.59679602517161,125.0018703613505,125.40694469753387,125.397965730145,124.88291291684941,124.3678601035582,123.85280729027151,123.33775447698919,122.8227016637112,122.3076488504379,121.79259603716899,121.27754322390432,120.7624904106442,117.21449813469137,115.89831027249475,114.58212241030267,113.26593454811506,111.94974668593194,110.63355882375335,109.3173709615791,108.00118309940945,106.3124325879409,104.31885168792647,102.32527078791669,100.33168988791149,98.338108987910744,96.34452808791464,94.3509471879231,92.357366287936145,90.363785387953655,88.370204487975855,86.041737162196142,83.490006943559322,80.938276724927178,78.386546506299553,75.834816287676659,73.283086069058356,70.731355850444885,68.179625631835819,65.627895413231485,63.076165194631756,60.232132404993116,57.230701672665667,54.229270940342978,51.227840208024979,48.2264094757118,45.224978743403227,42.223548011099396,39.222117278800383,36.220686546505988,33.219255814216396,29.968838466137598,26.611708365825514,23.254578265518152,19.897448165215781,16.540318064918157,13.183187964625459,9.8260578643375851,6.4689277640544747,3.1117976637763012,-0.24533243649705511,-3.8108025570122219,-7.4457219766147809,-11.080641396212418,-14.715560815805143,-18.350480235392865,-21.98539965497578,-25.620319074553603,-29.255238494126555,-32.890157913694679,-36.525077333257705,-40.332673052470462,-44.183439886790886,-48.03420672110618,-51.884973555416323,-55.735740389721208,-59.586507224020821,-63.437274058315353,-67.28804089260467,-71.1388077268887,-74.989574561167657,-78.9846191590765,-83.005126143189173,-87.0256331272966,-91.046140111399055,-95.066647095496478,-99.087154079588728,-103.10766106367585,-107.12816804775808,-111.14867503183505,-115.16918201590707,-119.31332237706059,-123.47120107855029,-127.62907978003452,-131.78695848151318,-135.94483718298662,-140.10271588445434,-144.26059458591661,-148.41847328737313,-152.5763519888244,-156.73423069027032,-161.00505825363473,-165.28183161773453,-169.55860498182852,-173.83537834591698,-178.11215170999978,-182.38892507407715,-186.66569843814884,-190.94247180221484,-195.21924516627521,-199.49601853032979,0.83351409036970547,0.83351409036970547,0.83351409036970547,0.83351409036970547,0.83351409036970547,0.83351409036970547,0.83351409036970547,0.83351409036970547,0.83351409036970547,0.83351409036970547,0.83351409036970547,0.83351409036970547
DP 280,81.910181921472812,0.0057696976165498787,-112.5521036562476,-110.01316977583717,-107.47423589542288,-104.93530201500518,-102.39636813458391,-99.85743425415906,-97.318500373730515,-94.779566493298361,-92.240632612862711,-89.701698732423452,-87.165540565695792,-84.682121484287435,-82.198702402875455,-79.715283321459992,-77.231864240040821,-74.748445158618125,-72.265026077191749,-69.781606995761848,-67.298187914328352,-64.8147688328912,-62.342848467130864,-59.974417629369135,-57.605986791603755,-55.237555953834885,-52.869125116062442,-50.500694278286474,-48.13226344050689,-45.763832602723767,-43.395401764937176,-41.026970927146962,-38.683917493786915,-36.484670951358716,-34.285424408926865,-32.086177866491361,-29.886931324052213,-27.687684781609448,-25.488438239163052,-23.28919169671299,-21.089945154259304,-18.890698611801994,-16.735380565954408,-14.755778582652955,-12.776176599347885,-10.796574616039161,-8.8169726327268343,-6.8373706494108779,-4.8577686660912915,-2.8781666827680796,-0.89856469944124973,1.0810372838892033,2.994359609993785,4.7088404584713555,6.4233213069525918,8.1378021554375159,9.8522830039261127,11.56676385241839,13.281244700914332,14.995725549413983,16.710206397917268,18.424687246424256,20.047649663313393,21.457065468738609,22.866481274167555,24.275897079600259,25.685312885036659,27.094728690476792,28.504144495920656,29.913560301368236,31.322976106819574,32.732391912274608,34.023167557894546,35.0936082740904,36.16404899029007,37.234489706493541,38.304930422700821,39.375371138911881,40.445811855126706,41.516252571345355,42.586693287567769,43.657134003794006,44.580892350345,45.284623676222537,45.988355002103972,46.692086327989287,47.395817653878453,48.099548979771477,48.80328030566838,49.507011631569156,50.210742957473762,50.914474283382312,51.443432297146487,51.75877481388202,52.074117330621554,52.389459847364996,52.704802364112425,53.020144880863839,53.33548739761914,53.650829914378448,53.966172431141715,54.281514947908889,54.216610933067614,54.127580059352233,54.038549185640854,53.949518311933517,53.860487438230223,53.771456564531036,53.682425690835871,53.593394817144748,53.275987153601079,52.771721828087145,52.267456502577325,51.76319117707169,51.258925851570226,50.754660526072961,50.250395200579746,49.7461298750908,49.241864549605943,48.737599224125262,47.980315314402326,47.054348362572746,46.128381410747458,45.202414458926448,44.276447507109737,43.350480555297281,42.42451360348911,41.498546651685224,40.572579699885651,39.64661274809032,38.444656322287315,37.094086166340979,35.743516010399105,34.392945854461651,33.042375698528623,31.6918055426,30.341235386675805,28.990665230756072,27.640095074840687,26.289524918929775,24.641593903199922,22.866217499867119,21.090841096538842,19.315464693215191,17.54008828989604,15.764711886581502,13.989335483271523,12.213959079966051,10.438582676665211,8.66320627336891,6.5703815898924631,4.3717368122746665,2.1730920346615341,-0.02555274294692644,-2.2241975205506677,-4.4228422981498037,-6.6214870757441657,-8.8201318533338835,-11.018776630918978,-13.217421408499309,-15.752491696851855,-18.371672337817166,-20.990852978777561,-23.610033619732938,-26.229214260683335,-28.848394901628684,-31.46757554256908,-34.086756183504463,-36.705936824434879,-39.325117465360364,-42.299627301050755,-45.336846240069782,-48.3740651790838,-51.411284118093178,-54.4485030570975,-57.485721996097034,-60.522940935091682,-63.560159874081393,-66.597378813066285,-69.6345977520463,-73.045483948351716,-76.497892653190675,-79.950301358024248,-83.402710062852492,-86.855118767675449,-90.3075274724928,-93.759936177305065,-97.2123448821116,-100.66475358691302,-104.11716229170912,-107.96271098531449,-111.82895516886335,-115.69519935240677,-119.5614435359446,-123.42768771947684,-127.29393190300397,-131.16017608652527,-135.026420270041,-138.89266445355156,-142.75890863705627,0.797810725025559,0.797810725025559,0.797810725025559,0.797810725025559,0.797810725025559,0.797810725025559,0.797810725025559,0.797810725025559,0.797810725025559,0.797810725025559,0.797810725025559,0.797810725025559
DP 281,76.3702486410169,0.0012059276729012405,-22.407059174365905,-21.908054637642312,-21.409050100918016,-20.910045564193016,-20.411041027467281,-19.912036490740832,-19.413031954013665,-18.914027417285794,-18.415022880557171,-17.916018343827854,-17.417544579751688,-16.92915559643772,-16.440766613123031,-15.952377629807607,-15.463988646491503,-14.975599663174648,-14.487210679857093,-13.998821696538814,-13.510432713219805,-13.02204372990008,-12.535856784769035,-12.069488391482221,-11.603119998194716,-11.136751604906474,-10.670383211617523,-10.204014818327876,-9.7376464250374877,-9.271278031746407,-8.8049096384546122,-8.3385412451621068,-7.8770424239002823,-7.4431381510026942,-7.0092338781043644,-6.5753296052053081,-6.1414253323055279,-5.7075210594050123,-5.273616786503764,-4.8397125136017918,-4.40580824069909,-3.9719039677956625,-3.5464520319968114,-3.1548098440827421,-2.7631676561679472,-2.3715254682524192,-1.9798832803361683,-1.588241092419181,-1.1965989045014676,-0.80495671658302348,-0.4133145286638516,-0.021672340743950191,0.35717271349692281,0.69762588285733373,1.0380790522184844,1.3785322215803781,1.7189853909430115,2.0594385603063889,2.3998917296705078,2.7403448990353634,3.0807980684009588,3.4212512377672994,3.7439603065563718,4.0252657751663339,4.3065712437770527,4.5878767123885256,4.8691821810007552,5.1504876496137308,5.4317931182274615,5.7130985868419506,5.9944040554571849,6.2757095240731742,6.5339007741148736,6.7491649940064615,6.9644292138988186,7.1796934337919334,7.39495765368582,7.6102218735804792,7.825486093475897,8.04075031337209,8.2560145332690436,8.471278753166775,8.65780798279286,8.8012340479926632,8.9446601131932635,9.0880861783946365,9.2315122435968036,9.3749383087997451,9.51836437400347,9.661790439207989,9.8052165044132842,9.9486425696193663,10.057622944123018,10.124502306466329,10.19138166881044,10.258261031155351,10.325140393501062,10.39201975584758,10.458899118194903,10.525778480543028,10.592657842891963,10.659537205241689,10.659626435630752,10.646286103669535,10.632945771709153,10.619605439749598,10.606265107790851,10.592924775832941,10.579584443875859,10.566244111919595,10.507284341236717,10.410998791229437,10.314713241223,10.218427691217412,10.12214214121267,10.025856591208782,9.9295710412057332,9.83328549120354,9.73699994120218,9.6407143912016853,9.4935246686367982,9.3123980291067152,9.1312713895775186,8.9501447500491889,8.7690181105217277,8.58789147099514,8.40676483146943,8.22563819194459,8.044511552420639,7.8633849128975415,7.6263318263713842,7.3591636858828755,7.091995545395287,6.8248274049086026,6.55765926442282,6.2904911239379526,6.0233229834539914,5.756154842970945,5.4889867024887922,5.2218185620075586,4.8939680863750725,4.5401098714297357,4.1862516564853127,3.8323934415418441,3.4785352265992939,3.1246770116576879,2.7708187967170104,2.4169605817772593,2.06310236683845,1.7092441519005692,1.2901743656110873,0.84936656702045821,0.40855876843078626,-0.03224903015793041,-0.47305682874568228,-0.91386462733249207,-1.3546724259183245,-1.7954802245032067,-2.2362880230871447,-2.67709582167011,-3.1874264350638053,-3.7151385735830624,-4.242850712101311,-4.770562850618532,-5.2982749891347316,-5.8259871276498973,-6.3536992661640515,-6.8814114046771806,-7.4091235431892812,-7.9368356817003871,-8.5383444125007273,-9.1528768919807568,-9.7674093714597738,-10.381941850937823,-10.996474330414838,-11.611006809890885,-12.225539289365916,-12.840071768839952,-13.454604248312977,-14.069136727785024,-14.761568422092484,-15.462656402840215,-16.163744383586867,-16.864832364332404,-17.565920345076862,-18.267008325820189,-18.968096306562433,-19.66918428730353,-20.370272268043585,-21.071360248782508,-21.854600706666545,-22.642165796521326,-23.429730886375019,-24.217295976227518,-25.004861066078949,-25.792426155929245,-26.579991245778409,-27.367556335626389,-28.155121425473318,-28.942686515319032,0.16307371048716476,0.16307371048716476,0.16307371048716476,0.16307371048716476,0.16307371048716476,0.16307371048716476,0.16307371048716476,0.16307371048716476,0.16307371048716476,0.16307371048716476,0.16307371048716476,0.16307371048716476
DP 282,58.030413443708369,0.0059006287583433879,-91.533453962508233,-89.596837376457842,-87.660220790404537,-85.7236042043486,-83.786987618289913,-81.850371032228409,-79.913754446164191,-77.9771378600972,-76.040521274027483,-74.103904687954937,-72.169175546069383,-70.27030820059619,-68.371440855120269,-66.472573509641478,-64.573706164159887,-62.674838818675489,-60.775971473188307,-58.87710412769831,-56.97823678220545,-55.079369436709783,-53.188366926628774,-51.368148678699008,-49.547930430766449,-47.727712182831,-45.907493934892749,-44.087275686951642,-42.267057439007715,-40.446839191060924,-38.626620943111305,-36.806402695158923,-35.0036907627806,-33.300182388487571,-31.596674014191617,-29.893165639892771,-28.189657265591023,-26.486148891286359,-24.782640516978777,-23.079132142668286,-21.375623768354924,-19.672115394038624,-17.999254227479504,-16.448983340369455,-14.898712453256465,-13.348441566140517,-11.798170679021627,-10.247899791899773,-8.6976289047749766,-7.1473580176472264,-5.5970871305165382,-4.0468162433828931,-2.5434672898359607,-1.1808859111084324,0.18169546762211858,1.5442768463556911,2.9068582250922943,4.269439603831918,5.6320209825745646,6.9946023613202453,8.3571837400689155,9.7197651188206375,11.016422628784053,12.159255181903298,13.302087735025651,14.444920288151112,15.587752841279684,16.730585394411367,17.873417947546113,19.016250500684009,20.159083053824983,21.301915606969057,22.357553787333483,23.25125720632105,24.144960625311832,25.038664044305783,25.932367463302963,26.826070882303291,27.719774301306824,28.613477720313561,29.5071811393235,30.400884558336596,31.184331114836162,31.80238977215334,32.420448429473822,33.038507086797608,33.656565744124691,34.274624401455057,34.89268305878872,35.510741716125622,36.128800373465879,36.746859030809382,37.23027226063455,37.549116028628987,37.867959796626828,38.186803564628114,38.505647332632741,38.824491100640785,39.143334868652232,39.462178636667048,39.781022404685288,40.099866172706939,40.256822882051573,40.2558362075797,40.254849533111312,40.253862858646464,40.2528761841851,40.251889509727292,40.250902835272996,40.249916160822181,40.063266625319315,39.724707921843269,39.386149218370853,39.047590514902069,38.709031811436923,38.370473107975414,38.031914404517579,37.693355701063382,37.354796997612787,37.016238294165866,36.466140063650684,35.775012149254771,35.08388423486263,34.392756320474291,33.701628406089704,33.010500491708889,32.319372577331855,31.628244662958604,30.937116748589144,30.245988834223471,29.317594890747323,28.261438865948506,27.205282841153618,26.14912681636261,25.092970791575507,24.03681476679234,22.980658742013016,21.924502717237662,20.868346692466158,19.81219066769858,18.493432645867273,17.062126478589423,15.630820311315599,14.199514144045938,12.768207976780308,11.336901809518798,9.9055956422613711,8.474289475007998,7.0429833077587549,5.6116771405135752,3.8929337477008303,2.0783743238419112,0.26381489998719393,-1.5507445238633162,-3.3653039477095783,-5.1798633715516953,-6.9944227953895179,-8.80898221922315,-10.623541643052636,-12.438101066877831,-14.564096282256619,-16.767954125186151,-18.971811968111208,-21.175669811031732,-23.379527653947708,-25.583385496859098,-27.787243339765975,-29.991101182668313,-32.194959025566064,-34.398816868459384,-36.937739511228095,-39.535794962296229,-42.133850413359866,-44.731905864419204,-47.329961315474009,-49.928016766524451,-52.526072217570416,-55.124127668611976,-57.722183119649117,-60.320238570681887,-63.275544593489016,-66.270548876243666,-69.265553158993441,-72.2605574417382,-75.255561724478213,-78.250566007213123,-81.245570289943188,-84.240574572668223,-87.235578855388511,-90.230583138103654,-93.604695296833412,-96.998764273640589,-100.39283325044273,-103.78690222723976,-107.18097120403176,-110.5750401808187,-113.96910915760061,-117.36317813437732,-120.75724711114898,-124.15131608791555,0.71282228624192767,0.71282228624192767,0.71282228624192767,0.71282228624192767,0.71282228624192767,0.71282228624192767,0.71282228624192767,0.71282228624192767,0.71282228624192767,0.71282228624192767,0.71282228624192767,0.71282228624192767
DP 283,236.41317719244682,0.0016647348169834162,-72.895611984695378,-70.910905488037656,-68.926198991378612,-66.941492494718361,-64.956785998056731,-62.972079501393722,-60.987373004729371,-59.002666508063747,-57.0179600113968,-55.0332535147285,-53.052247316680415,-51.141547491963067,-49.230847667244412,-47.320147842524385,-45.409448017803022,-43.498748193080374,-41.588048368356475,-39.6773485436312,-37.766648718904612,-35.855948894176706,-33.960112550792388,-32.198048944433268,-30.435985338072815,-28.673921731711147,-26.911858125348196,-25.149794518983949,-23.387730912618419,-21.625667306251618,-19.863603699883566,-18.101540093514224,-16.370808421127776,-14.817626349016676,-13.26444427690428,-11.711262204790557,-10.158080132675572,-8.6048980605592735,-7.0517159884416625,-5.4985339163227618,-3.9453518442025688,-2.3921697720810768,-0.88986419347671819,0.40893300659103676,1.7077302066600588,3.0065274067303633,4.3053246068019257,5.6041218068747769,6.9029190069488973,8.2017162070243,9.5005134071009589,10.799310607178908,12.027282001696069,13.04277330170266,14.058264601710539,15.073755901719682,16.089247201730107,17.104738501741828,18.120229801754792,19.135721101769057,20.151212401784573,21.166703701801396,22.093455754850385,22.813146070069365,23.532836385289666,24.252526700511204,24.972217015734067,25.691907330958159,26.411597646183573,27.131287961410262,27.850978276638191,28.570668591867427,29.187633364615845,29.613819355678334,30.040005346742124,30.466191337807246,30.8923773288736,31.318563319941266,31.744749311010207,32.170935302080437,32.59712129315195,33.023307284224771,33.3378222231137,33.484827944898036,33.631833666683612,33.778839388470509,33.925845110258663,34.072850832048132,34.219856553838937,34.366862275631021,34.513867997424363,34.660873719218991,34.692629199488366,34.583520852643737,34.474412505800395,34.365304158958367,34.25619581211766,34.147087465278268,34.037979118440184,33.928870771603371,33.819762424767866,33.71065407793369,32.814199817565957,32.4774393524317,32.140678887298755,31.803918422167165,31.467157957036882,31.130397491907932,30.7936370267803,30.456876561654006,30.011872687443539,29.478304163742006,28.944735640041849,28.411167116343,27.877598592645519,27.344030068949362,26.810461545254576,26.276893021561111,25.743324497868997,25.209755974178247,24.576557520504736,23.876937543982557,23.177317567461767,22.477697590942324,21.778077614424248,21.078457637907537,20.378837661392222,19.679217684878253,18.979597708365691,18.279977731854451,17.491169735734282,16.654336124413241,15.817502513093599,14.980668901775354,14.143835290458501,13.307001679143038,12.470168067828965,11.633334456516309,10.796500845205028,9.95966723389515,9.04478040846609,8.0964408881084573,7.14810136775221,6.1997618473974425,5.2514223270440752,4.3030828066921591,3.3547432863416691,2.4064037659925912,1.4580642456449657,0.50972472529876545,-0.50584593089396679,-1.5438278130047451,-2.5818096951140723,-3.6197915772219433,-4.6577734593283413,-5.6957553414333129,-6.7337372235367887,-7.7717191056388186,-8.809700987739415,-9.8476828698385219,-10.943141951387638,-12.052971011900768,-13.16280007241239,-14.272629132922461,-15.382458193431015,-16.492287253938009,-17.60211631444346,-18.711945374947383,-19.821774435449782,-20.931603495950672,-22.091014713460982,-23.259176274744771,-24.427337836027004,-25.595499397307773,-26.76366095858701,-27.93182251986476,-29.099984081140995,-30.268145642415746,-31.436307203688973,-32.604468764960743,-33.81644756723616,-35.033295412028693,-36.250143256819577,-37.466991101608812,-38.6838389463965,-39.90068679118248,-41.117534635966891,-42.334382480749596,-43.551230325530781,-44.768078170310247,-46.025886336839108,-47.2858507173137,-48.545815097786523,-49.8057794782577,-51.06574385872721,-52.325708239195087,-53.58567261966131,-54.845637000125805,-56.105601380588666,-57.365565761049872,0.24653533080245166,0.24653533080245166,0.24653533080245166,0.24653533080245166,0.24653533080245166,0.24653533080245166,0.24653533080245166,0.24653533080245166,0.24653533080245166,0.24653533080245166,0.24653533080245166,0.24653533080245166
DP 284,178.92930883487492,0.0040428139009565239,-143.80980908223009,-140.08349742360306,-136.35718576497285,-132.63087410633941,-128.90456244770289,-125.17825078906313,-121.45193913042007,-117.72562747177383,-113.99931581312441,-110.27300415447169,-106.5526285017559,-102.94503808406857,-99.337447666377884,-95.729857248684155,-92.1222668309872,-88.5146764132871,-84.907085995583714,-81.2994955778772,-77.691905160167522,-74.08431474245458,-70.500812936759829,-67.134110916152,-63.767408895541045,-60.400706874926989,-57.034004854309856,-53.667302833689618,-50.30060081306631,-46.933898792439791,-43.567196771810316,-40.200494751177679,-36.885387210007153,-33.86265163700331,-30.839916063996256,-27.817180490986072,-24.794444917972758,-21.77170934495626,-18.748973771936608,-15.726238198913784,-12.703502625887802,-9.680767052858684,-6.7436848348690122,-4.1492200850933383,-1.5547553353145822,1.0397094144672956,3.6341741642522551,6.2286389140403413,8.8231036638315228,11.417568413625814,14.012033163423208,16.6064979132237,19.078367443104888,21.182446678066356,23.286525913030918,25.3906051479986,27.494684382969414,29.598763617943355,31.702842852920412,33.806922087900595,35.911001322883784,38.015080557870213,39.960364107155662,41.535118135800673,43.1098721644488,44.684626193100073,46.259380221754391,47.834134250411964,49.408888279072542,50.983642307736375,52.558396336403256,54.133150365073284,55.5168848870702,56.545863737972034,57.574842588877075,58.603821439785214,59.632800290696508,60.661779141610964,61.69075799252856,62.719736843449283,63.748715694373246,64.777694545300221,65.58984083368712,66.0767331544285,66.563625475172955,67.050517795920655,67.537410116671538,68.024302437425476,68.511194758182754,68.998087078943129,69.484979399706688,69.971871720473445,70.2240071610037,70.189212594673947,70.154418028347408,70.119623462024123,70.084828895704,70.0500343293871,70.015239763073438,69.980445196763,69.9456506304557,69.910856064151631,68.584907519466185,68.061486091152389,67.538064662841862,67.014643234534518,66.49122180623047,65.967800377929663,65.444378949632181,64.920957521337925,64.151639367703226,63.181128758333479,62.210618148967036,61.240107539603862,60.26959693024412,59.299086320887625,58.328575711534391,57.358065102184568,56.387554492838056,55.417043883494877,54.205907804586268,52.83435095525784,51.4627941059329,50.091237256611251,48.719680407292969,47.348123557978091,45.97656670866666,44.605009859358532,43.23345301005385,41.8618961607525,40.260241655038065,38.53468506523231,36.809128475430057,35.083571885631272,33.358015295835912,31.632458706044023,29.90690211625558,28.181345526470647,26.455788936689132,24.730232346911084,22.788497494270835,20.754111165848578,18.719724837429759,16.6853385090146,14.650952180602902,12.616565852194816,10.582179523790264,8.5477931953892057,6.5134068669917466,4.479020538597819,2.243752998917417,-0.058477476197269632,-2.3607079513083535,-4.6629384264158311,-6.9651689015196521,-9.26739937661994,-11.569629851716517,-13.871860326809491,-16.174090801898945,-18.476321276984692,-20.96455836701648,-23.499299308481028,-26.034040249941846,-28.568781191398795,-31.10352213285195,-33.638263074301257,-36.17300401574677,-38.707744957188481,-41.242485898626356,-43.777226840060493,-46.485733924608134,-49.224907554949581,-51.96408118528727,-54.703254815621356,-57.442428445951563,-60.181602076278089,-62.920775706600963,-65.659949336920008,-68.399122967235328,-71.138296597546969,-74.042667891354725,-76.96539621606945,-79.888124540780268,-82.810852865486908,-85.73358119018971,-88.656309514888179,-91.57903783958281,-94.501766164273164,-97.424494488959581,-100.34722281364195,-103.4326299730311,-106.52660079493957,-109.62057161684388,-112.71454243874399,-115.80851326064,-118.90248408253194,-121.99645490441964,-125.09042572630314,-128.18439654818258,-131.27836737005777,0.61348284214621152,0.61348284214621152,0.61348284214621152,0.61348284214621152,0.61348284214621152,0.61348284214621152,0.61348284214621152,0.61348284214621152,0.61348284214621152,0.61348284214621152,0.61348284214621152,0.61348284214621152
DP 285,70.127141582169088,0.0037399913120911938,-65.599283831629549,-64.161180642371988,-62.723077453112296,-61.284974263850522,-59.84687107458673,-58.408767885320835,-56.970664696052836,-55.532561506782756,-54.094458317510579,-52.656355128236356,-51.219735004325827,-49.811293402728822,-48.402851801129735,-46.994410199528495,-45.585968597925195,-44.177526996319791,-42.7690853947123,-41.360643793102689,-39.952202191490962,-38.543760589877166,-37.141482994425886,-35.794682037086467,-34.44788107974491,-33.101080122401342,-31.754279165055646,-30.407478207707832,-29.060677250357966,-27.713876293005985,-26.36707533565195,-25.020274378295813,-23.687133589150264,-22.431401280663263,-21.175668972174137,-19.919936663682844,-18.664204355189462,-17.408472046693888,-16.152739738196185,-14.897007429696343,-13.641275121194369,-12.385542812690243,-11.153594512405707,-10.016783369057295,-8.8799722257067373,-7.7431610823540291,-6.606349938999176,-5.469538795642169,-4.3327276522830225,-3.1959165089217159,-2.0591053655582696,-0.92229422219267532,0.17836572892406122,1.1705707364633733,2.1627757440048674,3.1549807515485524,4.1471857590944268,5.1393907666424878,6.1315957741927383,7.1238007817451745,8.116005789299777,9.1082107968566035,10.050057320501233,10.874398731703652,11.6987401429083,12.523081554115173,13.347422965324277,14.171764376535624,14.996105787749173,15.82044719896496,16.644788610182996,17.469130021403249,18.227515182708018,18.863408384372789,19.49930158603982,20.135194787709143,20.771087989380735,21.406981191054612,22.042874392730752,22.678767594409173,23.314660796089871,23.950553997772868,24.503953786317997,24.933611505805363,25.363269225295138,25.792926944787151,26.222584664281541,26.652242383778276,27.081900103277331,27.511557822778713,27.941215542282436,28.370873261788443,28.700982576891676,28.90941952895496,29.117856481020613,29.326293433088718,29.534730385159161,29.743167337232027,29.951604289307273,30.16004124138491,30.368478193464952,30.576915145547389,30.618474462039821,30.593410356811258,30.568346251585144,30.54328214636147,30.518218041140276,30.493153935921576,30.468089830705296,30.443025725491484,30.284174741179882,30.015859465656213,29.747544190135013,29.479228914616421,29.210913639100326,28.942598363586765,28.67428308807575,28.405967812567283,28.137652537061328,27.869337261557909,27.45058673109293,26.931543660761811,26.4125005904333,25.893457520107397,25.374414449784148,24.85537137946346,24.336328309145429,23.817285238830003,23.298242168517188,22.77919909820702,22.093607723665912,21.318334071096682,20.543060418530175,19.767786765966353,18.992513113405234,18.217239460846812,17.441965808291076,16.666692155738069,15.89141850318773,15.116144850640115,14.158811943588354,13.12345056879836,12.088089194011138,11.05272781922676,10.017366444445161,8.9820050696663962,7.94664369489043,6.9112823201172411,5.875920945346885,4.8405595705793356,3.60819088730161,2.3101506183367388,1.0121103493747474,-0.28592991958436442,-1.5839701885405697,-2.882010457493938,-4.1800507264443656,-5.478090995391927,-6.7761312643366427,-8.0741715332784345,-9.583541601981862,-11.145746617520192,-12.707951633055476,-14.270156648587671,-15.83236166411678,-17.394566679642772,-18.95677169516571,-20.518976710685543,-22.081181726202288,-23.643386741716007,-25.431067685236158,-27.258541005729036,-29.086014326218859,-30.913487646705736,-32.740960967189558,-34.568434287670364,-36.395907608148171,-38.223380928622937,-40.050854249094705,-41.878327569563488,-43.94473392619215,-46.037690907309418,-48.130647888423354,-50.223604869533943,-52.316561850641293,-54.409518831745167,-56.502475812845859,-58.595432793943012,-60.688389775037031,-62.781346756127562,-65.126887000006079,-67.485723612922783,-69.844560225836219,-72.203396838746173,-74.562233451652759,-76.921070064555892,-79.279906677455671,-81.638743290351911,-83.997579903244812,-86.356416516134246,0.49048964537863216,0.49048964537863216,0.49048964537863216,0.49048964537863216,0.49048964537863216,0.49048964537863216,0.49048964537863216,0.49048964537863216,0.49048964537863216,0.49048964537863216,0.49048964537863216,0.49048964537863216
DP 286,209.65351047500258,0.0035156697141992912,-141.04965195722289,-137.29161301130185,-133.53357406537782,-129.77553511945109,-126.01749617352147,-122.25945722758908,-118.50141828165374,-114.74337933571582,-110.98534038977496,-107.22730144383138,-103.47579750655854,-99.84845996949123,-96.221122432421083,-92.593784895348207,-88.966447358272546,-85.339109821194043,-81.711772284112769,-78.0844347470288,-74.457097209941921,-70.829759672852319,-67.228795825956126,-63.865197683710626,-60.501599541462426,-57.138001399211518,-53.774403256957896,-50.410805114701617,-47.047206972442631,-43.683608830180859,-40.320010687916444,-36.9564125456493,-33.64882217331207,-30.658612693225106,-27.668403213135381,-24.678193733042907,-21.687984252947668,-18.697774772849694,-15.707565292748939,-12.717355812645447,-9.72714633253921,-6.7369368524302127,-3.8386048422066619,-1.3077870537366163,1.2230307347361216,3.753848523211579,6.2846663116897092,8.8154841001705915,11.346301888654141,13.877119677140414,16.407937465629384,18.938755254121059,21.340017272621925,23.352607082820548,25.365196893021832,27.377786703225858,29.390376513432589,31.402966323642062,33.415556133854253,35.428145944069108,37.440735754286671,39.453325564507,41.301087724965043,42.76424554440969,44.227403363857128,45.690561183307246,47.153719002760042,48.616876822215644,50.08003464167394,51.543192461134915,53.00635028059871,54.46950810006512,55.738462309427049,56.646747426760044,57.555032544095639,58.463317661434026,59.371602778775134,60.279887896119007,61.1881730134656,62.096458130814909,63.004743248167017,63.913028365521754,64.605976994067788,64.975915800918358,65.345854607771727,65.71579341462791,66.085732221486765,66.455671028348377,66.825609835212745,67.1955486420799,67.565487448949824,67.935426255822463,68.078215568346337,67.943372949886466,67.808530331429367,67.6736877129751,67.53884509452358,67.404002476074808,67.2691598576289,67.134317239185762,66.999474620745431,66.8646320023079,65.311395984810645,64.717069232889884,64.122742480971937,63.528415729056789,62.934088977144526,62.339762225235027,61.745435473328335,61.151108721424535,60.332622829934088,59.3307301537196,58.328837477507868,57.326944801299057,56.325052125093116,55.323159448890074,54.321266772689839,53.319374096492545,52.317481420298016,51.315588744106442,50.101598423518112,48.746206332037282,47.390814240559479,46.035422149084539,44.680030057612541,43.324637966143428,41.969245874677263,40.613853783214033,39.25846169175373,37.903069600296327,36.352096264060052,34.695807105772253,33.03951794748756,31.383228789205759,29.726939630927003,28.070650472651227,26.414361314378407,24.758072156108614,23.101782997841784,21.445493839577953,19.612501261715337,17.703775664330635,15.795050066948908,13.886324469570338,11.977598872194765,10.068873274822291,8.1601476774528638,6.2514220800864493,4.3426964827231469,2.4339708853628861,0.36775409837800482,-1.7509617366498771,-3.8696775716746536,-5.9883934066963169,-8.10710924171484,-10.22582507673031,-12.344540911742575,-14.46325674675175,-16.581972581757881,-18.700688416760812,-20.959016511392839,-23.252249320471712,-25.545482129547384,-27.838714938619734,-30.131947747688802,-32.425180556754547,-34.718413365817092,-37.011646174876311,-39.30487898393217,-41.598111792984859,-44.016282312720193,-46.456502053076434,-48.896721793429407,-51.336941533779239,-53.777161274125852,-56.217381014469225,-58.65760075480938,-61.09782049514633,-63.538040235480068,-65.978259975810616,-68.532749879293391,-71.099937667675178,-73.6671254560535,-76.2343132444282,-78.801501032799592,-81.368688821167311,-83.935876609531675,-86.503064397892359,-89.070252186249746,-91.637439974603666,-94.314140884940613,-96.996606733412577,-99.679072581881044,-102.36153843034597,-105.04400427880732,-107.72647012726524,-110.4089359757194,-113.09140182417013,-115.77386767261733,-118.4563335210608,0.52774041713791564,0.52774041713791564,0.52774041713791564,0.52774041713791564,0.52774041713791564,0.52774041713791564,0.52774041713791564,0.52774041713791564,0.52774041713791564,0.52774041713791564,0.52774041713791564,0.52774041713791564
DP 287,164.63243395738408,0.0018683599238180132,-62.282883811335246,-60.692238751951663,-59.101593692566546,-57.510948633180028,-55.920303573792033,-54.329658514402524,-52.739013455011552,-51.148368395619137,-49.557723336225237,-47.967078276829888,-46.378857008295711,-44.836688224355754,-43.294519440414334,-41.752350656471464,-40.2101818725271,-38.668013088581311,-37.125844304634036,-35.583675520685318,-34.041506736735109,-32.499337952783449,-30.967031634999628,-29.523488444955827,-28.079945254910573,-26.636402064863915,-25.192858874815833,-23.749315684766348,-22.305772494715377,-20.862229304663025,-19.418686114609255,-17.975142924554049,-16.55280958490038,-15.250666734056891,-13.948523883211932,-12.646381032365525,-11.344238181517674,-10.042095330668362,-8.7399524798176085,-7.4378096289653923,-6.1356667781117329,-4.83352392725663,-3.5667905168816092,-2.44169654191005,-1.3166025669370722,-0.19150859196266104,0.933585383013168,2.0586793579904352,3.1837733329691278,4.3088673079492494,5.4339612829307908,6.5590552579137578,7.63310689887632,8.55402960793479,9.4749523169946741,10.395875026056006,11.316797735118769,12.237720444182964,13.158643153248592,14.079565862315663,15.000488571384148,15.921411280454093,16.775653015001588,17.474303182835506,18.17295335067087,18.871603518507666,19.570253686345904,20.268903854185584,20.967554022026707,21.666204189869276,22.364854357713295,23.063504525558717,23.681142446745977,24.148326864881657,24.615511283018773,25.082695701157334,25.549880119297342,26.017064537438813,26.484248955581734,26.951433373726108,27.418617791871895,27.885802210019165,28.259984109120204,28.494660031967097,28.729335954815454,28.964011877665317,29.198687800516655,29.433363723369396,29.668039646223637,29.902715569079362,30.137391491936512,30.372067414795147,30.504777107750321,30.512859266823607,30.520941425898304,30.529023584974549,30.537105744052266,30.545187903131449,30.553270062212118,30.561352221294264,30.5694343803779,30.577516539463019,30.063758765801278,29.856638817701505,29.649518869603217,29.442398921506481,29.235278973411205,29.028159025317471,28.821039077225205,28.613919129134491,28.2968413573252,27.8897962036788,27.482751050033894,27.075705896390524,26.668660742748685,26.261615589108395,25.854570435469629,25.447525281832377,25.040480128196684,24.63343497456254,24.116994798214343,23.527622883361623,22.938250968510474,22.348879053660852,21.759507138812808,21.170135223966312,20.5807633091214,19.991391394278054,19.402019479436262,18.81264756459603,18.116777221259049,17.363560021596388,16.610342821935337,15.857125622275898,15.103908422618044,14.350691222961798,13.597474023307146,12.844256823654122,12.091039624002669,11.33782242435284,10.48260858075759,9.5836801681708774,8.6847517555857614,7.7858233430023427,6.8868949304205254,5.9879665178403627,5.0890381052618459,4.1901096926849437,3.2911812801097038,2.3922528675360994,1.3966015374242986,0.36870801581705409,-0.65918550578852331,-1.6870790273924308,-2.7149725489946497,-3.7428660705952295,-4.77075959219409,-5.7986531137912927,-6.82654663538686,-7.8544401569807105,-8.9737786698282456,-10.115979510925673,-11.258180352021359,-12.400381193115267,-13.54258203420741,-14.684782875297794,-15.826983716386394,-16.969184557473234,-18.111385398558308,-19.253586239641628,-20.482941665978743,-21.727678282413979,-22.97241489884745,-24.217151515279252,-25.461888131709273,-26.7066247481376,-27.951361364564193,-29.196097980989034,-30.440834597412177,-31.685571213833583,-33.014622595237611,-34.3530431693649,-35.691463743490324,-37.029884317613828,-38.368304891735555,-39.7067254658553,-41.045146039973268,-42.383566614089212,-43.721987188203407,-45.060407762315684,-46.482853001923957,-47.909721428358814,-49.336589854791789,-50.763458281222796,-52.190326707651941,-53.617195134079239,-55.044063560504526,-56.47093198692788,-57.897800413349373,-59.324668839768862,0.2841438625574878,0.2841438625574878,0.2841438625574878,0.2841438625574878,0.2841438625574878,0.2841438625574878,0.2841438625574878,0.2841438625574878,0.2841438625574878,0.2841438625574878,0.2841438625574878,0.2841438625574878
DP 288,142.95863569230752,0.0023918026267235127,-71.317578693298458,-69.540310406088253,-67.763042118876214,-65.9857738316623,-64.208505544446609,-62.431237257229064,-60.653968970009622,-58.876700682788325,-57.099432395565181,-55.322164108340289,-53.547413547897129,-51.820500272304493,-50.093586996709924,-48.3666737211136,-46.639760445515428,-44.912847169915437,-43.185933894313571,-41.459020618709893,-39.732107343104381,-38.00519406749703,-36.28856820249257,-34.664530005312947,-33.04049180813157,-31.4164536109484,-29.792415413763415,-28.168377216576694,-26.544339019388147,-24.920300822197813,-23.296262625005689,-21.672224427811795,-20.070448455334617,-18.594826492436969,-17.11920452953748,-15.643582566636146,-14.167960603733034,-12.692338640828069,-11.216716677921283,-9.74109471501268,-8.26547275210226,-6.78985078919001,-5.3517218716076735,-4.0635669073020715,-2.7754119429946793,-1.4872569786854857,-0.19910201437450556,1.0890529499382842,2.3772079142528639,3.6653628785692502,4.9535178428874165,6.2416728072073866,7.4751837507962957,8.544760566173597,9.614337381552712,10.683914196933625,11.753491012316362,12.823067827700905,13.892644643087248,14.962221458475401,16.031798273865359,17.101375089257139,18.098608465609676,18.927037635032192,19.755466804456528,20.58389597388269,21.412325143310667,22.240754312740449,23.069183482172061,23.897612651605467,24.72604182104072,25.554470990477796,26.293632321576808,26.86700811355248,27.440383905529963,28.013759697509293,28.587135489490457,29.160511281473479,29.733887073458312,30.307262865444958,30.880638657433472,31.454014449423806,31.923077372669436,32.235668527845412,32.548259683023296,32.860850838202978,33.173441993384536,33.486033148567948,33.798624303753215,34.111215458940322,34.42380661412929,34.736397769320106,34.932323535713387,34.985655820823737,35.038988105935992,35.092320391050109,35.145652676166129,35.198984961284019,35.252317246403777,35.305649531525425,35.358981816648935,35.412314101774314,34.943035263789021,34.744656795736034,34.546278327684973,34.347899859635845,34.149521391588593,33.951142923543273,33.752764455499886,33.554385987458332,33.224244051975141,32.7862933786812,32.348342705389179,31.910392032099111,31.472441358811004,31.034490685524823,30.596540012240585,30.158589338958318,29.720638665677967,29.282687992399591,28.710145301271744,28.047872477939865,27.385599654609948,26.723326831282044,26.061054007956116,25.398781184632156,24.736508361310218,24.074235537990255,23.411962714672271,22.749689891356294,21.952606224530481,21.082930143121491,20.213254061714526,19.343577980309604,18.473901898906703,17.60422581750586,16.734549736107031,15.864873654710262,14.995197573315506,14.1255214919228,13.122755736707976,12.062949303454339,11.003142870202716,9.94333643695326,8.8835300037058342,7.8237235704605412,6.7639171372173319,5.7041107039761805,4.6443042707371491,3.5844978375001983,2.3944261780316727,1.1609311347750733,-0.072563908479398642,-1.3060589517317429,-2.5395539949819317,-3.7730490382300323,-5.0065440814759414,-6.2400391247197389,-7.4735341679614429,-8.7070292112009575,-10.06766316301502,-11.460083344138384,-12.852503525259523,-14.2449237063784,-15.637343887495033,-17.029764068609381,-18.422184249721489,-19.814604430831331,-21.207024611938905,-22.599444793044274,-24.116712903278955,-25.656014389333428,-27.195315875385667,-28.734617361435749,-30.273918847483579,-31.813220333529227,-33.352521819572651,-34.891823305613869,-36.431124791652927,-37.970426277689761,-39.633605859813571,-41.310550975847065,-42.987496091878249,-44.664441207906975,-46.341386323933378,-48.018331439957258,-49.695276555978822,-51.372221671997885,-53.049166788014652,-54.726111904028954,-56.528618523936672,-58.337734893335181,-60.146851262731239,-61.955967632124796,-63.765084001515952,-65.5742003709047,-67.383316740290937,-69.192433109674681,-71.001549479056,-72.810665848434823,0.36294411239766211,0.36294411239766211,0.36294411239766211,0.36294411239766211,0.36294411239766211,0.36294411239766211,0.36294411239766211,0.36294411239766211,0.36294411239766211,0.36294411239766211,0.36294411239766211,0.36294411239766211
DP 289,68.287732627023843,0.0010176806338706888,-17.538136790435381,-17.155544324628917,-16.77295185882187,-16.390359393014283,-16.007766927206145,-15.625174461397433,-15.24258199558817,-14.859989529778366,-14.477397063967977,-14.094804598157035,-13.712603238341439,-13.337832966383784,-12.963062694425581,-12.588292422466809,-12.213522150507474,-11.83875187854759,-11.463981606587142,-11.089211334626143,-10.714441062664568,-10.339670790702442,-9.96652635769624,-9.60801462897504,-9.2495029002532778,-8.8909911715309686,-8.532479442808091,-8.1739677140846574,-7.8154559853606669,-7.4569442566361133,-7.0984325279110179,-6.739920799185346,-6.3850148652246848,-6.0505419954856423,-5.7160691257460341,-5.381596256005845,-5.0471233862650937,-4.712650516523766,-4.3781776467818645,-4.04370477703939,-3.7092319072963487,-3.3747590375527334,-3.0465697466321706,-2.7435150679725333,-2.440460389312324,-2.1374057106515414,-1.834351031990185,-1.5312963533282504,-1.2282416746657439,-0.925186996002661,-0.62213231733900587,-0.31907763867477623,-0.025584886523437052,0.239221724564872,0.50402833565376592,0.76883494674324582,1.0336415578333114,1.2984481689239638,1.563254780015199,1.8280613911070229,2.0928680021994288,2.3576746132924207,2.6091436721169163,2.8294912503633869,3.0498388286104454,3.2701864068581061,3.4905339851063619,3.7108815633552159,3.9312291416046672,4.1515767198547184,4.37192429810536,4.5922718763566044,4.7951236283715595,4.9654826591667476,5.1358416899625423,5.3062007207589552,5.4765597515559641,5.6469187823536009,5.8172778131518417,5.9876368439506882,6.1579958747501458,6.3283549055502144,6.47679258806723,6.5923477301497613,6.7079028722329319,6.8234580143167234,6.9390131564011392,7.0545682984861884,7.1701234405718539,7.2856785826581465,7.4012337247450732,7.516788866832611,7.605840355038552,7.6624979317969757,7.7191555085560424,7.7758130853157494,7.8324706620760924,7.8891282388370909,7.9457858155987209,8.0024433923610019,8.0591009691239179,8.1157585458874841,8.1299943390072062,8.1243570231404849,8.1187197072744279,8.1130823914090264,8.1074450755442911,8.1018077596802112,8.0961704438167921,8.0905331279540427,8.0491273714323448,7.9784559123925938,7.9077844533535329,7.837112994315147,7.766441535277445,7.6957700762404295,7.6250986172040847,7.55442715816843,7.4837556991334573,7.41308424009917,7.3021063195267022,7.1642567896249378,7.0264072597238734,6.8885577298235132,6.7507081999238672,6.6128586700249166,6.4750091401266738,6.3371596102291372,6.1993100803323022,6.0614605504361645,5.8788911387353524,5.6722411403728428,5.46559114201106,5.2589411436500031,5.05229114528968,4.8456411469300749,4.6389911485712014,4.43234115021306,4.2256911518556386,4.0190411534989474,3.7634051563900277,3.48677433298855,3.2101435095878168,2.933512686187854,2.6568818627886359,2.3802510393901812,2.1036202159924775,1.8269893925955265,1.5503585691993393,1.2737277458039036,0.94398698211273291,0.5965422356538872,0.24909748919581498,-0.098347257261480664,-0.44579200371799332,-0.7932367501737414,-1.1406814966286976,-1.4881262430828819,-1.8355709895362979,-2.1830157359889251,-2.5875277321611461,-3.0063072150217089,-3.4250866978814529,-3.843866180740354,-4.2626456635984287,-4.6814251464556618,-5.10020462931207,-5.5189841121676491,-5.9377635950223873,-6.3565430778763083,-6.8362960196770173,-7.3268096616783831,-7.8173233036789149,-8.3078369456786714,-8.79835058767758,-9.28886422967569,-9.77937787167299,-10.269891513669471,-10.760405155665133,-11.250918797659999,-11.806112966915137,-12.368494540719313,-12.930876114522599,-13.493257688324963,-14.055639262126462,-14.618020835927036,-15.180402409726726,-15.742783983525479,-16.305165557323374,-16.86754713112035,-17.498349112297689,-18.132752848303276,-18.767156584307966,-19.401560320311717,-20.03596405631454,-20.670367792316451,-21.304771528317449,-21.939175264317477,-22.57357900031662,-23.207982736314808,0.13209280521619113,0.13209280521619113,0.13209280521619113,0.13209280521619113,0.13209280521619113,0.13209280521619113,0.13209280521619113,0.13209280521619113,0.13209280521619113,0.13209280521619113,0.13209280521619113,0.13209280521619113
DP 290,231.68189701220146,0.0013248398780477126,-57.179182682740326,-55.628113813576405,-54.077044944411384,-52.525976075245332,-50.974907206078221,-49.42383833691,-47.87276946774081,-46.321700598570509,-44.770631729399177,-43.219562860226752,-41.671351467830227,-40.177432674384541,-38.683513880937866,-37.189595087490154,-35.69567629404137,-34.20175750059154,-32.707838707140645,-31.213919913688734,-29.720001120235736,-28.226082326781707,-26.743651477571149,-25.364613212420767,-23.985574947269367,-22.606536682116982,-21.227498416963549,-19.848460151809121,-18.46942188665367,-17.090383621497185,-15.711345356339695,-14.332307091181201,-12.977515896343906,-11.760126294581985,-10.542736692819018,-9.32534709105501,-8.1079574892899764,-6.8905678875239129,-5.6731782857568,-4.4557886839886631,-3.2383990822194946,-2.0210094804492882,-0.84306351800752077,0.1771060229791406,1.1972755639668116,2.2174451049555044,3.2376146459452024,4.2577841869359219,5.27795372792766,6.2981232689204116,7.31829280991417,8.33846235090895,9.3035979195870855,10.103629490554926,10.903661061523785,11.703692632493663,12.503724203464561,13.303755774436464,14.103787345409403,14.903818916383358,15.703850487358306,16.5038820583343,17.234774629396455,17.804340144357553,18.37390565931965,18.943471174282791,19.513036689246935,20.082602204212094,20.652167719178294,21.221733234145503,21.791298749113725,22.360864264082991,22.850144932717519,23.190323004260165,23.530501075803837,23.870679147348511,24.21085721889423,24.551035290440986,24.891213361988722,25.231391433537524,25.571569505087343,25.91174757663817,26.164346997426481,26.285576372554569,26.406805747683677,26.52803512281384,26.649264497944987,26.770493873077221,26.891723248210479,27.012952623344756,27.134181998480045,27.25541137361639,27.285908721135375,27.20550946242728,27.125110203720258,27.044710945014288,26.964311686309337,26.883912427605438,26.80351316890259,26.723113910200734,26.642714651499983,26.562315392800258,25.871203697394677,25.610838530764525,25.350473364135457,25.090108197507405,24.829743030880429,24.569377864254488,24.309012697629623,24.048647531005802,23.702329439849024,23.285684751457371,22.869040063066784,22.452395374677256,22.035750686288797,21.619105997901411,21.2024613095151,20.785816621129882,20.369171932745708,19.952527244362624,19.4563900972561,18.907256725377486,18.358123353499948,17.808989981623494,17.259856609748141,16.710723237873875,16.161589866000707,15.612456494128633,15.06332312225765,14.51418975038775,13.893529613679604,13.23435402501114,12.575178436343817,11.916002847677591,11.256827259012486,10.597651670348483,9.9384760816856019,9.2793004930238485,8.6201249043631964,7.9609493157036662,7.2388317938248008,6.4897380953213029,5.7406443968189116,4.9915506983176972,4.2424569998175974,3.4933633013186633,2.7442696028208662,1.9951759043241895,1.2460822058286767,0.49698850733429795,-0.30664087178164656,-1.1284494984086717,-1.9502581250345394,-2.7720667516592452,-3.5938753782827764,-4.4156840049051738,-5.2374926315263677,-6.0593012581464123,-6.8811098847653236,-7.702918511383035,-8.5716445159150254,-9.4521004192612885,-10.332556322606353,-11.213012225950177,-12.093468129292773,-12.973924032634137,-13.854379935974277,-14.734835839313192,-15.615291742650882,-16.49574764598739,-17.41693704420253,-18.345315159181581,-19.273693274159402,-20.202071389136076,-21.130449504111493,-22.058827619085747,-22.987205734058787,-23.915583849030604,-24.843961964001263,-25.772340078970736,-26.736935441674369,-27.705555323380882,-28.674175205086094,-29.642795086789995,-30.611414968492632,-31.580034850193918,-32.548654731893933,-33.51727461359264,-34.485894495290047,-35.454514376986168,-36.457141725128714,-37.461559278286167,-38.465976831442262,-39.470394384597121,-40.47481193775058,-41.479229490902782,-42.483647044053669,-43.488064597203135,-44.492482150351357,-45.496899703498194,0.19670588510677006,0.19670588510677006,0.19670588510677006,0.19670588510677006,0.19670588510677006,0.19670588510677006,0.19670588510677006,0.19670588510677006,0.19670588510677006,0.19670588510677006,0.19670588510677006,0.19670588510677006
DP 291,163.88487894562658,0.0037785239135578507,-125.51012640729641,-122.30724876701713,-119.10437112673469,-115.90149348644944,-112.69861584616105,-109.49573820586983,-106.29286056557561,-103.08998292527836,-99.8871052849782,-96.6842276446751,-93.486218726511552,-90.380716449459641,-87.275214172404759,-84.169711895346964,-81.064209618286213,-77.958707341222464,-74.853205064155773,-71.747702787086155,-68.642200510013453,-65.5366982329379,-62.451010322285022,-59.543653582348661,-56.636296842409415,-53.728940102467284,-50.82158336252224,-47.914226622574425,-45.006869882623604,-42.099513142669991,-39.192156402713486,-36.284799662754111,-33.420063367033613,-30.796845607719604,-28.173627848402653,-25.550410089082739,-22.927192329759922,-20.303974570434168,-17.680756811105478,-15.057539051773873,-12.434321292439327,-9.811103533101857,-7.2590607115858479,-4.9917210051496035,-2.7243812987104867,-0.45704159226847052,1.8102981141764114,4.0776378206242034,6.344977527074863,8.6123172335284224,10.879656939984855,13.146996646444174,15.311699948289627,17.168490155747275,19.02528036320783,20.882070570671278,22.738860778137617,24.595650985606866,26.452441193079036,28.309231400554062,30.166021608031997,32.022811815512846,33.745458364170844,35.155097759132723,36.5647371540975,37.97437654906517,39.384015944035781,40.793655339009312,42.203294733985736,43.612934128965072,45.022573523947351,46.4322129189325,47.678792279945817,48.622541459958462,49.566290639973971,50.510039819992443,51.453789000013785,52.397538180038104,53.34128736006538,54.285036540095554,55.228785720128649,56.172534900164713,56.928978949559166,57.404460876900274,57.879942804244351,58.355424731591334,58.830906658941338,59.306388586294247,59.781870513650141,60.257352441009054,60.732834368370931,61.208316295735621,61.4783030521567,61.497124727711274,61.515946403268885,61.53476807882948,61.553589754393059,61.572411429959573,61.591233105529142,61.610054781101695,61.628876456677318,61.647698132255847,60.61910588261356,60.203903827162527,59.788701771714486,59.373499716269571,58.95829766082759,58.5430956053887,58.127893549952873,57.712691494520023,57.075544981600878,56.256803734645779,55.438062487693806,54.619321240744874,53.800579993799062,52.981838746856383,52.163097499916745,51.344356252980326,50.52561500604687,49.70687375911654,48.667127810677528,47.480041912953446,46.292956015232583,45.1058701175148,43.918784219800251,42.731698322088832,41.54461242438056,40.357526526675429,39.170440628973523,37.983354731274765,36.580912179109163,35.0625052197987,33.544098260491538,32.025691301187564,30.507284341886887,28.988877382589362,27.470470423295126,25.952063464004159,24.43365650471636,22.915249545431838,21.190377149777692,19.377016082208304,17.563655014642173,15.750293947079413,13.936932879519954,12.123571811963837,10.310210744411027,8.4968496768614816,6.6834886093153063,4.8701275417724341,2.8607662314673727,0.78606903675004791,-1.2886281579639052,-3.3633253526744817,-5.43802254738164,-7.5127197420854932,-9.5874169367858642,-11.662114131482882,-13.736811326176575,-15.811508520866818,-18.071714457257606,-20.378299770887498,-22.68488508451388,-24.991470398136666,-27.298055711755875,-29.604641025371503,-31.911226338983585,-34.217811652592061,-36.524396966196953,-38.830982279798363,-41.314556280085426,-43.82936554616149,-46.344174812234,-48.858984078303173,-51.373793344368679,-53.888602610430745,-56.403411876489294,-58.918221142544454,-61.433030408596018,-63.947839674644143,-66.634025408418324,-69.339254771795282,-72.0444841351684,-74.749713498537744,-77.454942861903319,-80.160172225265,-82.865401588623,-85.570630951977,-88.275860315327378,-90.981089678673854,-93.857208914559038,-96.7423240545463,-99.627439194529586,-102.51255433450906,-105.39766947448476,-108.28278461445666,-111.16789975442448,-114.0530148943885,-116.93813003434876,-119.82324517430489,0.57467272007895542,0.57467272007895542,0.57467272007895542,0.57467272007895542,0.57467272007895542,0.57467272007895542,0.57467272007895542,0.57467272007895542,0.57467272007895542,0.57467272007895542,0.57467272007895542,0.57467272007895542
DP 292,97.905672214640887,0.0039031167268744854,-86.676870165267673,-84.657113787229775,-82.637357409189249,-80.617601031145981,-78.59784465310004,-76.578088275051442,-74.558331897000173,-72.5385755189462,-70.518819140889676,-68.49906276283032,-66.481690164894886,-64.509609840001673,-62.537529515105675,-60.565449190207083,-58.59336886530582,-56.621288540401885,-54.64920821549525,-52.677127890585972,-50.705047565674,-48.732967240759358,-46.770722858168185,-44.89700288621983,-43.023282914268876,-41.149562942315285,-39.275842970359065,-37.402122998400273,-35.528403026438831,-33.654683054474788,-31.780963082508116,-29.90724311053884,-28.055111270222664,-26.325313536318394,-24.595515802411452,-22.865718068501828,-21.135920334589557,-19.406122600674589,-17.676324866756921,-15.946527132836595,-14.216729398913611,-12.486931664987933,-10.794214074879264,-9.24981881248413,-7.7054235500863557,-6.1610282876859142,-4.6166330252828347,-3.0722377628770885,-1.5278425004686944,0.016552761942362819,1.5609480243560641,3.1053432867724209,4.5943348315568668,5.9171131287023595,7.2398914258505336,8.5626697230013917,9.8854480201549357,11.20822631731116,12.531004614470065,13.85378291163167,15.176561208795926,16.499339505962894,17.746518222964241,18.817294942170221,19.888071661378905,20.9588483805903,22.029625099804417,23.100401819021222,24.171178538240785,25.241955257463033,26.312731976687957,27.383508695915658,28.357629654232802,29.152244446271933,29.946859238313817,30.741474030358471,31.536088822405848,32.330703614455963,33.125318406508853,33.919933198564493,34.714547990622862,35.509162782683973,36.186145693598853,36.686678003108106,37.187210312620181,37.687742622135005,38.188274931652678,38.68880724117313,39.189339550696346,39.689871860222368,40.1904041697512,40.6909364792828,41.053749869180983,41.248237242327605,41.442724615477118,41.637211988629488,41.831699361784665,42.026186734942691,42.220674108103609,42.415161481267312,42.6096488544339,42.804136227603308,42.606120936580773,42.488016754616005,42.369912572654137,42.251808390695118,42.13370420873904,42.01560002678589,41.897495844835596,41.779391662888237,41.488334620656566,41.055767720419247,40.623200820184948,40.190633919953633,39.75806701972526,39.325500119499893,38.892933219277467,38.46036631905806,38.027799418841596,37.595232518628087,36.975132657360675,36.230007867744263,35.484883078130927,34.739758288520548,33.994633498913281,33.249508709309033,32.504383919707905,31.75925913010979,31.014134340514726,30.269009550922743,29.323786737703724,28.270815925063964,27.21784511242738,26.164874299793919,25.111903487163591,24.058932674536372,23.005961861912311,21.952991049291427,20.900020236673615,19.84704942405898,18.58316224902444,17.22887878721237,15.874595325403499,14.520311863597936,13.166028401795556,11.811744939996426,10.457461478200548,9.103178016407858,7.7488945546184462,6.3946110928322533,4.8198523106186091,3.1715989763153196,1.52334564201533,-0.12490769228135264,-1.7731610265746935,-3.4214143608647825,-5.0696676951514821,-6.7179210294348968,-8.3661743637150554,-10.014427697991829,-11.891892005695981,-13.826661764920178,-15.761431524140921,-17.696201283358103,-19.630971042571769,-21.565740801781878,-23.500510560988502,-25.435280320191595,-27.370050079391124,-29.3048198385872,-31.477743452207708,-33.692696864913678,-35.907650277616135,-38.122603690315252,-40.337557103010838,-42.552510515703055,-44.76746392839177,-46.982417341077038,-49.197370753758918,-51.412324166437372,-53.874584242212485,-56.364325433411715,-58.854066624607206,-61.343807815798819,-63.833549006986836,-66.323290198170923,-68.8130313893513,-71.302772580527773,-73.792513771700655,-76.282254962869686,-79.0301412983276,-81.791616788767456,-84.553092279203469,-87.314567769635516,-90.076043260063827,-92.837518750488357,-95.598994240908866,-98.36046973132548,-101.12194522173839,-103.88342071214733,0.56487690633940724,0.56487690633940724,0.56487690633940724,0.56487690633940724,0.56487690633940724,0.56487690633940724,0.56487690633940724,0.56487690633940724,0.56487690633940724,0.56487690633940724,0.56487690633940724,0.56487690633940724
DP 293,73.086247815183611,0.0055354691768715776,-99.821265680109633,-97.616156800531343,-95.411047920950054,-93.205939041365525,-91.000830161777785,-88.79572128218696,-86.590612402592882,-84.38550352299572,-82.180394643395317,-79.975285763791689,-77.7724848793024,-75.613536338355956,-73.454587797406361,-71.295639256453541,-69.136690715497465,-66.977742174538278,-64.818793633575737,-62.659845092610148,-60.500896551641354,-58.341948010669249,-56.19258144414102,-54.129453553337264,-52.066325662530325,-50.003197771720252,-47.940069880906989,-45.876941990090558,-43.8138140992709,-41.7506862084481,-39.687558317622127,-37.624430426792912,-35.582517308775259,-33.660822573542639,-31.739127838306803,-29.817433103067632,-27.895738367825292,-25.974043632579651,-24.052348897330745,-22.130654162078574,-20.208959426823178,-18.287264691564506,-16.402453139403008,-14.66517606276892,-12.927898986131588,-11.190621909490975,-9.453344832847117,-7.7160677561999762,-5.978790679549582,-4.2415136028959184,-2.5042365262390009,-0.76695944957882178,0.91436045391219078,2.4278067222258817,3.9412529905428868,5.4546992588632079,6.96814552718686,8.4815917955138271,9.9950380638441025,11.508484332177717,13.021930600514617,14.535376868854859,15.971042327082477,17.225216165068208,18.479390003057333,19.733563841049815,20.987737679045672,22.24191151704493,23.496085355047551,24.750259193053559,26.004433031062923,27.258606869075667,28.411172358064388,29.3750338833849,30.33889540870884,31.30275693403626,32.266618459367095,33.23047998470139,34.194341510039138,35.158203035380332,36.122064560724922,37.085926086073,37.923063444792135,38.570111559027183,39.217159673265748,39.864207787507823,40.511255901753458,41.158304016002596,41.80535213025523,42.452400244511445,43.099448358771113,43.74649647303437,44.241098297240484,44.549373675943087,44.857649054649308,45.165924433359173,45.474199812072641,45.782475190789746,46.090750569510384,46.3990259482347,46.707301326962607,47.01557670569413,47.049450350780667,47.001344059367064,46.953237767957155,46.905131476550913,46.857025185148487,46.808918893749691,46.760812602354626,46.712706310963235,46.461122935113025,46.043054811442843,45.62498668777657,45.206918564114069,44.7888504404554,44.370782316800536,43.952714193149525,43.534646069502294,43.116577945858928,42.698509822219357,42.0524614897393,41.25442275986417,40.456384029993025,39.658345300125745,38.860306570262452,38.062267840403088,37.26422911054766,36.466190380696204,35.668151650848685,34.87011292100506,33.820572977670039,32.6356056467257,31.450638315785465,30.265670984849283,29.080703653917123,27.895736322989062,26.71076899206501,25.525801661145064,24.340834330229175,23.15586699931734,21.696922860726072,20.120555465858896,18.544188070995865,16.967820676137119,15.391453281282546,13.815085886432218,12.238718491586104,10.662351096744173,9.0859837019064873,7.5096163070730286,5.637722964766529,3.6673172488378896,1.6969115329135742,-0.27349418300642026,-2.2438998989220487,-4.2143056148334184,-6.1847113307403667,-8.1551170466430136,-10.125522762541388,-12.095928478435365,-14.382439925048427,-16.747981539179666,-19.113523153306364,-21.479064767428376,-23.844606381545809,-26.210147995658573,-28.575689609766698,-30.941231223870197,-33.306772837969106,-35.672314452063432,-38.374326519148482,-41.135719466596107,-43.897112414039157,-46.658505361477772,-49.419898308911833,-52.18129125634136,-54.942684203766333,-57.704077151186844,-60.465470098602779,-63.22686304601423,-66.344175638145089,-69.501038595461623,-72.657901552773268,-75.814764510079812,-78.97162746738158,-82.128490424678091,-85.285353381969671,-88.442216339256248,-91.59907929653788,-94.755942253814425,-98.288643896126715,-101.84113026130613,-105.39361662648051,-108.94610299164957,-112.49858935681365,-116.05107572197274,-119.60356208712649,-123.15604845227516,-126.70853481741882,-130.26102118255713,0.73717468487256455,0.73717468487256455,0.73717468487256455,0.73717468487256455,0.73717468487256455,0.73717468487256455,0.73717468487256455,0.73717468487256455,0.73717468487256455,0.73717468487256455,0.73717468487256455,0.73717468487256455
DP 294,159.99984126576834,0.0013808590931727843,-45.010293299755688,-43.866452724359469,-42.722612148962085,-41.578771573563685,-40.434930998164219,-39.291090422763595,-38.147249847361948,-37.003409271959185,-35.859568696555378,-34.715728121150477,-33.573604593839725,-32.464105304937014,-31.354606016033202,-30.245106727128324,-29.135607438222323,-28.02610814931527,-26.916608860407145,-25.807109571497914,-24.697610282587611,-23.588110993676256,-22.485604596932689,-21.446034890688431,-20.406465184443118,-19.366895478196756,-18.327325771949347,-17.287756065700904,-16.248186359451385,-15.208616653200824,-14.169046946949223,-13.129477240696581,-12.104966144966095,-11.165788124443631,-10.226610103920097,-9.2874320833954958,-8.3482540628698256,-7.4090760423430879,-6.4698980218152773,-5.5307200012863955,-4.5915419807564541,-3.6523639602254403,-2.7383722541278046,-1.9251269960924604,-1.1118817380560668,-0.29863648001861703,0.51460877801987681,1.3278540360594311,2.1410992941000346,2.9543445521416936,3.7675898101843979,4.5808350682281569,5.3576901441741045,6.0253732979620773,6.6930564517511044,7.3607396055411849,8.0284227593323312,8.6961059131245371,9.3637890669177981,10.031472220712111,10.699155374507473,11.366838528303912,11.986848286463704,12.495618243903987,13.004388201345328,13.513158158787745,14.021928116231209,14.530698073675739,15.039468031121341,15.548237988567985,16.057007946015712,16.565777903464504,17.016439222489439,17.359182929436329,17.701926636384279,18.044670343333319,18.387414050283407,18.730157757234579,19.072901464186803,19.41564517114012,19.7583888780945,20.101132585049918,20.376918390366797,20.552265760985236,20.727613131604738,20.902960502225341,21.078307872847031,21.253655243469797,21.429002614093609,21.604349984718532,21.779697355344531,21.955044725971614,22.056675052224225,22.068205220275932,22.079735388328707,22.091265556382595,22.102795724437549,22.114325892493607,22.125856060550763,22.137386228609028,22.148916396668376,22.160446564728808,21.80428806366265,21.659518334154789,21.514748604648076,21.369978875142436,21.225209145637933,21.080439416134524,20.935669686632242,20.79089995713106,20.565864284418712,20.275155096924184,19.984445909430761,19.693736721938471,19.403027534447322,19.112318346957316,18.821609159468423,18.530899971980681,18.240190784494033,17.949481597008528,17.578476692126095,17.153940044035039,16.729403395945127,16.304866747856355,15.880330099768779,15.455793451682309,15.031256803597017,14.606720155512882,14.182183507429912,13.757646859348069,13.254474878068741,12.708959650803054,12.163444423538568,11.617929196275243,11.072413969013132,10.526898741752181,9.9813835144924141,9.4358682872338537,8.890353059976464,8.3448378327202519,7.7235297901855713,7.0697378332358252,6.4159458762872568,5.7621539193399345,5.1083619623937953,4.4545700054488906,3.8007780485051934,3.1469860915626944,2.493194134621417,1.8394021776813525,1.1132544450194353,0.362987208562513,-0.38728002789317639,-1.1375472643476323,-1.8878145008008398,-2.6380817372528358,-3.3883489737035637,-4.1386162101530681,-4.888883446601354,-5.6391506830483777,-6.45829184413282,-7.2946523001325181,-8.1310127561309233,-8.96737321212802,-9.8037336681238116,-10.64009412411829,-11.476454580111474,-12.312815036103338,-13.149175492093907,-13.985535948083191,-14.887963412889249,-15.802050496278403,-16.716137579666274,-17.630224663052878,-18.5443117464382,-19.458398829822247,-20.372485913205026,-21.286572996586518,-22.200660079966745,-23.114747163345687,-24.093103915665552,-25.078602417294647,-26.064100918922374,-27.049599420548702,-28.035097922173659,-29.0205964237972,-30.006094925419386,-30.991593427040115,-31.977091928659522,-32.962590430277523,-34.01237745490517,-35.06554872565151,-36.118719996396408,-37.171891267139941,-38.225062537882025,-39.278233808622737,-40.331405079362078,-41.384576350099891,-42.437747620836348,-43.490918891571376,0.21003953453259433,0.21003953453259433,0.21003953453259433,0.21003953453259433,0.21003953453259433,0.21003953453259433,0.21003953453259433,0.21003953453259433,0.21003953453259433,0.21003953453259433,0.21003953453259433,0.21003953453259433
DP 295,165.05855949004942,0.0032684011303143615,-109.1753043518073,-106.3858188149735,-103.59633327813708,-100.80684774129818,-98.0173622044567,-95.227876667612577,-92.438391130765993,-89.648905593916723,-86.8594200570649,-84.0699345202106,-81.284705496790082,-78.580351033329777,-75.87599656986697,-73.171642106401535,-70.467287642933584,-67.76293317946309,-65.058578715989981,-62.354224252514342,-59.649869789036124,-56.945515325555355,-54.258478696273073,-51.727304211709409,-49.196129727143187,-46.664955242574507,-44.133780758003354,-41.602606273429686,-39.071431788853523,-36.540257304274895,-34.009082819693766,-31.477908335110168,-28.983972009192627,-26.701054262271828,-24.418136515348465,-22.135218768422561,-19.852301021494142,-17.56938327456319,-15.286465527629691,-13.003547780693635,-10.720630033755059,-8.4377122868139534,-6.2169529416197218,-4.2448301410768989,-2.2727073405315905,-0.3005845399837746,1.6715382605665206,3.6436610611193356,5.6157838616746316,7.5879066622324336,9.560029462792734,11.532152263355524,13.414693297612887,15.028485645986324,16.642277994362257,18.25607034274071,19.869862691121693,21.48365503950517,23.097447387891151,24.711239736279648,26.325032084670628,27.938824433064138,29.435618702409023,30.65941284612536,31.883206989844222,33.107001133565667,34.330795277289539,35.554589421015976,36.778383564744942,38.00217770847641,39.225971852210371,40.449765995946919,41.531459005823926,42.349246072356614,43.167033138891846,43.984820205429614,44.8026072719699,45.620394338512746,46.438181405058145,47.255968471606039,48.073755538156476,48.891542604709478,49.546251784368778,49.9563402800955,50.366428775824787,50.776517271556614,51.186605767291,51.596694263027906,52.006782758767478,52.416871254509566,52.8269597502542,53.237048246001379,53.468410113402342,53.481324569823123,53.494239026246504,53.507153482672415,53.520067939101,53.5329823955321,53.545896851965828,53.558811308402127,53.571725764841069,53.584640221282569,52.680761478583754,52.316626377441381,51.952491276301735,51.588356175164691,51.224221074030268,50.8600859728985,50.495950871769345,50.131815770642845,49.575116553936844,48.860861569677539,48.146606585420891,47.432351601166843,46.718096616915524,46.003841632666891,45.289586648420929,44.575331664177696,43.861076679937042,43.146821695699124,42.241082725400737,41.207684747839423,40.174286770280894,39.140888792725065,38.107490815171971,37.074092837621578,36.04069486007397,35.007296882529118,33.973898904986932,32.940500927447495,31.720791775119352,30.40075851169118,29.080725248265875,27.760691984843358,26.440658721423645,25.120625458006728,23.800592194592578,22.480558931181339,21.1605256677728,19.840492404367115,18.342126932901703,16.767330362224882,15.19253379155084,13.617737220879755,12.042940650211492,10.468144079546127,8.8933475088836289,7.3185509382239546,5.7437543675672,4.1689577969133,2.4251531994082947,0.62501046297310547,-1.1751322734591665,-2.9752750098885166,-4.7754177463149139,-6.5755604827384388,-8.3757032191589715,-10.175845955576598,-11.975988691991345,-13.776131428403119,-15.735960116518745,-17.735712179274124,-19.735464242026467,-21.735216304775694,-23.734968367521866,-25.734720430264893,-27.734472493004841,-29.734224555741715,-31.733976618475474,-33.733728681206209,-35.885584216541233,-38.064283232570979,-40.2429822485976,-42.42168126462132,-44.600380280641922,-46.779079296659553,-48.957778312674108,-51.136477328685693,-53.315176344694244,-55.4938753606998,-57.819646458715717,-60.161760443779421,-62.5038744288399,-64.845988413897061,-67.188102398950932,-69.530216384001534,-71.872330369048854,-74.2144443540928,-76.556558339133574,-78.898672324171059,-81.387301207891483,-83.883642859832136,-86.379984511769592,-88.876326163703553,-91.372667815634216,-93.869009467561554,-96.365351119485709,-98.861692771406211,-101.35803442332345,-103.85437607523734,0.49704975518165184,0.49704975518165184,0.49704975518165184,0.49704975518165184,0.49704975518165184,0.49704975518165184,0.49704975518165184,0.49704975518165184,0.49704975518165184,0.49704975518165184,0.49704975518165184,0.49704975518165184
DP 296,83.832857270622341,0.0036809288153145116,-72.993016102508761,-71.33944968486108,-69.685883267211,-68.032316849558612,-66.378750431903882,-64.725184014246864,-63.071617596587522,-61.4180511789258,-59.764484761261791,-58.110918343595429,-56.459176614938976,-54.842104322459548,-53.2250320299778,-51.607959737493715,-49.990887445007331,-48.373815152518596,-46.756742860027536,-45.139670567534189,-43.522598275038462,-41.905525982540439,-40.296010676604716,-38.754508964047872,-37.213007251488705,-35.671505538927264,-34.130003826363534,-32.5885021137975,-31.047000401229166,-29.505498688658555,-27.963996976085632,-26.422495263510442,-24.897658119630869,-23.467254581813467,-22.036851043993689,-20.606447506171584,-19.17604396834713,-17.745640430520321,-16.315236892691154,-14.884833354859634,-13.454429817025785,-12.024026279189572,-10.622442438112358,-9.3361387461202572,-8.0498350541258255,-6.7635313621290516,-5.4772276701299578,-4.1909239781284988,-2.9046202861247146,-1.6183165941185806,-0.33201290211011675,0.954290789900689,2.1971605911792307,3.3097270780809911,4.4222935649851216,5.5348600518916227,6.6474265388005032,7.7599930257117391,8.87255951262536,9.9851259995413528,11.097692486459694,12.210258973380434,13.26294257793012,14.175897098524498,15.088851619121289,16.001806139720486,16.914760660322081,17.827715180926113,18.740669701532521,19.653624222141332,20.566578742752558,21.4795332633662,22.314986501436529,23.00650669319964,23.698026884965167,24.389547076733152,25.081067268503606,25.772587460276494,26.464107652051815,27.155627843829595,27.847148035609809,28.538668227392456,29.134552366706032,29.586980167399396,30.039407968095304,30.491835768793685,30.944263569494517,31.3966913701979,31.849119170903741,32.301546971612083,32.75397477232292,33.206402573036229,33.545120628860509,33.744857719150438,33.944594809442954,34.144331899737935,34.344068990035467,34.543806080335578,34.743543170638226,34.943280260943432,35.143017351251196,35.342754441561489,35.285744672897387,35.222992851161884,35.160241029429031,35.097489207698771,35.034737385971113,34.971985564246062,34.909233742523647,34.846481920803804,34.6358457946184,34.304210877827416,33.9725759610391,33.640941044253481,33.309306127470514,32.977671210690232,32.646036293912644,32.3144013771377,31.982766460365458,31.651131543595895,31.156069860382118,30.552054424984419,29.948038989589463,29.344023554197253,28.740008118807832,28.135992683421119,27.531977248037194,26.927961812656015,26.32394637727759,25.719930941901925,24.938107553395341,24.06053883525642,23.182970117120338,22.305401398987097,21.427832680856717,20.550263962729154,19.672695244604441,18.7951265264826,17.917557808363572,17.039989090247406,15.971327141129093,14.820764867575992,13.67020259402576,12.519640320478528,11.3690780469342,10.218515773392836,9.0679534998543883,7.9173912263188395,6.76682895278626,5.6162666792566016,4.2621905085334753,2.840273807227335,1.4183571059241877,-0.0035595953759554738,-1.4254762966730681,-2.8473929979672259,-4.2693096992583124,-5.6912264005464168,-7.1131431018315592,-8.53505980311364,-10.172192933617815,-11.863132714243083,-13.554072494865196,-15.245012275484084,-16.935952056099769,-18.626891836712232,-20.317831617321513,-22.008771397927571,-23.699711178530432,-25.390650959130127,-27.308485666494445,-29.266363178156464,-31.224240689815286,-33.1821182014711,-35.139995713123639,-37.097873224773146,-39.055750736419441,-41.013628248062666,-42.971505759702744,-44.929383271339709,-47.1255350372472,-49.348164222736777,-51.570793408222848,-53.7934225937054,-56.016051779184743,-58.238680964660482,-60.461310150132825,-62.683939335601551,-64.906568521066987,-67.129197706528927,-69.602300290551668,-72.0885881771346,-74.5748760637141,-77.061163950289952,-79.547451836862322,-82.033739723431253,-84.520027609996674,-87.006315496558386,-89.492603383116617,-91.978891269671337,0.51247268589108386,0.51247268589108386,0.51247268589108386,0.51247268589108386,0.51247268589108386,0.51247268589108386,0.51247268589108386,0.51247268589108386,0.51247268589108386,0.51247268589108386,0.51247268589108386,0.51247268589108386
DP 297,203.97240683246162,0.0020478429302217488,-80.493332298052877,-78.359152019979,-76.224971741903474,-74.090791463826193,-71.95661118574732,-69.8224309076668,-67.688250629584672,-65.554070351500854,-63.419890073415466,-61.285709795328344,-59.155183326768132,-57.094079929980495,-55.032976533191281,-52.971873136400326,-50.910769739607851,-48.849666342813727,-46.788562946018004,-44.727459549220605,-42.666356152421621,-40.605252755621009,-38.558911386600023,-36.645429662941488,-34.73194793928139,-32.818466215619758,-30.904984491956519,-28.991502768291689,-27.078021044625302,-25.164539320957321,-23.251057597287772,-21.337575873616661,-19.455491339888813,-17.751326194325095,-16.047161048759779,-14.34299590319285,-12.638830757624337,-10.934665612054211,-9.2305004664824732,-7.5263353209091282,-5.8221701753341932,-4.1180050297576472,-2.4654588922475131,-1.0193912265638521,0.42667643912137665,1.8727441048081894,3.3188117704965672,4.7648794361865319,6.2109471018780651,7.657014767571181,9.1030824332658629,10.549150098962134,11.922231177958835,13.076349737331796,14.230468296706356,15.384586856082501,16.538705415460221,17.692823974839531,18.846942534220393,20.001061093602871,21.155179652986885,22.309298212372525,23.370253298967867,24.213823279904776,25.057393260843313,25.900963241783412,26.744533222725089,27.588103203668364,28.431673184613196,29.275243165559637,30.118813146507684,30.962383127457286,31.69577021171942,32.224528940803062,32.753287669888287,33.282046398975091,33.810805128063478,34.339563857153472,34.868322586245093,35.397081315338269,35.925840044433052,36.454598773529426,36.860660234116558,37.08267289255722,37.304685550999466,37.526698209443332,37.748710867888796,37.970723526335881,38.192736184784529,38.414748843234811,38.636761501686721,38.858774160140229,38.950746814490024,38.883778954585416,38.816811094682471,38.749843234781146,38.682875374881448,38.615907514983348,38.548939655086862,38.481971795192045,38.41500393529887,38.348036075407244,37.486102290662991,37.154721848897751,36.823341407134151,36.491960965372165,36.160580523611863,35.829200081853237,35.497819640096218,35.166439198340854,34.7053411005608,34.138108145833428,33.570875191107739,33.003642236383705,32.436409281661355,31.869176326940696,31.301943372221697,30.734710417504402,30.167477462788742,29.600244508074777,28.909528889471353,28.1364895496492,27.363450209828727,26.590410870009929,25.817371530192847,25.04433219037746,24.271292850563803,23.498253510751852,22.7252141709416,21.952174831133036,21.064524131476741,20.115157956021864,19.165791780568746,18.216425605117376,17.267059429667718,16.317693254219829,15.368327078773667,14.418960903329287,13.469594727886621,12.520228552445698,11.466584571637579,10.368248342725089,9.2699121138143319,8.1715758849054136,7.07323965599824,5.9749034270928867,4.8765671981893073,3.7782309692874843,2.6798947403874798,1.5815585114892503,0.38958183705223964,-0.83360949936573281,-2.0568008357818921,-3.279992172196236,-4.5031835086087435,-5.726374845019472,-6.9495661814283265,-8.1727575178353788,-9.395948854240654,-10.619140190644067,-11.926001022218131,-13.253780216152414,-14.581559410084813,-15.909338604015291,-17.237117797943842,-18.564896991870473,-19.892676185795182,-21.220455379717993,-22.548234573638869,-23.876013767557868,-25.27926206297882,-26.695829274361966,-28.11239648574314,-29.528963697122574,-30.945530908500018,-32.362098119875654,-33.778665331249364,-35.195232542621234,-36.611799753991185,-38.028366965359339,-39.514460923473955,-41.008280805865191,-42.502100688254373,-43.995920570641488,-45.48974045302667,-46.9835603354098,-48.477380217790788,-49.971200100169789,-51.465019982546764,-52.958839864921686,-54.519636535337696,-56.083958966252155,-57.648281397164624,-59.212603828074926,-60.776926258983224,-62.34124868988949,-63.905571120793581,-65.469893551695563,-67.034215982595569,-68.59853841349333,0.30816429038807669,0.30816429038807669,0.30816429038807669,0.30816429038807669,0.30816429038807669,0.30816429038807669,0.30816429038807669,0.30816429038807669,0.30816429038807669,0.30816429038807669,0.30816429038807669,0.30816429038807669
DP 298,228.80759528467337,0.0026842810414114977,-114.81532422169504,-111.70784783975377,-108.60037145781023,-105.49289507586471,-102.38541869391698,-99.277942311967124,-96.170465930015069,-93.062989548060941,-89.955513166104609,-86.848036784146188,-83.746243437349264,-80.752428833007144,-77.758614228662935,-74.764799624316538,-71.770985019968009,-68.777170415617448,-65.783355811264713,-62.78954120690986,-59.795726602552868,-56.801911998193674,-53.830955911608839,-51.065728645636518,-48.300501379662151,-45.535274113685645,-42.7700468477072,-40.004819581726657,-37.23959231574397,-34.474365049759285,-31.709137783772551,-28.943910517783717,-26.226969337152269,-23.783652349612463,-21.340335362070579,-18.897018374526585,-16.453701386980509,-14.010384399432322,-11.56706741188203,-9.1237504243296375,-6.68043343677516,-4.2371164492185969,-1.8724329691811403,0.17771276449046824,2.2278584981641223,4.2780042318398461,6.3281499655176079,8.3782956991974551,10.428441432879344,12.47858716656331,14.528732900249324,16.578878633937368,18.519158809878974,20.129838158712285,21.740517507547683,23.351196856385144,24.961876205224655,26.572555554066266,28.183234902909916,29.79391425175562,31.40459360060337,33.015272949453227,34.487702345251677,35.637543072430439,36.7873837996113,37.937224526794232,39.087065253979276,40.236905981166345,41.386746708355481,42.536587435546672,43.686428162739936,44.83626888993529,45.82527035408441,46.5155659860697,47.2058616180571,47.896157250046507,48.586452882038017,49.276748514031659,49.967044146027341,50.657339778025076,51.347635410024907,52.037931042026834,52.552403378406261,52.803136616581384,53.053869854758624,53.304603092937931,53.555336331119356,53.806069569302878,54.0568028074885,54.307536045676152,54.55826928386599,54.80900252205781,54.877156724398269,54.722154936777642,54.56715314915914,54.412151361542733,54.25714957392848,54.102147786316273,53.947145998706254,53.792144211098247,53.637142423492406,53.48214063588874,52.109486504070574,51.5914245225344,51.0733625410004,50.555300559468563,50.037238577938865,49.519176596411256,49.001114614885836,48.483052633362519,47.791117465294342,46.956919429190734,46.122721393089257,45.288523356989963,44.454325320892806,43.620127284797867,42.785929248705088,41.951731212614526,41.117533176526109,40.283335140439874,39.287860761022927,38.184866278707652,37.081871796394651,35.978877314083846,34.875882831775314,33.77288834946895,32.669893867164788,31.56689938486284,30.463904902563137,29.360910420265633,28.112344849194415,26.785392728848223,25.458440608504311,24.131488488162649,22.804536367823246,21.477584247486124,20.150632127151223,18.823680006818634,17.49672788648828,16.169775766160189,14.714292675409801,13.20372271359428,11.693152751781001,10.182582789970109,8.67201282816148,7.1614428663552108,5.6508729045512558,4.14030294274957,2.6297329809502425,1.1191630191532205,-0.50317467675103811,-2.1627696926141038,-3.82236470847482,-5.481959724333179,-7.141554740189159,-8.8011497560428253,-10.460744771894063,-12.120339787742974,-13.779934803589565,-15.439529819433751,-17.195649996961361,-18.975902605368805,-20.756155213773827,-22.536407822176304,-24.316660430576341,-26.096913038973831,-27.877165647368859,-29.657418255761424,-31.437670864151482,-33.2179234725391,-35.082307268237962,-36.961538679600324,-38.840770090960284,-40.720001502317842,-42.599232913672871,-44.478464325025563,-46.357695736375788,-48.2369271477236,-50.116158559068964,-51.995389970411928,-53.949701967324692,-55.912357040044618,-57.875012112761965,-59.837667185476562,-61.800322258188693,-63.762977330898,-65.725632403604848,-67.688287476308943,-69.650942549010438,-71.613597621709289,-73.6469430494165,-75.684009725463142,-77.721076401507233,-79.75814307754851,-81.795209753587244,-83.832276429623363,-85.869343105656711,-87.906409781687287,-89.943476457715292,-91.980543133740511,0.39916062379382544,0.39916062379382544,0.39916062379382544,0.39916062379382544,0.39916062379382544,0.39916062379382544,0.39916062379382544,0.39916062379382544,0.39916062379382544,0.39916062379382544,0.39916062379382544,0.39916062379382544
DP 299,71.962782406829561,0.0035621926202194462,-63.570181740545195,-62.169889157359229,-60.76959657417131,-59.369303990981315,-57.969011407789274,-56.5687188245952,-55.168426241399168,-53.768133658201073,-52.36784107500101,-50.96754849179883,-49.568713203254028,-48.197566788728295,-46.826420374200467,-45.455273959670656,-44.084127545138763,-42.712981130604852,-41.341834716068924,-39.970688301530942,-38.599541886990927,-37.228395472448874,-35.863302507465761,-34.552691160712094,-33.242079813956458,-31.931468467198766,-30.620857120439066,-29.310245773677302,-27.999634426913538,-26.689023080147749,-25.378411733379927,-24.067800386610092,-22.770595113549387,-21.549358436293815,-20.328121759036179,-19.106885081776436,-17.885648404514637,-16.664411727250766,-15.44317504998482,-14.221938372716789,-13.000701695446679,-11.779465018174511,-10.581550164176265,-9.476923705488101,-8.3722972467978742,-7.2676707881055576,-6.1630443294111661,-5.058417870714691,-3.9537914120161384,-2.8491649533154981,-1.7445384946127891,-0.63991203590799661,0.42930824520740851,1.3923086548919126,2.355309064578532,3.3183094742672687,4.2813098839581221,5.2443102936510888,6.2073107033461783,7.170311113043379,8.1333115227426873,9.09631193244412,10.010056755666509,10.808869937226932,11.607683118789529,12.406496300354268,13.20530948192115,14.004122663490206,14.802935845061402,15.601749026634758,16.400562208210278,17.199375389787946,17.933778566370123,18.54856142277897,19.163344279190028,19.778127135603281,20.392909992018726,21.007692848436392,21.622475704856232,22.237258561278285,22.852041417702537,23.466824274128971,24.001191154660059,24.414932171087724,24.828673187517659,25.242414203949835,25.656155220384267,26.069896236820963,26.483637253259868,26.897378269701058,27.311119286144468,27.72486030259012,28.041746457002834,28.240252412293806,28.438758367587088,28.637264322882636,28.835770278180551,29.034276233480721,29.232782188783236,29.43128814408804,29.629794099395166,29.828300054704595,29.857036456821373,29.828829398029196,29.800622339239389,29.772415280451966,29.744208221666888,29.716001162884194,29.687794104103865,29.659587045325917,29.501763373399275,29.237887517706007,28.97401166201519,28.710135806326836,28.446259950640925,28.182384094957424,27.918508239276381,27.654632383597804,27.390756527921663,27.126880672247935,26.717580325542798,26.211328027195595,25.705075728850943,25.198823430508774,24.692571132169164,24.186318833832068,23.68006653549747,23.173814237165409,22.667561938835874,22.161309640508829,21.494408585193757,20.741002016924895,19.987595448658663,19.234188880395,18.480782312133943,17.7273757438755,16.973969175619626,16.220562607366361,15.467156039115705,14.713749470867652,13.785107673440141,12.781362105738125,11.777616538038732,10.7738709703421,9.7701254026481337,8.7663798349568989,7.7626342672683482,6.7588886995824708,5.7551431318993211,4.7513975642188582,3.55839989029657,2.3023157958474467,1.0462317014010876,-0.20985239304250378,-1.4659364874832996,-2.7220205819213681,-3.9781046763566108,-5.2341887707890971,-6.49027286521885,-7.7463569596457811,-9.2050954382428483,-10.714499907275545,-12.223904376305327,-13.733308845332129,-15.242713314355967,-16.752117783376825,-18.261522252394727,-19.77092672140968,-21.280331190421638,-22.789735659430679,-24.515047489427285,-26.278463019342418,-28.041878549254569,-29.805294079163929,-31.5687096090703,-33.332125138973858,-35.09554066887442,-36.858956198772141,-38.622371728666984,-40.385787258558921,-42.377746292023296,-44.395101448351973,-46.412456604677459,-48.429811760999712,-50.447166917318896,-52.464522073634761,-54.481877229947436,-56.499232386256885,-58.516587542563229,-60.533942698866255,-62.792734437362434,-65.064235766592233,-67.335737095818828,-69.607238425042027,-71.878739754261986,-74.150241083478875,-76.4217424126923,-78.693243741902322,-80.964745071109263,-83.236246400312751,0.47172056145142466,0.47172056145142466,0.47172056145142466,0.47172056145142466,0.47172056145142466,0.47172056145142466,0.47172056145142466,0.47172056145142466,0.47172056145142466,0.47172056145142466,0.47172056145142466,0.47172056145142466
DP 300,206.80872005252661,0.0037910788112701008,-150.55999608925595,-146.55829603719428,-142.55659598512941,-138.55489593306152,-134.55319588099067,-130.55149582891676,-126.54979577683977,-122.54809572475972,-118.54639567267672,-114.5446956205907,-110.54990082184474,-106.68630714201844,-102.82271346218891,-98.9591197823567,-95.095526102521276,-91.231932422682846,-87.3683387428415,-83.504745062997017,-79.641151383149719,-75.777557703299181,-71.941844875792981,-68.357062354755527,-64.772279833714947,-61.187497312671624,-57.602714791625353,-54.017932270576217,-50.433149749524048,-46.848367228469016,-43.263584707411034,-39.678802186350175,-36.153275160677673,-32.96353300950863,-29.773790858336536,-26.584048707161536,-23.394306555983558,-20.204564404802611,-17.014822253618679,-13.825080102431755,-10.635337951241874,-7.4455958000490492,-4.3531667539264944,-1.6499947271899467,1.0531772995495041,3.7563493262918857,6.4595213530371591,9.1626933797853827,11.8658654065365,14.569037433290561,17.272209460047506,19.975381486807382,22.541146556050549,24.694685557570828,26.848224559094021,29.00176356062013,31.15530256214916,33.308841563681149,35.462380565216044,37.615919566753881,39.76945856829461,41.9229975698383,43.901432048659252,45.471282411481788,47.041132774307272,48.610983137135747,50.180833499967086,51.750683862801388,53.320534225638553,54.8903845884788,56.460234951321894,58.03008531416792,59.39323335314139,60.372500065545779,61.35176677795311,62.331033490363446,63.310300202776631,64.289566915192808,65.268833627611983,66.2481003400341,67.2273670524591,68.206633764887073,68.956213239802764,69.361256430854,69.7662996219082,70.171342812965449,70.576386004025508,70.981429195088708,71.386472386154864,71.791515577223919,72.196558768295972,72.601601959370981,72.763786211790276,72.6291377713221,72.494489330856865,72.359840890394608,72.225192449935449,72.0905440094792,71.955895569026026,71.82124712857582,71.686598688128583,71.551950247684417,69.916676023364,69.289495090640671,68.662314157920363,68.035133225203111,67.4079522924889,66.780771359777788,66.153590427069659,65.526409494364557,64.658273758670418,63.592989043186257,62.527704327705166,61.462419612227251,60.397134896752355,59.331850181280629,58.266565465811972,57.20128075034647,56.135996034883966,55.070711319424632,53.776747431059491,52.330327158244266,50.883906885432239,49.437486612623331,47.991066339817621,46.544646067014988,45.098225794215651,43.651805521419327,42.205385248626257,40.758964975836292,39.100986103180766,37.329087984934553,35.55718986669163,33.785291748451911,32.01339363021539,30.241495511982116,28.469597393752039,26.697699275525235,24.925801157301603,23.153903039081229,21.190196031194716,19.144281975937098,17.098367920682712,15.052453865431707,13.006539810183952,10.960625754939546,8.91471169969843,6.8687976444605638,4.8228835892260538,2.7769695339948268,0.559459128145633,-1.7152522238426542,-3.9899635758275895,-6.2646749278091765,-8.5393862797873439,-10.814097631762239,-13.088808983733662,-15.36352033570177,-17.638231687666561,-19.912943039627905,-22.340372725255239,-24.805983798688871,-27.271594872119042,-29.737205945545618,-32.2028170189687,-34.668428092388176,-37.134039165804126,-39.599650239216523,-42.065261312625346,-44.5308723860307,-47.133691334447981,-49.760724963049086,-52.387758591646623,-55.0147922202408,-57.641825848831459,-60.268859477418658,-62.895893106002283,-65.522926734582569,-68.1499603631593,-70.776993991732652,-73.529976332953808,-76.296954298336544,-79.0639322637156,-81.83091022909089,-84.597888194462371,-87.364866159830115,-90.131844125194149,-92.89882209055429,-95.665800055910807,-98.432778021263474,-101.32077431700532,-104.2151412026387,-107.10950808826857,-110.00387497389434,-112.8982418595163,-115.79260874513461,-118.68697563074892,-121.58134251635933,-124.47570940196617,-127.37007628756885,0.56979934467152016,0.56979934467152016,0.56979934467152016,0.56979934467152016,0.56979934467152016,0.56979934467152016,0.56979934467152016,0.56979934467152016,0.56979934467152016,0.56979934467152016,0.56979934467152016,0.56979934467152016
DP 301,222.16906118475654,0.0059973169084112125,-251.10510029777984,-244.34501147128523,-237.58492264478573,-230.82483381828149,-224.06474499177256,-217.30465616525876,-210.54456733874002,-203.78447851221677,-197.02438968568848,-190.26430085915572,-183.51636504573551,-176.99933877900764,-170.48231251227514,-163.96528624553784,-157.44825997879587,-150.93123371204896,-144.41420744529751,-137.89718117854116,-131.38015491178012,-124.86312864501426,-118.39504106498943,-112.36740629144231,-106.33977151789048,-100.31213674433407,-94.28450197077305,-88.256867197207413,-82.229232423637143,-76.20159765006224,-70.173962876482733,-64.146328102898678,-58.222258803535965,-52.885067050909335,-47.547875298277965,-42.210683545641892,-36.873491793001214,-31.536300040355822,-26.1991082877057,-20.861916535050881,-15.524724782391404,-10.187533029727236,-5.0194271372198562,-0.52767267648807792,3.9640817842482812,8.4558362449892659,12.947590705734827,17.439345166485033,21.931099627239814,26.422854087999234,30.914608548763209,35.406363009531816,39.661122904902271,43.204890143632561,46.748657382367455,50.29242462110696,53.836191859851105,57.379959098599869,60.923726337353152,64.467493576111224,68.011260814873751,71.555028053640967,74.799439127210363,77.345340692148824,79.891242257091889,82.437143822039545,84.983045386991833,87.528946951948782,90.074848516910308,92.62075008187648,95.166651646847384,97.712553211822751,99.908659923297876,101.45513817451703,103.00161642574083,104.54809467696923,106.09457292820233,107.6410511794401,109.18752943068242,110.73400768192943,112.28048593318115,113.82696418443741,114.98918021075561,115.57499381940579,116.16080742806062,116.74662103671997,117.33243464538417,117.91824825405297,118.50406186272654,119.08987547140477,119.67568908008766,120.26150268877518,120.44612837961776,120.1404048551214,119.83468133062969,119.52895780614287,119.22323428166074,118.91751075718338,118.61178723271067,118.30606370824277,118.00034018377947,117.69461665932103,114.77127057977421,113.66307533585334,112.55488009193726,111.44668484802608,110.33848960411969,109.23029436021805,108.12209911632117,107.01390387242905,105.51895050311782,103.70755202083934,101.89615353856567,100.08475505629694,98.273356574033,96.461958091774108,94.650559609519959,92.839161127270685,91.027762645026314,89.216364162786832,87.04377362501387,84.630382693488485,82.216991761967989,79.803600830452439,77.390209898941947,74.976818967436287,72.5634280359357,70.150037104440031,67.736646172949364,65.3232552414636,62.58145347446569,59.662810328062022,56.744167181663542,53.825524035270078,50.906880888881709,47.988237742498427,45.069594596120183,42.150951449747076,39.232308303379,36.313665157016047,33.10276587003731,29.766609018417064,26.430452166801892,23.094295315192095,19.75813846358735,16.4219816119879,13.085824760393601,9.74966790880441,6.413511057220509,3.0773542056417678,-0.51509232648312075,-4.1929719820986886,-7.8708516377089959,-11.548731293314024,-15.226610948913699,-18.904490604508219,-22.582370260097306,-26.260249915681108,-29.938129571259779,-33.616009226833029,-37.517217019169351,-41.474259484351322,-45.431301949527857,-49.388344414698743,-53.345386879864066,-57.302429345023747,-61.259471810177935,-65.216514275326531,-69.173556740469522,-73.130599205607027,-77.284071243196777,-81.472209507306545,-85.6603477714108,-89.8484860355098,-94.036624299603091,-98.2247625636912,-102.41290082777371,-106.60103909185072,-110.78917735592232,-114.97731561998856,-119.34225430140881,-123.72683933046385,-128.11142435951311,-132.49600938855644,-136.88059441759387,-141.2651794466253,-145.64976447565078,-150.03434950467019,-154.41893453368417,-158.80351956269189,-163.35560246894752,-167.91650271948595,-172.47740297001863,-177.03830322054512,-181.59920347106566,-186.16010372158019,-190.72100397208865,-195.28190422259115,-199.84280447308771,-204.40370472357785,0.89488563226325724,0.89488563226325724,0.89488563226325724,0.89488563226325724,0.89488563226325724,0.89488563226325724,0.89488563226325724,0.89488563226325724,0.89488563226325724,0.89488563226325724,0.89488563226325724,0.89488563226325724
DP 302,188.19653789372077,0.0041421907555101419,-153.18411273772145,-149.1797516875057,-145.17539063728668,-141.17102958706437,-137.16666853683859,-133.16230748660962,-129.15794643637747,-125.15358538614184,-121.14922433590294,-117.14486328566086,-113.1470587281666,-109.27382877241536,-105.40059881666066,-101.52736886090274,-97.654138905141536,-93.78090894937705,-89.907678993609309,-86.034449037838215,-82.161219082064008,-78.287989126286362,-74.4413206092692,-70.833707551755211,-67.226094494237955,-63.618481436717623,-60.010868379194036,-56.403255321667388,-52.795642264137406,-49.188029206604277,-45.580416149068,-41.972803091528561,-38.421934738772805,-35.192623288878941,-31.963311838981838,-28.734000389081462,-25.504688939177846,-22.275377489270994,-19.046066039360888,-15.816754589447536,-12.58744313953096,-9.3581316896111417,-6.2226815960509647,-3.4626813639026333,-0.70268113175112845,2.0573191004035767,4.8173193325614454,7.5773195647225249,10.33731979688678,13.097320029054238,15.857320261224855,18.617320493398669,21.243584840719215,23.468636477104774,25.69368811349355,27.918739749885521,30.143791386280661,32.368843022679037,34.593894659080568,36.818946295485318,39.04399793189328,41.269049568304425,43.321817962540656,44.972585339836904,46.623352717136427,48.27412009443912,49.924887471745066,51.57565484905416,53.226422226366488,54.877189603682019,56.527956981000763,58.178724358322718,59.623557351526365,60.685935212728985,61.748313073934838,62.8106909351439,63.873068796356236,64.935446657571759,65.997824518790509,67.060202380012527,68.1225802412377,69.184958102466169,70.015241675139876,70.497378330505825,70.979514985874957,71.4616516412474,71.943788296623026,72.425924952001978,72.90806160738417,73.3901982627696,73.872334918158359,74.354471573550313,74.587326606970208,74.515498866319859,74.443671125672836,74.371843385029138,74.3000156443887,74.228187903751618,74.156360163117753,74.084532422487172,74.012704681859958,73.940876941235942,72.439582728162051,71.853429618776161,71.2672765093937,70.681123400014556,70.094970290638685,69.508817181266224,68.92266407189706,68.336510962531207,67.493997150387017,66.441729266591111,65.389461382798586,64.337193499009459,63.284925615223749,62.232657731441392,61.180389847662376,60.128121963886869,59.075854080114723,58.02358619634596,56.723047857432583,55.256991970610805,53.790936083792445,52.324880196977539,50.858824310166142,49.392768423358149,47.926712536553673,46.460656649752586,44.994600762955,43.5285448761609,41.827737259163086,40.00052145066222,38.173305642164991,36.346089833671215,34.518874025180949,32.691658216694307,30.864442408211122,29.037226599731564,27.210010791255485,25.382794982782933,23.33768171124024,21.199180134808206,19.0606785583797,16.92217698195493,14.783675405533719,12.645173829116182,10.506672252702247,8.3681706762919017,6.22966909988524,4.0911675234821878,1.7527753458773887,-0.65224955131555962,-3.0572744485048244,-5.4622993456904014,-7.8673242428722423,-10.272349140050459,-12.677374037224878,-15.082398934395647,-17.487423831562772,-19.892448728726126,-22.480111745305628,-25.113436449635959,-27.746761153962488,-30.380085858285121,-33.013410562603838,-35.646735266918583,-38.280059971229527,-40.91338467553652,-43.546709379839591,-46.180034084138896,-48.9817725704717,-51.813233008770979,-54.644693447066373,-57.47615388535808,-60.307614323645844,-63.139074761929827,-65.970535200210008,-68.801995638486389,-71.633456076758932,-74.464916515027767,-77.45465195034879,-80.461975158711908,-83.469298367071062,-86.476621575425867,-89.483944783776749,-92.491267992123312,-95.49859120046581,-98.505914408804145,-101.51323761713836,-104.52056082546834,-107.68250450765082,-110.85258764791922,-114.02267078818359,-117.19275392844354,-120.36283706869933,-123.53292020895101,-126.70300334919843,-129.87308648944142,-133.04316962968031,-136.21325276991482,0.62696984077400919,0.62696984077400919,0.62696984077400919,0.62696984077400919,0.62696984077400919,0.62696984077400919,0.62696984077400919,0.62696984077400919,0.62696984077400919,0.62696984077400919,0.62696984077400919,0.62696984077400919
DP 303,241.2781298661248,0.0020118861276465561,-89.380127743085438,-86.937492670006378,-84.494857596925783,-82.0522225238435,-79.6095874507596,-77.166952377674264,-74.7243173045872,-72.28168223149855,-69.839047158408249,-67.396412085316413,-64.9583864712389,-62.607941449855247,-60.257496428469977,-57.907051407083152,-55.556606385694714,-53.20616136430472,-50.855716342913077,-48.50527132151992,-46.154826300125158,-43.804381278728748,-41.472436815514747,-39.306999124659896,-37.141561433803517,-34.976123742945624,-32.810686052086169,-30.645248361225182,-28.479810670362625,-26.314372979498533,-24.148935288632931,-21.983497597765762,-19.857005120208779,-17.951204638863015,-16.045404157515684,-14.139603676166796,-12.233803194816351,-10.328002713464329,-8.4222022321107328,-6.51640175075557,-4.6106012693988472,-2.7048007880405591,-0.86212302632606952,0.72806087357780946,2.3182447734832161,3.9084286733901696,5.4986125732986491,7.0887964732086779,8.6789803731202344,10.269164273033335,11.85934817294797,13.449532072864143,14.952045081103671,16.191542099595125,17.431039118088115,18.670536136582644,19.910033155078708,21.149530173576345,22.389027192075488,23.628524210576185,24.868021229078412,26.107518247582174,27.237473332073066,28.111826256336652,28.986179180601795,29.860532104868454,30.734885029136656,31.609237953406392,32.483590877677692,33.357943801950576,34.232296726224945,35.106649650500927,35.854597678044648,36.367790340804753,36.880983003566385,37.394175666329588,37.907368329094311,38.420560991860626,38.933753654628475,39.446946317397881,39.960138980168828,40.473331642941339,40.849599822651328,41.020478042190533,41.191356261731308,41.3622344812736,41.5331127008175,41.703990920362934,41.874869139909968,42.045747359458552,42.216625579008706,42.387503798560381,42.417619425180739,42.275688925976247,42.133758426773319,41.991827927572,41.849897428372216,41.707966929174056,41.566036429977423,41.424105930782432,41.282175431588961,41.1402449323971,40.022282921969655,39.603483694243877,39.18468446651972,38.765885238797111,38.347086011076136,37.928286783356775,37.509487555639012,37.09068832792282,36.540843176908815,35.883776381987779,35.226709587068342,34.56964279215056,33.912575997234349,33.255509202319836,32.598442407406914,31.9413756124956,31.284308817585885,30.627242022677837,29.850144729635765,28.99302521359574,28.135905697557348,27.278786181520623,26.4216666654856,25.564547149452149,24.70742763342043,23.8503081173903,22.993188601361844,22.136069085335027,21.172058829556885,20.1504904672265,19.128922104897836,18.107353742570826,17.08578538024549,16.064217017921855,15.042648655599885,14.021080293279613,12.999511930961024,11.977943568644109,10.863351200794487,9.7088898318635053,8.55442846293419,7.3999670940066675,6.245505725080827,5.0910443561567407,3.9365829872343738,2.7821216183137034,1.6276602493947923,0.47319888047759406,-0.760909434668075,-2.0215677356667587,-3.2822260366636895,-4.5428843376588688,-5.8035426386522682,-7.0642009396439533,-8.3248592406338275,-9.5855175416219609,-10.846175842608371,-12.106834143592986,-13.435149267483233,-14.780379396475103,-16.125609525465165,-17.47083965445335,-18.8160697834397,-20.161299912424173,-21.506530041406815,-22.8517601703876,-24.196990299366515,-25.542220428343626,-26.945432447019229,-28.358877208643033,-29.77232197026494,-31.185766731885138,-32.599211493503468,-34.01265625512,-35.426101016734712,-36.839545778347663,-38.252990539958738,-39.66643530156805,-41.130800500539586,-42.600824060668138,-44.070847620794758,-45.540871180919375,-47.0108947410421,-48.480918301162724,-49.950941861281557,-51.420965421398265,-52.890988981513132,-54.361012541625975,-55.878416981254219,-57.398315622802762,-58.9182142643492,-60.438112905893753,-61.958011547436286,-63.47791018897685,-64.997808830515382,-66.517707472051839,-68.037606113586364,-69.5575047551188,0.29713759259205447,0.29713759259205447,0.29713759259205447,0.29713759259205447,0.29713759259205447,0.29713759259205447,0.29713759259205447,0.29713759259205447,0.29713759259205447,0.29713759259205447,0.29713759259205447,0.29713759259205447
DP 304,92.334687257133879,0.002206310844928689,-46.912863348271507,-45.831239028859443,-44.749614709445886,-43.667990390030866,-42.586366070614389,-41.504741751196406,-40.423117431776959,-39.341493112356055,-38.2598687929337,-37.178244473509835,-36.097863766307057,-35.041111926429174,-33.984360086549827,-32.927608246668981,-31.870856406786721,-30.814104566902969,-29.757352727017757,-28.700600887131074,-27.643849047242917,-26.587097207353292,-25.535484276772916,-24.53012201572615,-23.524759754677937,-22.519397493628293,-21.514035232577214,-20.508672971524692,-19.503310710470718,-18.497948449415297,-17.492586188358452,-16.487223927300164,-15.493161763088331,-14.56313419308319,-13.633106623076582,-12.703079053068503,-11.773051483058937,-10.843023913047903,-9.9129963430353865,-8.9829687730213941,-8.0529412030059273,-7.1229136329889835,-6.2123469038104169,-5.3796244577248462,-4.54690201163781,-3.7141795655492977,-2.8814571194593346,-2.0487346733678935,-1.2160122272749923,-0.38328978118062218,0.44943266491520928,1.2821551110125071,2.08570214143689,2.8017218217575039,3.517741502079597,4.2337611824031773,4.949780862728244,5.6658005430547878,6.3818202233828139,7.0978399037123419,7.8138595840433256,8.5298792643758112,9.2059267385649921,9.7887041574905336,10.371481576417573,10.954258995346105,11.537036414276159,12.119813833207704,12.702591252140753,13.285368671075293,13.868146090011349,14.450923508948899,14.982349791943628,15.418408292818802,15.854466793695492,16.290525294573705,16.726583795453433,17.162642296334695,17.598700797217457,18.034759298101775,18.470817798987589,18.906876299874934,19.280099808769403,19.559069344859736,19.838038880951618,20.117008417045049,20.395977953140033,20.674947489236562,20.953917025334633,21.232886561434256,21.511856097535421,21.790825633638136,21.995780722714873,22.110272155214,22.224763587714712,22.339255020217024,22.453746452720889,22.568237885226374,22.682729317733394,22.797220750242008,22.911712182752208,23.026203615263974,22.946875739194521,22.892245982558357,22.837616225923842,22.782986469290957,22.72835671265964,22.673726956029991,22.619097199401903,22.564467442775467,22.415589416821255,22.189597550784171,21.963605684748721,21.73761381871493,21.511621952682802,21.285630086652326,21.059638220623498,20.833646354596326,20.607654488570816,20.381662622546948,20.052699831022323,19.655088133671164,19.257476436321692,18.859864738973922,18.462253041627854,18.064641344283466,17.667029646940808,17.269417949599827,16.871806252260559,16.474194554922988,15.965848627353916,15.397874965544531,14.829901303736884,14.261927641930987,13.693953980126803,13.125980318324379,12.558006656523661,11.990032994724709,11.422059332927484,10.854085671131989,10.168470619370291,9.4324358434000182,8.6964010674314984,7.9603662914648421,7.2243315154999461,6.4882967395368789,5.75226196357562,5.0162271876161357,4.280192411658474,3.54415763570261,2.6842134497118937,1.7829645654331732,0.881715681156296,-0.01953320311873652,-0.92078208739190592,-1.8220309716632579,-2.7232798559327236,-3.6245287402003545,-4.5257776244661674,-5.4270265087300942,-6.4579989771004032,-7.5214038742015994,-8.5848087713008567,-9.64821366839813,-10.711618565493445,-11.775023462586782,-12.838428359678169,-13.901833256767572,-14.965238153855005,-16.028643050940516,-17.227645010847752,-18.450577372052756,-19.673509733255781,-20.896442094456962,-22.119374455656164,-23.34230681685349,-24.565239178048841,-25.788171539242317,-27.011103900433845,-28.234036261623508,-29.598434229279786,-30.97855208337656,-32.358669937471234,-33.7387877915638,-35.1189056456543,-36.499023499742677,-37.879141353828935,-39.25925920791304,-40.639377061995113,-42.019494916075011,-43.547711106907769,-45.083723420562237,-46.6197357342146,-48.155748047864726,-49.691760361512721,-51.227772675158604,-52.763784988802307,-54.299797302443764,-55.835809616083175,-57.371821929720277,0.31511041205937418,0.31511041205937418,0.31511041205937418,0.31511041205937418,0.31511041205937418,0.31511041205937418,0.31511041205937418,0.31511041205937418,0.31511041205937418,0.31511041205937418,0.31511041205937418,0.31511041205937418
DP 305,154.77123271801395,0.0032636055495259258,-103.62799911420102,-101.00965329941555,-98.391307484627461,-95.7729616698369,-93.154615855043744,-90.53627004024797,-87.917924225449738,-85.299578410648849,-82.681232595845458,-80.062886781039538,-77.448404106357657,-74.907321824385221,-72.366239542410241,-69.825157260432675,-67.284074978452679,-64.742992696470054,-62.201910414484935,-59.660828132497222,-57.119745850507044,-54.578663568514258,-52.0533302055858,-49.669738602871554,-47.286147000154784,-44.902555397435584,-42.5189637947139,-40.135372191989759,-37.751780589263127,-35.36818898653403,-32.984597383802509,-30.60100578106848,-28.251378604759203,-26.094218651786413,-23.937058698811143,-21.779898745833304,-19.622738792852985,-17.46557883987014,-15.308418886884766,-13.151258933896877,-10.994098980906491,-8.8369390279135764,-6.7367066107272446,-4.8641870272161265,-2.9916674437025379,-1.1191478601864606,0.75337172333207825,2.6258913068531116,4.4984108903766149,6.3709304739026065,8.2434500574310583,10.115969640961994,11.906022254879048,13.448670841987431,14.991319429098315,16.533968016211688,18.076616603327555,19.619265190445923,21.161913777566763,22.7045623646901,24.247210951815912,25.789859538944235,27.224125296461587,28.405493516341227,29.586861736223415,30.768229956108076,31.949598175995241,33.130966395884911,34.312334615777104,35.493702835671762,36.675071055568928,37.856439275468624,38.905207582001992,39.707715325555405,40.510223069111305,41.312730812669734,42.115238556230672,42.91774629979416,43.720254043360143,44.522761786928683,45.325269530499739,46.127777274073296,46.776845228807424,47.195749874442363,47.614654520079732,48.033559165719723,48.452463811362172,48.871368457007243,49.290273102654851,49.709177748305017,50.128082393957662,50.546987039612951,50.796154989116644,50.837863411376112,50.879571833638188,50.921280255902793,50.962988678170106,51.004697100439948,51.046405522712355,51.088113944987327,51.129822367264858,51.171530789545059,50.392200715039948,50.072126316867767,49.752051918698228,49.431977520531291,49.111903122367039,48.79182872420531,48.47175432604628,48.151679927889845,47.644739192097191,46.984904604988671,46.325070017882837,45.665235430779667,45.005400843679148,44.345566256581307,43.685731669486117,43.025897082393683,42.366062495303858,41.706227908216732,40.858277953703329,39.884914790751,38.911551627801408,37.93818846485452,36.964825301910338,35.991462138968878,35.018098976030217,34.044735813094235,33.071372650160967,32.098009487230428,30.939162400596647,29.68043665778481,28.421710914975797,27.162985172169531,25.904259429366064,24.645533686565376,23.386807943767476,22.1280822009724,20.8693564581801,19.610630715390581,18.1718230669418,16.65583441934869,15.139845771758415,13.62385712417106,12.107868476586511,10.591879829004855,9.07589118142606,7.559902533850086,6.0439138862770188,4.5279252387068043,2.8387093689509917,1.0917489086463021,-0.65521155165547829,-2.4021720119543453,-4.1491324722502609,-5.8960929325433131,-7.6430533928333784,-9.3900138531205446,-11.136974313404851,-12.883934773686155,-14.797057856535803,-16.7517235582643,-18.70638925998972,-20.661054961712047,-22.615720663431322,-24.570386365147463,-26.525052066860532,-28.479717768570509,-30.434383470277396,-32.389049171981284,-34.504264516497386,-36.647813936255893,-38.791363356011324,-40.934912775763763,-43.078462195513161,-45.222011615259532,-47.365561035002919,-49.509110454743272,-51.652659874480626,-53.796209294214961,-56.096908458166581,-58.415070355250521,-60.733232252331213,-63.051394149408566,-65.3695560464827,-67.687717943553466,-70.005879840621,-72.324041737685164,-74.6422036347462,-76.960365531803816,-79.4363769303147,-81.920697767861114,-84.405018605404251,-86.889339442943921,-89.373660280480351,-91.857981118013385,-94.342301955543149,-96.826622793069419,-99.310943630592391,-101.79526446811184,0.4963254800439047,0.4963254800439047,0.4963254800439047,0.4963254800439047,0.4963254800439047,0.4963254800439047,0.4963254800439047,0.4963254800439047,0.4963254800439047,0.4963254800439047,0.4963254800439047,0.4963254800439047
DP 306,147.19290282343039,0.0010738204422141198,-32.768318085422429,-31.947558234576466,-31.126798383729668,-30.306038532882031,-29.485278682033556,-28.664518831184242,-27.843758980334108,-27.022999129483132,-26.20223927863135,-25.381479427778682,-24.5618996131238,-23.764740709320559,-22.967581805516488,-22.170422901711568,-21.373263997905823,-20.576105094099272,-19.778946190291872,-18.981787286483655,-18.1846283826746,-17.38746947886472,-16.59512853776976,-15.846149716518033,-15.097170895265519,-14.348192074012188,-13.59921325275805,-12.850234431503104,-12.101255610247346,-11.352276788990791,-10.603297967733438,-9.854319146475266,-9.1157537164979523,-8.436198159977252,-7.7566426034557168,-7.0770870469333653,-6.397531490410195,-5.7179759338862,-5.0384203773613816,-4.3588648208357395,-3.6793092643092788,-2.9997537077819967,-2.3377052774366889,-1.7456861792226723,-1.1536670810078526,-0.5616479827922175,0.030371115424222626,0.6223902136414784,1.2144093118595412,1.8064284100784185,2.3984475082981005,2.9904666065185936,3.5570255424165813,4.0472030287319161,4.5373805150480653,5.027558001365029,5.5177354876828062,6.0079129740014041,6.4980904603208138,6.9882679466410336,7.4784454329620722,7.9686229192839244,8.425182797532857,8.803300266283772,9.1814177350355024,9.55953520378806,9.937652672541434,10.315770141295621,10.693887610050632,11.072005078806455,11.450122547563113,11.828240016320567,12.165002957953531,12.424963518099844,12.684924078246979,12.944884638394948,13.204845198543735,13.464805758693343,13.724766318843782,13.984726878995058,14.244687439147151,14.504647999300076,14.716455064490221,14.856030749350902,14.995606434212402,15.135182119074743,15.274757803937927,15.414333488801937,15.553909173666804,15.693484858532479,15.833060543398995,15.972636228266341,16.058570011213188,16.078940342854409,16.099310674496486,16.119681006139395,16.140051337783159,16.160421669427773,16.180792001073211,16.201162332719505,16.221532664366642,16.241902996014655,16.014949144097745,15.920093319177946,15.825237494259003,15.73038166934094,15.635525844423718,15.540670019507363,15.445814194591872,15.350958369677228,15.196077129351767,14.992083153928668,14.788089178506455,14.584095203085118,14.380101227664664,14.176107252245075,13.972113276826354,13.768119301408534,13.564125325991585,13.360131350575491,13.095146283027821,12.789499526565125,12.483852770103329,12.178206013642427,11.872559257182409,11.566912500723292,11.26126574426508,10.955618987807751,10.649972231351315,10.34432547489577,9.9779351061763553,9.5788357552271748,9.1797364042789074,8.7806370533315565,8.3815377023851259,7.9824383514396056,7.5833390004949921,7.184239649551305,6.7851402986085292,6.38604094766667,5.9273339395928781,5.4430797866393847,4.9588256336868142,4.4745714807352082,3.9903173277845227,3.5060631748347952,3.0218090218859981,2.537554868938134,2.0533007159912198,1.5690465630452433,1.0268131576268986,0.4652526040149379,-0.096307949596066672,-0.657868503206114,-1.2194290568151924,-1.7809896104233307,-2.3425501640304858,-2.9041107176366903,-3.4656712712419515,-4.0272318248462362,-4.6450297147986168,-5.2768876032907537,-5.9087454917818913,-6.5406033802720085,-7.1724612687611176,-7.8043191572492088,-8.43617704573628,-9.0680349342223465,-9.6998928227073886,-10.331750711191436,-11.018515272298471,-11.714969856791171,-12.411424441282858,-13.107879025773586,-13.804333610263303,-14.500788194752033,-15.197242779239751,-15.893697363726504,-16.590151948212238,-17.286606532697029,-18.037279423553148,-18.793977140092395,-19.550674856630582,-20.307372573167665,-21.064070289703704,-21.82076800623862,-22.577465722772505,-23.334163439305247,-24.090861155836972,-24.847558872367589,-25.659036483743524,-26.473397792517396,-27.28775910129016,-28.102120410061808,-28.916481718832383,-29.730843027601846,-30.545204336370222,-31.359565645137419,-32.173926953903589,-32.988288262668583,0.16312594403761269,0.16312594403761269,0.16312594403761269,0.16312594403761269,0.16312594403761269,0.16312594403761269,0.16312594403761269,0.16312594403761269,0.16312594403761269,0.16312594403761269,0.16312594403761269,0.16312594403761269
DP 307,125.61010693502527,0.001079217335247414,-29.04617862882921,-28.338548595325786,-27.630918561821534,-26.923288528316483,-26.215658494810633,-25.508028461303958,-24.800398427796505,-24.092768394288203,-23.385138360779145,-22.677508327269255,-21.970817874638612,-21.281979636351071,-20.59314139806272,-19.904303159773587,-19.215464921483637,-18.526626683192887,-17.837788444901335,-17.148950206608962,-16.460111968315786,-15.771273730021814,-15.086289094444858,-14.435987247576907,-13.78568540070817,-13.135383553838643,-12.485081706968337,-11.834779860097248,-11.18447801322537,-10.534176166352701,-9.88387431947925,-9.2335724726050135,-8.5916527857446052,-7.9972325338304211,-7.40281228191544,-6.8083920299996485,-6.2139717780830654,-5.6195515261656785,-5.02513127424749,-4.4307110223284987,-3.8362907704087048,-3.2418705184881165,-2.6616704695026461,-2.1383519043183434,-1.6150333391332556,-1.0917147739473714,-0.56839620876070052,-0.045077643573234,0.47824092161502157,1.0015594868040703,1.5248780519939087,2.0481966171845363,2.5505992746477806,2.990253418125755,3.429907561604526,3.86956170508409,4.3092158485644569,4.7488699920456163,5.188524135527576,5.6281782790103314,6.0678324224938862,6.507486565978235,6.9191405498313188,7.265459725121171,7.6117789004118164,7.958098075703278,8.304417250995531,8.650736426288594,8.9970556015824563,9.3433747768771251,9.6896939521725916,10.036013127468866,10.347327278845494,10.593631154734403,10.839935030624117,11.086238906514643,11.33254278240598,11.578846658298129,11.825150534191085,12.071454410084845,12.317758285979421,12.564062161874817,12.768845424781951,12.911346787058854,13.053848149336591,13.196349511615137,13.338850873894495,13.481352236174674,13.623853598455682,13.766354960737511,13.908856323020155,14.051357685303627,14.146633945352809,14.18418964405187,14.221745342751753,14.259301041452476,14.296856740154038,14.334412438856432,14.371968137559641,14.4095238362637,14.447079534968571,14.484635233674297,14.337766388139965,14.271507513934207,14.205248639729307,14.138989765525251,14.072730891322058,14.006472017119698,13.940213142918187,13.873954268717535,13.752223898548218,13.585106805632728,13.417989712718088,13.250872619804328,13.083755526891423,12.91663843397939,12.749521341068215,12.582404248157918,12.41528715524848,12.248170062339895,12.023112834293412,11.759427936724519,11.495743039156503,11.232058141589363,10.968373244023113,10.70468834645775,10.441003448893271,10.177318551329666,9.9136336537669756,9.6499487562051449,9.3268257247640367,8.971696679976505,8.6165676351899023,8.2614385904041878,7.9063095456193944,7.5511805008355131,7.1960514560525333,6.840922411270471,6.4857933664893039,6.1306643217090553,5.7153618753865505,5.2742698127451195,4.8331777501045954,4.3920856874650305,3.9509936248263831,3.5099015621886736,3.0688094995519011,2.6277174369160488,2.1866253742811375,1.7455333116471605,1.2440113097275729,0.722345233124332,0.20067915652203996,-0.320986920079301,-0.84265299667967986,-1.3643190732791239,-1.8859851498775926,-2.4076512264751182,-2.929317303071703,-3.4509833796673219,-4.03313474531687,-4.630408147872906,-5.2276815504279517,-5.8249549529819795,-6.4222283555350055,-7.0195017580870047,-7.6167751606380056,-8.2140485631879923,-8.8113219657369779,-9.4085953682849546,-10.066646234817618,-10.73542321202506,-11.404200189231487,-12.072977166436974,-12.741754143641435,-13.410531120844926,-14.079308098047424,-14.748085075248948,-15.416862052449467,-16.085639029649027,-16.8158728010093,-17.552935750495031,-18.289998699979694,-19.027061649463242,-19.764124598945756,-20.501187548427186,-21.238250497907519,-21.97531344738676,-22.712376396864972,-23.449439346342075,-24.249570793827822,-25.053022263451631,-25.856473733074363,-26.659925202695973,-27.4633766723165,-28.266828141935928,-29.070279611554287,-29.873731081171496,-30.677182550787631,-31.480634020402629,0.16228398833150331,0.16228398833150331,0.16228398833150331,0.16228398833150331,0.16228398833150331,0.16228398833150331,0.16228398833150331,0.16228398833150331,0.16228398833150331,0.16228398833150331,0.16228398833150331,0.16228398833150331
DP 308,117.74013509372958,0.0025435510031088697,-65.065527998633613,-63.498414214955517,-61.931300431275545,-60.364186647593755,-58.79707286391,-57.229959080224432,-55.662845296536972,-54.095731512847642,-52.528617729156394,-50.961503945463342,-49.396406482301913,-47.86961949045017,-46.342832498596522,-44.81604550674102,-43.289258514883649,-41.76247152302448,-40.235684531163415,-38.70889753930048,-37.182110547435684,-35.655323555569,-34.136819589457751,-32.692863638086152,-31.248907686712702,-29.804951735337458,-28.36099578396038,-26.917039832581491,-25.47308388120079,-24.029127929818245,-22.585171978433916,-21.141216027047744,-19.715321913861331,-18.391779355306319,-17.068236796749428,-15.744694238190711,-14.421151679630128,-13.097609121067684,-11.774066562503373,-10.450524003937202,-9.1269814453691875,-7.8034388867993076,-6.5106418977672265,-5.3408286399523632,-4.171015382135665,-3.0012021243171261,-1.8313888664967626,-0.66157560867455156,0.50823764914948844,1.6780509069753697,2.8478641648030805,4.0176774226326284,5.1420730033948461,6.13021383577188,7.1183546681507659,8.10649550053151,9.0946363329140958,10.082777165298538,11.07091799768483,12.059058830072985,13.047199662462976,14.035340494854829,14.96235995314979,15.746760464684222,16.531160976220509,17.315561487758689,18.099961999298696,18.884362510840589,19.668763022384347,20.453163533929963,21.237564045477438,22.021964557026791,22.7294828326334,23.294217736623803,23.858952640616085,24.423687544610253,24.988422448606318,25.553157352604252,26.117892256604083,26.6826271606058,27.247362064609415,27.81209696861491,28.284993061303261,28.620128766829929,28.955264472358511,29.290400177889012,29.625535883421392,29.960671588955705,30.295807294491926,30.630943000030058,30.966078705570084,31.301214411112007,31.531058920726355,31.632211979255661,31.733365037786928,31.834518096320132,31.935671154855239,32.036824213392308,32.137977271931341,32.239130330472271,32.34028338901517,32.441436447559987,32.161113828639046,32.028753727928958,31.896393627220881,31.764033526514758,31.63167342581065,31.499313325108481,31.366953224408281,31.234593123710084,30.976246439502678,30.614817658163705,30.253388876826758,29.891960095491804,29.530531314158882,29.169102532827964,28.807673751499106,28.446244970172245,28.084816188847419,27.723387407524605,27.228983129015589,26.645926424210685,26.062869719407889,25.479813014607114,24.896756309808438,24.313699605011788,23.730642900217251,23.147586195424747,22.564529490634317,21.981472785845959,21.26047858117871,20.465208332262478,19.669938083348384,18.874667834436394,18.079397585526561,17.284127336618834,16.488857087713207,15.693586838809738,14.898316589908392,14.103046341009174,13.166513120803984,12.169436242825382,11.172359364848903,10.175282486874659,9.1782056089025623,8.1811287309326683,7.1840518529649549,6.1869749749993934,5.1898980970360364,4.1928212190748519,3.0522201189454483,1.8637758026147586,0.67533148628628858,-0.51311283003995589,-1.7015571463639518,-2.8900014626857637,-4.0784457790052935,-5.2668900953226121,-6.4553344116377405,-7.6437787279505915,-8.9774920649092369,-10.347524373405214,-11.717556681898882,-13.087588990390159,-14.4576212988791,-15.827653607365626,-17.197685915849824,-18.567718224331653,-19.937750532811116,-21.307782841288255,-22.82525384283219,-24.36874507680934,-25.912236310784145,-27.45572754475673,-28.999218778726924,-30.542710012694858,-32.086201246660458,-33.629692480623746,-35.173183714584709,-36.716674948543393,-38.410460519659885,-40.120947040015885,-41.831433560369376,-43.54192008072031,-45.252406601068756,-46.962893121414673,-48.673379641758075,-50.383866162098904,-52.094352682437268,-53.804839202773088,-55.670366323331436,-57.544055018071695,-59.417743712809482,-61.291432407544633,-63.165121102277261,-65.038809797007346,-66.912498491734809,-68.7861871864596,-70.659875881181989,-72.5335645759016,0.37972257884413912,0.37972257884413912,0.37972257884413912,0.37972257884413912,0.37972257884413912,0.37972257884413912,0.37972257884413912,0.37972257884413912,0.37972257884413912,0.37972257884413912,0.37972257884413912,0.37972257884413912
DP 309,172.53714975890327,0.0016250623932367488,-56.196138721781686,-54.749206644785133,-53.302274567787244,-51.855342490788075,-50.408410413787664,-48.96147833678593,-47.514546259782939,-46.067614182778684,-44.620682105773092,-43.173750028766264,-41.729078355677615,-40.32735478437516,-38.925631213071426,-37.523907641766414,-36.122184070460108,-34.720460499152544,-33.318736927843695,-31.917013356533587,-30.515289785222162,-29.113566213909479,-27.721026206441721,-26.411139141635051,-25.101252076827134,-23.791365012017991,-22.481477947207605,-21.171590882395957,-19.86170381758307,-18.551816752768939,-17.241929687953572,-15.932042623136967,-14.641861211669942,-13.463346410931605,-12.284831610191965,-11.106316809451098,-9.9278020087089427,-8.7492872079655353,-7.5707724072208542,-6.3922576064749084,-5.2137428057276995,-4.0352280049792215,-2.8895093391502793,-1.8749767629750869,-0.86044418679865586,0.15408838937902605,1.1686209655579454,2.1831535417381192,3.1976861179195311,4.2122186941022,5.2267512702861,6.2412838464712541,7.2087276135697973,8.0349031730432987,8.8610787325180613,9.687254291994071,10.513429851471333,11.339605410949849,12.165780970429612,12.991956529910633,13.818132089392886,14.644307648876405,15.409257212562995,16.031343708066959,16.653430203572178,17.275516699078636,17.897603194586377,18.519689690095358,19.1417761856056,19.7638626811171,20.385949176629836,21.008035672143851,21.556146406298375,21.96687158584157,22.377596765386048,22.78832194493177,23.199047124478788,23.609772304027032,24.020497483576559,24.431222663127333,24.8419478426794,25.252673022232717,25.579004395965075,25.778743066708508,25.97848173745323,26.178220408199206,26.377959078946496,26.577697749695048,26.777436420444847,26.977175091195949,27.176913761948331,27.376652432701956,27.484509274840459,27.48006417426998,27.475619073700805,27.471173973132913,27.466728872566275,27.462283772000966,27.457838671436939,27.453393570874216,27.448948470312757,27.444503369752621,26.950106617935468,26.753236573560478,26.556366529186807,26.359496484814432,26.162626440443379,25.965756396073626,25.768886351705188,25.572016307338046,25.277656571236705,24.903530866468166,24.529405161700954,24.155279456935073,23.781153752170511,23.407028047407316,23.032902342645421,22.6587766378849,22.284650933125679,21.910525228367806,21.440298579918228,20.906003121741488,20.371707663566095,19.837412205392049,19.303116747219395,18.768821289048084,18.234525830878137,17.700230372709534,17.165934914542323,16.631639456376448,16.004717321191354,15.327917936041876,14.651118550893822,13.974319165747147,13.297519780601862,12.620720395457962,11.943921010315444,11.267121625174349,10.590322240034624,9.9135228548963017,9.148956483059969,8.3467742069469555,7.5445919308353311,6.7424096547251722,5.9402273786164157,5.1380451025091061,4.3358628264032175,3.5336805502987354,2.7314982741957006,1.9293159980940842,1.0448390216325345,0.13292944123805095,-0.77898013915498288,-1.6908897195465655,-2.6027992999366778,-3.5147088803253683,-4.4266184607125627,-5.3385280410983151,-6.2504376214826474,-7.1623472018654777,-8.1511680744856729,-9.1592176788837687,-10.167267283280367,-11.175316887675411,-12.183366492068926,-13.191416096460882,-14.199465700851327,-15.207515305240225,-16.215564909627588,-17.223614514013441,-18.304161041377807,-19.397501949561175,-20.490842857743015,-21.584183765923388,-22.677524674102205,-23.770865582279594,-24.864206490455427,-25.957547398629774,-27.050888306802619,-28.144229214973979,-29.307035829150674,-30.47756158465868,-31.64808734016507,-32.818613095669818,-33.989138851172946,-35.159664606674419,-36.33019036217425,-37.500716117672454,-38.671241873169066,-39.841767628664009,-41.08106984363161,-42.3239925565532,-43.566915269473135,-44.809837982391393,-46.052760695307953,-47.295683408222942,-48.53860612113624,-49.781528834047805,-51.024451546957771,-52.26737425986601,0.24691170229219611,0.24691170229219611,0.24691170229219611,0.24691170229219611,0.24691170229219611,0.24691170229219611,0.24691170229219611,0.24691170229219611,0.24691170229219611,0.24691170229219611,0.24691170229219611,0.24691170229219611
DP 310,65.646760442435522,0.0041708699540214658,-70.040920033031384,-68.524152133233073,-67.007384233432589,-65.4906163336299,-63.973848433824941,-62.457080534017855,-60.940312634208546,-59.423544734396955,-57.906776834583255,-56.390008934767337,-54.874772030875178,-53.388624339002085,-51.902476647126704,-50.416328955249114,-48.930181263369391,-47.444033571487395,-45.957885879603161,-44.4717381877167,-42.985590495828021,-41.499442803937114,-40.019662935465433,-38.597194079682353,-37.174725223897028,-35.752256368109506,-34.329787512319761,-32.907318656527764,-31.484849800733553,-30.062380944937129,-28.63991208913847,-27.217443233337629,-25.809112091278589,-24.480895551314617,-23.152679011348393,-21.82446247137986,-20.496245931409046,-19.168029391435965,-17.839812851460621,-16.511596311482982,-15.183379771503059,-13.855163231520885,-12.551612435893869,-11.346725783417387,-10.141839130938607,-8.9369524784575418,-7.7320658259741819,-6.5271791734885234,-5.3222925210005831,-4.1174058685103434,-2.9125192160178233,-1.7076325635230087,-0.54034102147496521,0.514163767809079,1.568668557095459,2.6231733463841778,3.67767813567524,4.7321829249686393,5.7866877142643762,6.8411925035624543,7.8956972928628577,8.95020208216561,9.9521642906531369,10.83152507457339,11.710885858496031,12.590246642421057,13.469607426348466,14.348968210278267,15.228328994210463,16.107689778145041,16.987050562082018,17.866411346021376,18.676697297867172,19.358699553235546,20.040701808606354,20.722704063979595,21.404706319355288,22.086708574733439,22.768710830114028,23.450713085497075,24.13271534088253,24.814717596270455,25.409957407654336,25.875051502802261,26.340145597952706,26.805239693105683,27.270333788261166,27.735427883419138,28.20052197857963,28.665616073742623,29.130710168908106,29.595804264076111,29.955717858667622,30.187075298817074,30.418432738969116,30.649790179123755,30.88114761928092,31.112505059440739,31.3438624996031,31.575219939768051,31.806577379935543,32.037934820105647,32.112187239830241,32.095616251003669,32.079045262179754,32.062474273358504,32.045903284539861,32.029332295723918,32.012761306910647,31.996190318099995,31.836838857929536,31.560664558316724,31.284490258706661,31.008315959099328,30.73214165949474,30.455967359892927,30.179793060293811,29.903618760697459,29.62744446110386,29.351270161513007,28.913713848231335,28.368566983480243,27.823420118731995,27.278273253986573,26.733126389243974,26.187979524504218,25.642832659767311,25.097685795033232,24.552538930301992,24.007392065573566,23.282655493562821,22.461214159928396,21.63977282629692,20.818331492668353,19.996890159042742,19.175448825420027,18.35400749180026,17.53256615818345,16.711124824569534,15.889683490958566,14.870958570660283,13.767680211861737,12.664401853066165,11.561123494273726,10.457845135484298,9.3545667766979381,8.2512884179146084,7.1480100591343207,6.0447317003571071,4.9414533415829265,3.6237123446667732,2.2344810988662425,0.845249853068846,-0.54398139272541945,-1.9332126385165245,-3.322443884304541,-4.7116751300893593,-6.1009063758710651,-7.4901376216496729,-8.8793688674250966,-10.499578082442007,-12.17753451880998,-13.855490955174631,-15.533447391535891,-17.211403827893836,-18.889360264248349,-20.567316700599541,-22.24527313694735,-23.923229573291792,-25.601186009632926,-27.526411495590626,-29.495275445853739,-31.464139396113495,-33.433003346370093,-35.401867296623237,-37.3707312468732,-39.339595197119877,-41.308459147363251,-43.2773230976033,-45.246187047840145,-47.477728494120377,-49.738459087582342,-51.9991896810407,-54.259920274495386,-56.520650867946543,-58.781381461393885,-61.042112054837787,-63.302842648277831,-65.563573241714437,-67.824303835147276,-70.363147864326265,-72.916632209872063,-75.470116555414208,-78.023600900952573,-80.577085246487272,-83.1305695920183,-85.6840539375455,-88.237538283068886,-90.791022628588635,-93.3445069741045,0.53274825474574661,0.53274825474574661,0.53274825474574661,0.53274825474574661,0.53274825474574661,0.53274825474574661,0.53274825474574661,0.53274825474574661,0.53274825474574661,0.53274825474574661,0.53274825474574661,0.53274825474574661
DP 311,297.3411120847382,0.0017900789346150022,-91.613286970683575,-89.0082310191981,-86.403175067711089,-83.798119116222736,-81.193063164733019,-78.5880072132419,-75.98295126174942,-73.377895310255482,-70.772839358760123,-68.167783407263386,-65.568322294398655,-63.075164173241355,-60.582006052082647,-58.088847930922547,-55.595689809761112,-53.102531688598248,-50.609373567434,-48.11621544626837,-45.623057325101392,-43.129899203932943,-40.658981469615568,-38.388229319168673,-36.117477168720384,-33.846725018270796,-31.575972867819893,-29.305220717367618,-27.034468566913997,-24.763716416459037,-22.492964266002726,-20.222212115545084,-17.997565572220651,-16.034187041312578,-14.070808510403138,-12.107429979492315,-10.144051448580152,-8.1806729176666177,-6.2172943867517105,-4.2539158558354337,-2.2905373249178087,-0.32715879399881853,1.5630568866983177,3.1606177087685374,4.7581785308400892,6.3557393529129875,7.9533001749872119,9.550860997062788,11.148421819139688,12.745982641217941,14.343543463297518,15.941104285378431,17.439701765882695,18.64140547998732,19.843109194093284,21.044812908200562,22.246516622309198,23.448220336419187,24.64992405053049,25.851627764643151,27.053331478757155,28.255035192872484,29.336916155073869,30.139205977045354,30.941495799018238,31.74378562099243,32.546075442968,33.348365264944853,34.150655086923095,34.952944908902666,35.755234730883593,36.557524552865807,37.226434404596439,37.647634995209138,38.068835585823138,38.490036176438466,38.911236767055172,39.332437357673193,39.753637948292571,40.1748385389133,40.596039129535413,41.017239720158841,41.299647701751127,41.373863490075379,41.44807927840094,41.522295066727921,41.596510855056195,41.670726643385848,41.744942431716836,41.819158220049239,41.893374008382963,41.967589796718016,41.905255744760431,41.676024575357729,41.446793405956427,41.217562236556454,40.98833106715788,40.75909989776062,40.529868728364761,40.300637558970287,40.071406389577135,39.842175220185361,38.514124639339968,38.0287501566662,37.543375673993829,37.058001191322781,36.572626708653182,36.087252225984948,35.60187774331807,35.1165032606526,34.515883973022596,33.82097150076639,33.126059028511541,32.431146556258078,31.736234084006007,31.041321611755386,30.346409139506147,29.651496667258311,28.956584195011857,28.261671722766824,27.466738744992913,26.605123854519917,25.743508964048367,24.881894073578188,24.0202791831095,23.158664292642207,22.297049402176359,21.435434511711914,20.573819621248923,19.712204730787327,18.766470467992388,17.775439935313571,16.784409402636232,15.793378869960327,14.802348337285899,13.811317804612905,12.820287271941369,11.829256739271326,10.838226206602689,9.8471956739355324,8.7872821401555115,7.69784615751773,6.6084101748813815,5.5189741922465823,4.4295382096132281,3.3401022269813896,2.2506662443510352,1.1612302617221404,0.07179427909476449,-1.017641703531134,-2.1623401544296876,-3.32546012454904,-4.4885800946668883,-5.651700064783225,-6.8148200348980241,-7.9779400050113427,-9.1410599751231079,-10.304179945233363,-11.467299915342148,-12.630419885449379,-13.837318503988215,-15.055162301885764,-16.273006099781743,-17.49084989767611,-18.708693695568886,-19.926537493460067,-21.144381291349664,-22.362225089237661,-23.580068887124046,-24.7979126850089,-26.050651107809532,-27.309547793627683,-28.5684444794442,-29.827341165259234,-31.086237851072664,-32.345134536884579,-33.604031222694893,-34.862927908503671,-36.121824594310873,-37.380721280116539,-38.668145800894123,-39.958740380721359,-41.249334960546946,-42.539929540370771,-43.830524120192983,-45.121118700013469,-46.411713279832291,-47.702307859649316,-48.992902439464807,-50.283497019278549,-51.599230958294733,-52.916288271604721,-54.233345584912996,-55.550402898219531,-56.867460211524389,-58.184517524827513,-59.501574838128967,-60.818632151428588,-62.135689464726582,-63.452746778022735,0.25546437708837211,0.25546437708837211,0.25546437708837211,0.25546437708837211,0.25546437708837211,0.25546437708837211,0.25546437708837211,0.25546437708837211,0.25546437708837211,0.25546437708837211,0.25546437708837211,0.25546437708837211
DP 312,172.95769256401235,0.004442502963420524,-153.9173648541188,-149.95264667731152,-145.98792850050083,-142.02321032368658,-138.05849214686879,-134.09377397004755,-130.12905579322279,-126.16433761639448,-122.1996194395627,-118.23490126272725,-114.27638423503555,-110.43569021342927,-106.59499619181958,-102.7543021702063,-98.91360814858966,-95.072914126969437,-91.232220105345718,-87.39152608371846,-83.55083206208775,-79.710138040453515,-75.894638843833533,-72.305895453828285,-68.71715206381954,-65.128408673807542,-61.539665283792154,-57.950921893773319,-54.362178503751011,-50.773435113725377,-47.184691723696318,-43.595948333663863,-40.06126073821035,-36.832892718352106,-33.604524698490444,-30.376156678625261,-27.14778865875666,-23.919420638884578,-20.691052619009028,-17.462684599129997,-14.234316579247521,-11.005948559361595,-7.8675280079047933,-5.0889015811649356,-2.3102751544216851,0.46835127232498147,3.2469776990750296,6.0256041258285178,8.80423055258539,11.582856979345673,14.361483406109361,17.140109832876444,19.789613934964354,22.051746181071497,24.313878427182015,26.576010673296008,28.838142919413396,31.100275165534203,33.362407411658431,35.624539657786073,37.886671903917154,40.148804150051639,42.24309106968731,43.945732283743993,45.648373497804123,47.351014711867712,49.053655925934677,50.756297140005088,52.458938354078924,54.161579568156249,55.864220782236956,57.5668619963211,59.066765710734082,60.190151450597433,61.31353719046426,62.436922930334525,63.560308670208215,64.683694410085437,65.807080149966012,66.930465889850112,68.053851629737665,69.1772373696287,70.069409353933892,70.614755241191915,71.16010112845342,71.705447015718477,72.250792902987,72.796138790259,73.341484677534481,73.886830564813451,74.432176452095973,74.977522339381935,75.271232636818937,75.257383038891589,75.243533440967838,75.229683843047567,75.215834245130822,75.2019846472176,75.188135049307959,75.174285451401815,75.1604358534992,75.146586255600141,73.788101816210087,73.2474769642178,72.706852112229114,72.166227260243986,71.62560240826248,71.084977556284514,70.544352704310143,70.003727852339367,69.196336515679732,68.170677106974509,67.145017698272909,66.119358289575,65.09369888088078,64.068039472190151,63.042380063503167,62.016720654819913,60.991061246140227,59.965401837464171,58.67690543375052,57.213180226058149,55.749455018369396,54.285729810684415,52.822004603003158,51.3582793953256,49.894554187651835,48.430828979981705,46.967103772315319,45.50337856465265,43.786449903213189,41.933177238487893,40.079904573766349,38.22663190904867,36.373359244334765,34.520086579624646,32.66681391491835,30.813541250215856,28.960268585517152,27.106995920822257,25.013939867892834,22.818115458451654,20.622291049014283,18.426466639580905,16.230642230151346,14.034817820725756,11.838993411304038,9.6431690018861715,7.4473445924722688,5.2515201830622411,2.8309975686264108,0.33557272068157407,-2.1598521272593016,-4.6552769751962106,-7.1507018231290962,-9.6461266710581022,-12.141551518983027,-14.636976366903992,-17.132401214821087,-19.627826062734073,-22.333122702206765,-25.090889769236362,-27.848656836261824,-30.606423903283066,-33.36419097030015,-36.121958037312957,-38.879725104321629,-41.637492171326087,-44.3952592383263,-47.153026305322484,-50.108501878228168,-53.098869386016553,-56.0892368938008,-59.079604401580987,-62.069971909356973,-65.060339417128944,-68.050706924896744,-71.041074432660452,-74.031441940420066,-77.021809448175659,-80.201522538124308,-83.402276014667336,-86.603029491206,-89.8037829677401,-93.004536444269917,-96.20528992079511,-99.406043397315926,-102.60679687383214,-105.80755035034412,-109.00830382685147,-112.39645763870661,-115.7944764906626,-119.19249534261402,-122.59051419456101,-125.98853304650331,-129.38655189844124,-132.78457075037454,-136.18258960230304,-139.58060845422733,-142.97862730614671,0.6749456105218854,0.6749456105218854,0.6749456105218854,0.6749456105218854,0.6749456105218854,0.6749456105218854,0.6749456105218854,0.6749456105218854,0.6749456105218854,0.6749456105218854,0.6749456105218854,0.6749456105218854
DP 313,171.0731060801719,0.0030196386973381263,-103.7303512236161,-101.06346987685041,-98.396588530082411,-95.729707183311888,-93.062825836539162,-90.395944489763991,-87.729063142986391,-85.062181796206431,-82.395300449424028,-79.72841910263935,-77.065684616996109,-74.4817412770253,-71.897797937052147,-69.313854597076613,-66.729911257098721,-64.145967917118469,-61.562024577135794,-58.978081237150818,-56.394137897163439,-53.810194557173659,-51.243106240946133,-48.827714731764686,-46.412323222580909,-43.996931713394829,-41.581540204206462,-39.166148695015785,-36.750757185822778,-34.33536567662744,-31.919974167429849,-29.504582658229928,-27.125371328589313,-24.951183296338112,-22.776995264084587,-20.602807231828688,-18.428619199570466,-16.254431167309857,-14.080243135046924,-11.906055102781615,-9.7318670705139745,-7.5576790382439887,-5.4437402871236582,-3.570801508038735,-1.6978627289515116,0.17507605013803515,2.048014829229881,3.9209536083240568,5.7938923874205308,7.6668311665193327,9.5397699456204368,11.412708724723851,13.199077364174325,14.725732311564125,16.252387258956265,17.779042206350709,19.305697153747477,20.832352101146586,22.359007048548008,23.885661995951757,25.412316943357816,26.938971890766197,28.352969277891827,29.504094587455914,30.655219897022306,31.80634520659104,32.957470516162118,34.108595825735549,35.259721135311288,36.41084644488938,37.561971754469752,38.713097064052505,39.727965183797068,40.489780556916706,41.251595930038654,42.01341130316294,42.775226676289606,43.537042049418616,44.298857422549915,45.0606727956836,45.822488168819646,46.584303541958029,47.190494295696162,47.563244442865411,47.935994590036991,48.308744737211022,48.681494884387334,49.054245031566026,49.426995178747148,49.799745325930587,50.172495473116406,50.545245620304634,50.748343600143812,50.74408536749533,50.739827134849222,50.735568902205536,50.731310669564216,50.727052436925362,50.722794204288867,50.718535971654774,50.714277739023096,50.710019506393813,49.807743320875666,49.447683820587478,49.0876243203017,48.727564820018351,48.367505319737482,48.007445819459065,47.647386319183092,47.287326818909513,46.746723861216438,46.05840042650275,45.370076991791485,44.68175355708275,43.993430122376452,43.305106687672662,42.616783252971331,41.9284598182725,41.240136383576115,40.551812948882251,39.685216592078376,38.699768812099904,37.71432103212409,36.728873252150706,35.743425472179894,34.757977692211568,33.772529912245844,32.787082132282592,31.801634352321891,30.816186572363669,29.6585956891242,28.408309862394265,27.158024035667,25.907738208942284,24.657452382220139,23.407166555500577,22.156880728783619,20.906594902069273,19.656309075357466,18.406023248648282,16.992304232526653,15.508539662377641,14.024775092231209,12.541010522087504,11.057245951946397,9.5734813818079818,8.0897168116722113,6.6059522415390424,5.1221876714085681,3.638423101280738,2.001096927558569,0.31258161732717588,-1.3759336929015229,-3.0644490031275256,-4.7529643133507911,-6.4414796235714169,-8.1299949337892645,-9.8185102440044449,-11.507025554216963,-13.195540864426702,-15.027879009102591,-16.8961745616836,-18.764470114261798,-20.632765666837116,-22.50106121940961,-24.369356771979209,-26.23765232454598,-28.105947877109884,-29.974243429670931,-31.842538982229179,-33.846680386809375,-35.87479609942973,-37.902911812047236,-39.931027524662042,-41.959143237274,-43.987258949883177,-46.015374662489563,-48.043490375093157,-50.071606087693951,-52.099721800291995,-54.258236786952793,-56.431241951341207,-58.604247115726615,-60.7772522801089,-62.950257444488336,-65.123262608864607,-67.296267773237943,-69.469272937608025,-71.642278101975279,-73.8152832663394,-76.117551334321448,-78.426623999133042,-80.7356966639414,-83.044769328746682,-85.353841993548983,-87.662914658348271,-89.97198732314439,-92.2810599879373,-94.590132652727277,-96.899205317514017,0.458908758035624,0.458908758035624,0.458908758035624,0.458908758035624,0.458908758035624,0.458908758035624,0.458908758035624,0.458908758035624,0.458908758035624,0.458908758035624,0.458908758035624,0.458908758035624
DP 314,183.41871667374033,0.00270058282090179,-97.9194334527611,-95.37121765527,-92.823001857776646,-90.274786060281144,-87.726570262783667,-85.178354465283874,-82.630138667781978,-80.081922870277921,-77.533707072771719,-74.985491275263385,-72.441389579063838,-69.975456585519,-67.509523591972084,-65.043590598423009,-62.577657604871774,-60.111724611318486,-57.645791617762953,-55.17985862420533,-52.713925630645583,-50.247992637083719,-47.798741344791345,-45.4996269407253,-43.200512536657186,-40.901398132587033,-38.602283728514784,-36.303169324440418,-34.004054920364034,-31.704940516285539,-29.405826112204995,-27.10671170812239,-24.843282485230766,-22.782071537781679,-20.720860590330471,-18.65964964287717,-16.598438695421748,-14.537227747964216,-12.476016800504576,-10.4148058530428,-8.3535949055789427,-6.2923839581129641,-4.2903101006870186,-2.5247873982941869,-0.75926469589928514,1.0062580064977,2.7717807088967454,4.5373034112978861,6.3028261137010873,8.0683488161063774,9.8338715185137424,11.599394220923161,13.280459593655074,14.708149784135465,16.135839974617955,17.563530165102513,18.991220355589174,20.418910546077907,21.846600736568718,23.274290927061632,24.701981117556585,26.129671308053659,27.448255364484503,28.512254144394625,29.576252924306818,30.640251704221111,31.704250484137535,32.768249264055996,33.832248043976591,34.896246823899261,35.960245603824035,37.024244383750883,37.957399580557372,38.647556017987135,39.337712455418931,40.027868892852865,40.718025330288917,41.408181767727072,42.0983382051673,42.788494642609635,43.4786510800541,44.168807517500674,44.71095603527187,45.031089176047139,45.351222316824455,45.671355457603987,45.991488598385587,46.311621739169361,46.63175487995521,46.951888020743162,47.272021161533289,47.59215430232549,47.752664788558405,47.718077566380856,47.683490344205467,47.64890312203223,47.614315899861147,47.579728677692231,47.545141455525439,47.510554233360793,47.475967011198257,47.44137978903791,46.510563372697085,46.145153625205666,45.779743877716456,45.414334130229442,45.048924382744609,44.68351463526195,44.318104887781452,43.952695140303142,43.421576734830118,42.754875670448769,42.088174606069629,41.42147354169267,40.75477247731795,40.088071412945411,39.421370348575152,38.754669284207068,38.0879682198412,37.421267155477544,36.593229176508345,35.657630712836756,34.722032249167441,33.78643378550035,32.850835321835554,31.915236858173007,30.979638394512705,30.044039930854659,29.1084414671989,28.172843003545385,27.083810362752654,25.91215708768345,24.740503812616602,23.568850537552038,22.397197262489776,21.22554398742982,20.053890712372162,18.882237437316842,17.71058416226381,16.538930887213077,15.223972750639742,13.847595826020692,12.471218901403912,11.094841976789601,9.71846505217759,8.34208812756799,6.9657112029607475,5.5893342783558335,4.2129573537533291,2.8365804291531758,1.3278706019361641,-0.22495186058910255,-1.7777743231119647,-3.330596785632419,-4.8834192481504317,-6.4362417106660832,-7.9890641731792638,-9.5418866356900427,-11.094709098198464,-12.647531560704413,-14.32209730189355,-16.027100301168662,-17.7321033004413,-19.437106299711346,-21.142109298978877,-22.847112298243822,-24.552115297506244,-26.25711829676613,-27.96212129602344,-29.667124295278256,-31.485144243443813,-33.323109615828017,-35.161074988209705,-36.999040360588985,-38.837005732965721,-40.674971105339957,-42.512936477711712,-44.35090185008098,-46.188867222447726,-48.026832594812049,-49.971646135020741,-51.928332816035123,-53.885019497046819,-55.841706178055773,-57.798392859062133,-59.755079540065665,-61.71176622106659,-63.668452902064722,-65.625139583060161,-67.581826264052879,-69.64332752325042,-71.710346382057239,-73.777365240861357,-75.844384099662676,-77.911402958461181,-79.978421817257015,-82.045440676049992,-84.112459534840241,-86.179478393627775,-88.246497252412453,0.40933911079511393,0.40933911079511393,0.40933911079511393,0.40933911079511393,0.40933911079511393,0.40933911079511393,0.40933911079511393,0.40933911079511393,0.40933911079511393,0.40933911079511393,0.40933911079511393,0.40933911079511393
DP 315,166.18719183809307,0.0012757487277006315,-42.842501217658572,-41.746558376431821,-40.650615535204096,-39.554672693975391,-38.458729852745613,-37.362787011514904,-36.26684417028315,-35.170901329050366,-34.074958487816644,-32.979015646581857,-31.884751040310913,-30.822373215631877,-29.759995390951797,-28.69761756627074,-27.635239741588716,-26.572861916905666,-25.5104840922216,-24.44810626753657,-23.385728442850489,-22.323350618163435,-21.267799915270505,-20.273693953844095,-19.27958799241674,-18.2854820309884,-17.2913760695591,-16.297270108128828,-15.303164146697554,-14.309058185265329,-13.314952223832133,-12.32084626239797,-11.341415410154944,-10.445144434744298,-9.5488734593326665,-8.6526024839200453,-7.7563315085064426,-6.8600605330918318,-5.9637895576762308,-5.0675185822596394,-4.171247606842063,-3.2749766314234954,-2.4031906036295427,-1.6293455235154244,-0.85550044340033982,-0.081655363284273488,0.69218971683276087,1.4660347969507772,2.2398798770697654,3.0137249571897327,3.7875700373106711,4.561415117432583,5.29999289784955,5.93276744574192,6.5655419936352617,7.1983165415295822,7.8310910894248886,8.4638656373211809,9.096640185218444,9.7294147331166911,10.362189281015914,10.994963828916124,11.581708576299334,12.061048642973027,12.540388709647688,13.019728776323371,13.499068842999995,13.978408909677633,14.457748976356223,14.937089043035828,15.416429109716406,15.895769176397973,16.319247626815688,16.638981566993113,16.958715507171519,17.278449447350912,17.598183387531321,17.917917327712697,18.237651267895064,18.557385208078429,18.877119148262778,19.196853088448126,19.452537103660656,19.612144717890068,19.771752332120457,19.93135994635184,20.090967560584247,20.250575174817619,20.410182789052012,20.569790403287428,20.729398017523817,20.889005631761204,20.978487205152973,20.982257700085007,20.986028195018068,20.989798689952124,20.993569184887207,20.997339679823288,21.0011101747604,21.004880669698508,21.008651164637648,21.012421659577786,20.654295125769462,20.510290133903325,20.366285142038208,20.222280150174136,20.078275158311072,19.934270166449046,19.79026517458805,19.646260182728085,19.4268760884331,19.145816887611151,18.864757686790242,18.583698485970398,18.302639285151567,18.021580084333813,17.740520883517103,17.459461682701434,17.178402481886803,16.89734328107323,16.541427359178922,16.135605777303748,15.729784195429632,15.323962613556573,14.9181410316846,14.512319449813678,14.10649786794384,13.700676286075046,13.29485470420734,12.889033122340697,12.41048146882798,11.892766411421766,11.375051354016668,10.857336296612626,10.339621239209702,9.8219061818078615,9.3041911244071063,8.786476067007472,8.268761009608907,7.7510459522114452,7.1638225874824268,6.5468087749622477,5.9297949624431636,5.3127811499252324,4.6957673374083964,4.0787535248926963,3.4617397123781184,2.8447258998646419,2.2277120873523004,1.6106982748410748,0.92791713985042612,0.22321273517876949,-0.48149166949174915,-1.1861960741611282,-1.8909004788293529,-2.5956048834964585,-3.3003092881623939,-4.0050136928271938,-4.7097180974908763,-5.4144225021533847,-6.181164247652319,-6.963416061340963,-7.7456678750284276,-8.5279196887146664,-9.3101715023997116,-10.092423316083526,-10.874675129766157,-11.656926943447571,-12.439178757127779,-13.221430570806815,-14.062680784412091,-14.91434313642762,-15.766005488441955,-16.617667840455159,-17.469330192467126,-18.320992544477953,-19.172654896487568,-20.024317248496033,-20.8759796005033,-21.727641952509405,-22.636273637359171,-23.551235846392203,-24.466198055423948,-25.381160264454415,-26.296122473483614,-27.211084682511526,-28.126046891538156,-29.041009100563436,-29.955971309587518,-30.870933518610276,-31.842596918902451,-32.817245156572859,-33.791893394241988,-34.7665416319098,-35.741189869576324,-36.715838107241581,-37.690486344905494,-38.665134582568093,-39.6397828202294,-40.614431057889341,0.19399458868937716,0.19399458868937716,0.19399458868937716,0.19399458868937716,0.19399458868937716,0.19399458868937716,0.19399458868937716,0.19399458868937716,0.19399458868937716,0.19399458868937716,0.19399458868937716,0.19399458868937716
DP 316,160.03872337415743,0.0019309986065358352,-62.954626461137281,-61.354700307190221,-59.754774153241684,-58.15484799929159,-56.554921845339962,-54.954995691386884,-53.355069537432279,-51.755143383476145,-50.155217229518456,-48.555291075559289,-46.957766971744427,-45.405882274792745,-43.853997577839593,-42.302112880884913,-40.750228183928741,-39.198343486971034,-37.646458790011856,-36.094574093051158,-34.542689396088925,-32.990804699125206,-31.448702419983157,-29.99464282589954,-28.540583231814452,-27.08652363772789,-25.632464043639871,-24.1784044495504,-22.724344855459442,-21.270285261367007,-19.81622566727312,-18.362166073177789,-16.929171584200112,-15.615547351636582,-14.301923119071535,-12.988298886505001,-11.674674653936977,-10.361050421367459,-9.0474261887964254,-7.7338019562239193,-6.4201777236499069,-5.1065534910744086,-3.8281615140193064,-2.6907002241551146,-1.5532389342894619,-0.41577764442233278,0.721683645446259,1.8591449353163323,2.9966062251878718,4.1340675150608863,5.271528804935369,6.4089900948113172,7.4955474826791457,8.4293912399135156,9.363234997149382,10.297078754386714,11.230922511625531,12.164766268865826,13.098610026107592,14.032453783350853,14.966297540595574,15.900141297841794,16.767299899343261,17.478857177781187,18.190414456220608,18.901971734661505,19.613529013103882,20.325086291547759,21.03664356999311,21.748200848439946,22.459758126888275,23.1713154053381,23.801591935895722,24.280916311001665,24.760240686109114,25.239565061218048,25.718889436328478,26.198213811440414,26.677538186553861,27.156862561668781,27.636186936785204,28.11551131190312,28.5011813433748,28.746367646289634,28.99155394920593,29.236740252123802,29.481926555043191,29.727112857964038,29.972299160886408,30.217485463810302,30.462671766735713,30.707858069662606,30.849938045226985,30.865997010511862,30.882055975798291,30.898114941086281,30.914173906375755,30.930232871666785,30.946291836959329,30.962350802253408,30.978409767549035,30.994468732846165,30.496139235783566,30.293595230652109,30.09105122552225,29.888507220393873,29.685963215267094,29.483419210141872,29.280875205018152,29.078331199896031,28.763531195232968,28.356883443564097,27.950235691896808,27.543587940231056,27.136940188566918,26.730292436904346,26.323644685243366,25.91699693358396,25.510349181926141,25.103701430269918,24.584760704644335,23.99095622735754,23.397151750072389,22.80334727278882,22.209542795506888,21.615738318226551,21.021933840947835,20.428129363670731,19.834324886395276,19.240520409121388,18.536750585087894,17.773767052172158,17.010783519258123,16.247799986345708,15.484816453434927,14.721832920525834,13.958849387618363,13.195865854712586,12.432882321808444,11.669898788905959,10.800931098096918,9.8865398364370147,8.9721485747787675,8.05775731312226,7.1433660514674093,6.2289747898142878,5.314583528162852,4.4001922665130833,3.4858010048650372,2.5714097432186773,1.5558456780318619,0.50655606993433722,-0.54273353816146586,-1.5920231462555452,-2.6413127543478767,-3.690602362438514,-4.7398919705273812,-5.7891815786145289,-6.83847118669999,-7.88776079478367,-9.033348714665367,-10.203012350275774,-11.372675985884383,-12.54233962149115,-13.712003257096114,-14.881666892699226,-16.051330528300515,-17.220994163899984,-18.390657799497614,-19.560321435093453,-20.822354287454683,-22.100688616991786,-23.379022946527051,-24.65735727606063,-25.93569160559235,-27.214025935122294,-28.492360264650436,-29.77069459417681,-31.049028923701417,-32.327363253224235,-33.695549270909943,-35.073719753156439,-36.451890235400988,-37.83006071764359,-39.208231199884253,-40.58640168212294,-41.964572164359765,-43.34274264659453,-44.720913128827419,-46.099083611058411,-47.567129682727753,-49.039906942803384,-50.512684202877161,-51.98546146294882,-53.458238723018525,-54.9310159830863,-56.403793243152137,-57.876570503215888,-59.349347763277734,-60.822125023337563,0.29372003770812322,0.29372003770812322,0.29372003770812322,0.29372003770812322,0.29372003770812322,0.29372003770812322,0.29372003770812322,0.29372003770812322,0.29372003770812322,0.29372003770812322,0.29372003770812322,0.29372003770812322
DP 317,252.54448845703439,0.0016916336975366741,-77.595477352834749,-75.456906896935976,-73.318336441035953,-71.179765985134509,-69.041195529231686,-66.90262507332757,-64.76405461742209,-62.6254841615152,-60.4869137056071,-58.348343249697606,-56.213920802999674,-54.158311315505905,-52.102701828010844,-50.047092340514389,-47.9914828530166,-45.935873365517523,-43.880263878017075,-41.824654390515335,-39.769044903012229,-37.713435415507782,-35.674441580910745,-33.784990193031454,-31.895538805150849,-30.006087417269,-28.1166360293858,-26.227184641501346,-24.337733253615582,-22.448281865728532,-20.558830477840214,-18.669379089950581,-16.814797611454654,-15.157814483505614,-13.500831355555269,-11.843848227603598,-10.186865099650632,-8.5298819716963425,-6.872898843740737,-5.2159157157838143,-3.5589325878255877,-1.9019494598660478,-0.30124245800603988,1.074357379796733,2.4499572176007858,3.8255570554061329,5.2011568932127608,6.5767567310206836,7.9523565688298943,9.3279564066403875,10.703556244452169,12.079156082265239,13.377011045589525,14.441628446018733,15.506245846449245,16.570863246881043,17.635480647314122,18.70009804774849,19.764715448184159,20.829332848621114,21.893950249059358,22.958567649498878,23.926663033936876,24.669536579616778,25.412410125297967,26.155283670980484,26.898157216664259,27.641030762349377,28.383904308035721,29.126777853723404,29.869651399412351,30.612524945102603,31.244829085464517,31.671787058448373,32.098745031433616,32.525703004420137,32.952660977407909,33.379618950397,33.806576923387404,34.233534896379091,34.660492869372057,35.087450842366373,35.395614215812756,35.525582882776384,35.655551549741325,35.785520216707525,35.915488883675067,36.045457550643938,36.17542621761406,36.305394884585532,36.435363551558275,36.565332218532362,36.574268864222184,36.435274941647641,36.296281019074392,36.157287096502465,36.018293173931873,35.879299251362575,35.740305328794641,35.601311406227993,35.462317483662673,35.323323561098654,34.3169573916968,33.942209262778661,33.567461133861769,33.192713004946249,32.817964876032072,32.443216747119251,32.068468618207739,31.693720489297565,31.208546473048521,30.633022105774373,30.057497738501546,29.481973371230097,28.90644900395997,28.33092463669124,27.755400269423838,27.179875902157814,26.604351534893127,26.02882716762981,25.353281872580933,24.611054383321893,23.868826894064245,23.126599404807962,22.384371915553071,21.642144426299549,20.899916937047415,20.15768944779666,19.415461958547304,18.673234469299302,17.842990457708989,16.9653516541739,16.087712850640269,15.21007404710803,14.332435243577187,13.454796440047767,12.577157636519731,11.699518832993126,10.821880029467909,9.9442412259441078,8.9909742457938382,8.0052939134293482,7.0196135810662605,6.0339332487046686,5.0482529163444827,4.06257258398576,3.0768922516284785,2.0912119192726135,1.1055315869182176,0.1198512545652555,-0.92970307552331077,-2.0005495431834524,-3.0713960108421317,-4.1422424784993437,-5.2130889461550654,-6.2839354138093579,-7.3547818814621371,-8.4256283491134667,-9.4964748167633548,-10.567321284411728,-11.691638851345946,-12.829324824870367,-13.967010798393284,-15.104696771914639,-16.242382745434462,-17.380068718952693,-18.517754692469424,-19.655440665984571,-20.793126639498187,-21.930812613010279,-23.113639256973851,-24.304432403575312,-25.495225550175221,-26.686018696773665,-27.87681184337055,-29.067604989965975,-30.258398136559851,-31.44919128315221,-32.639984429743052,-33.830777576332444,-35.06064331439817,-36.2948508618701,-37.5290584093404,-38.763265956809086,-39.997473504276158,-41.231681051741518,-42.465888599205272,-43.700096146667384,-44.934303694127884,-46.168511241586685,-47.43868541036931,-48.710752917073876,-49.982820423776815,-51.254887930478105,-52.526955437177655,-53.799022943875634,-55.0710904505719,-56.343157957266392,-57.615225463959341,-58.8872929706505,0.24821811163355367,0.24821811163355367,0.24821811163355367,0.24821811163355367,0.24821811163355367,0.24821811163355367,0.24821811163355367,0.24821811163355367,0.24821811163355367,0.24821811163355367,0.24821811163355367,0.24821811163355367
DP 318,169.92490494606452,0.0034637342212838315,-118.36197918982617,-115.3224781669315,-112.28297714403408,-109.24347612113382,-106.20397509823094,-103.16447407532534,-100.12497305241698,-97.085472029505837,-94.045971006591941,-91.0064699836754,-87.971678561339289,-85.026370440407362,-82.081062319472665,-79.135754198535224,-76.190446077595084,-73.245137956652215,-70.299829835706646,-67.35452171475832,-64.4092135938073,-61.463905472853483,-58.537742566993217,-55.783888406634894,-53.030034246273914,-50.276180085910362,-47.522325925544131,-44.768471765175292,-42.0146176048037,-39.260763444429514,-36.506909284052725,-33.753055123673228,-31.040310697554272,-28.560524022766366,-26.080737347975806,-23.60095067318252,-21.121163998386546,-18.641377323587882,-16.161590648786518,-13.681803973982447,-11.202017299175683,-8.722230624366242,-6.3109339766082027,-4.1736006739578633,-2.0362673713048842,0.10106593135075509,2.2383992340090284,4.3757325366699753,6.5130658393335645,8.650399141999813,10.787732444668706,12.925065747340245,14.96393257909577,16.70739627521688,18.450859971340655,20.194323667467089,21.937787363596193,23.681251059727973,25.424714755862389,27.168178451999513,28.911642148139261,30.655105844281692,32.270342201602617,33.586376384905371,34.902410568210819,36.218444751518895,37.534478934829707,38.850513118143162,40.166547301459318,41.482581484778116,42.798615668099629,44.114649851423771,45.275472301670504,46.148040198815693,47.020608095963581,47.893175993114163,48.76574389026743,49.6383117874234,50.510879684582008,51.383447581743354,52.256015478907386,53.12858337607409,53.823716706576732,54.252693994237433,54.681671281900861,55.110648569566983,55.539625857235805,55.968603144907377,56.397580432581719,56.826557720258691,57.255535007938413,57.684512295620834,57.919864784463307,57.918560674344882,57.917256564229234,57.9159524541163,57.914648344006139,57.9133442338987,57.912040123794029,57.910736013692087,57.909431903593017,57.908127793496554,56.887893849760381,56.480060325781942,56.072226801806309,55.664393277833483,55.256559753863378,54.84872622989613,54.440892705931631,54.033059181969953,53.418687688600706,52.635327034395324,51.851966380192778,51.068605725993081,50.285245071796169,49.501884417602135,48.718523763410971,47.935163109222657,47.151802455037149,46.3684418008545,45.380868648050829,44.257150612424368,43.133432576800878,42.009714541180209,40.885996505562474,39.76227846994766,38.63856043433573,37.5148423987267,36.391124363120568,35.267406327517307,33.946213134363333,32.5186842924322,31.091155450504036,29.663626608578852,28.236097766656634,26.808568924737397,25.381040082821084,23.953511240907787,22.525982398997431,21.098453557090068,19.483150977099122,17.7873707685243,16.091590559952422,14.395810351383695,12.700030142817928,11.004249934255265,9.3084697256956161,7.6126895171389783,5.9169093085854234,4.22112910003489,2.348627902841359,0.41721748224853428,-1.5141929383411996,-3.4456033589278383,-5.3770137795113477,-7.3084242000918165,-9.2398346206691038,-11.17124504124331,-13.102655461814495,-15.034065882382498,-17.131266858403382,-19.269917432128054,-21.408568005849489,-23.54721857956763,-25.685869153282525,-27.824519726994097,-29.963170300702409,-32.10182087440748,-34.240471448109261,-36.379122021807838,-38.674619742535924,-40.9977981157252,-43.3209764889112,-45.644154862094091,-47.967333235273728,-50.290511608450181,-52.613689981623367,-54.936868354793454,-57.260046727960273,-59.583225101123958,-62.057172575081466,-64.547873754778863,-67.038574934472848,-69.5292761141633,-72.019977293850374,-74.510678473533829,-77.001379653213874,-79.492080832890451,-81.982782012563518,-84.473483192233061,-87.113782014724947,-89.761955885800418,-92.410129756872379,-95.0583036279409,-97.706477499005771,-100.3546513700671,-103.00282524112498,-105.65099911217916,-108.29917298322998,-110.94734685427701,0.52648577615713454,0.52648577615713454,0.52648577615713454,0.52648577615713454,0.52648577615713454,0.52648577615713454,0.52648577615713454,0.52648577615713454,0.52648577615713454,0.52648577615713454,0.52648577615713454,0.52648577615713454
DP 319,172.01622956126397,0.0026474265421685024,-91.334932455587435,-88.984486727747111,-86.634040999904784,-84.283595272060325,-81.933149544213776,-79.5827038163652,-77.232258088514428,-74.881812360661527,-72.531366632806623,-70.180920904949573,-67.834141080412721,-65.557014112017242,-63.279887143619654,-61.002760175219969,-58.725633206818159,-56.448506238414346,-54.1713792700084,-51.894252301600396,-49.617125333190309,-47.3399983647781,-45.077766955079561,-42.949596981775038,-40.821427008468476,-38.6932570351599,-36.565087061849304,-34.436917088536674,-32.308747115222026,-30.18057714190531,-28.052407168586658,-25.924237195265928,-23.828034003624463,-21.912977922545824,-19.997921841465097,-18.082865760382312,-16.167809679297484,-14.252753598210578,-12.337697517121597,-10.422641436030558,-8.5075853549374685,-6.5925292738423025,-4.7306859678241135,-3.08169627699872,-1.4327065861713091,0.21628310465813883,1.8652727954896007,3.514262486323108,5.1632521771586379,6.8122418679961934,8.4612315588357827,10.1102212496774,11.682786794417131,13.02607701135595,14.369367228296818,15.71265744523971,17.055947662184639,18.399237879131597,19.742528096080616,21.085818313031677,22.429108529984749,23.772398746939871,25.016290884432241,26.028250255154074,27.040209625877957,28.052168996603875,29.064128367331836,30.076087738061837,31.088047108793912,32.100006479528027,33.111965850264149,34.123925221002338,35.015744181835991,35.68444199403077,36.353139806227631,37.021837618426538,37.690535430627506,38.3592332428305,39.0279310550356,39.69662886724273,40.365326679451933,41.034024491663196,41.565605722277155,41.891508840378627,42.217411958482195,42.543315076587824,42.869218194695506,43.195121312805284,43.521024430917109,43.846927549031086,44.17283066714711,44.498733785265188,44.675285673655608,44.669294033067644,44.663302392481739,44.657310751897953,44.65131911131634,44.645327470736767,44.639335830159261,44.633344189583958,44.627352549010737,44.621360908439534,43.821043993157986,43.502114963582613,43.183185934009479,42.864256904438413,42.545327874869514,42.226398845302704,41.907469815738068,41.588540786175557,41.110977596231095,40.503620094278148,39.896262592327339,39.288905090378741,38.681547588432267,38.074190086488024,37.466832584545891,36.859475082605968,36.252117580668219,35.644760078732624,34.880934083122263,34.0127932934584,33.14465250379677,32.276511714137342,31.408370924480131,30.540230134825112,29.672089345172346,28.803948555521789,27.935807765873442,27.067666976227297,26.04861656219407,24.948304925154655,23.847993288117536,22.747681651082644,21.64737001405004,20.547058377019695,19.446746739991596,18.346435102965803,17.24612346594223,16.145811828920962,14.902407524771625,13.597675376613102,12.29294322845684,10.98821108030298,9.6834789321514059,8.3787467840021712,7.0740146358552654,5.7692824877106395,4.46455033956838,3.1598181914284331,1.720816339314875,0.23705622703158044,-1.2467038852493524,-2.7304639975279197,-4.2142241098040962,-5.6979842220779453,-7.1817443343493705,-8.6655044466184439,-10.149264558885188,-11.633024671149519,-13.242366485363071,-14.88310520883077,-16.523843932296032,-18.16458265575875,-19.805321379218974,-21.446060102676689,-23.086798826131908,-24.727537549584621,-26.368276273034837,-28.009014996482584,-29.768213689118372,-31.548318399490213,-33.328423109859557,-35.108527820226541,-36.888632530591018,-38.668737240953064,-40.448841951312616,-42.228946661669781,-44.00905137202448,-45.789156082376707,-47.682840408044811,-49.589145883822681,-51.495451359597944,-53.40175683537052,-55.308062311140482,-57.214367786907715,-59.120673262672327,-61.026978738434224,-62.933284214193606,-64.839589689950174,-66.858396461258224,-68.883125472726448,-70.907854484191986,-72.932583495654669,-74.957312507114736,-76.982041518572046,-79.0067705300267,-81.031499541478482,-83.056228552927678,-85.080957564374,0.40228352223902875,0.40228352223902875,0.40228352223902875,0.40228352223902875,0.40228352223902875,0.40228352223902875,0.40228352223902875,0.40228352223902875,0.40228352223902875,0.40228352223902875,0.40228352223902875,0.40228352223902875
DP 320,298.1858505363308,0.0025283498519730755,-129.63399526799373,-125.94574830525865,-122.25750134252179,-118.56925437978279,-114.88100741704187,-111.19276045429886,-107.50451349155391,-103.81626652880706,-100.12801956605824,-96.439772603307247,-92.759461199522377,-89.229926916298723,-85.700392633073179,-82.170858349845687,-78.641324066616178,-75.111789783384722,-71.5822555001514,-68.052721216916083,-64.523186933678815,-60.993652650439508,-57.495659587715927,-54.281540490980191,-51.06742139424265,-47.853302297503127,-44.639183200761757,-41.425064104018468,-38.210945007273295,-34.996825910526191,-31.782706813777235,-28.568587717026372,-25.419839253428329,-22.6415284970029,-19.863217740575564,-17.084906984146293,-14.306596227715129,-11.528285471282008,-8.7499747148469531,-5.9716639584099749,-3.1933532019710853,-0.41504244553026992,2.2595663821827321,4.5193625939417936,6.77915880570273,9.0389550174655717,11.29875122923028,13.558547440996891,15.818343652765401,18.078139864535785,20.337936076308072,22.597732288082216,24.717313074517332,26.416242283580303,28.115171492645178,29.814100701711919,31.513029910780585,33.2119591198511,34.910888328923505,36.609817537997856,38.308746747074068,40.007675956152184,41.536914718109387,42.6702024203655,43.8034901226235,44.936777824883386,46.0700655271452,47.203353229408833,48.336640931674395,49.4699286339419,50.603216336211268,51.736504038482465,52.681002369802513,53.274886770882247,53.868771171963935,54.46265557304752,55.056539974132917,55.650424375220275,56.244308776309495,56.838193177400655,57.432077578493711,58.025961979588672,58.423512738137219,58.526558393428694,58.629604048722022,58.732649704017277,58.835695359314428,58.938741014613512,59.041786669914494,59.144832325217415,59.24787798052224,59.350923635828927,59.2609343570101,58.935009437382746,58.609084517757296,58.283159598133757,57.957234678512172,57.631309758892449,57.305384839274687,56.9794599196589,56.653535000044954,56.327610080433033,54.445214376826172,53.757440395265405,53.069666413706628,52.381892432149776,51.694118450594893,51.006344469041942,50.318570487490938,49.63079650594193,48.780339427129114,47.796775200184186,46.813210973241233,45.829646746300249,44.846082519361254,43.862518292424284,42.878954065489275,41.895389838556234,40.911825611625154,39.928261384696036,38.803615559430121,37.584913112734412,36.36621066604075,35.147508219349042,33.928805772659445,32.710103325971758,31.491400879286168,30.272698432602528,29.053995985920988,27.835293539241338,26.4980363689595,25.09694031582179,23.695844262686158,22.294748209552576,20.89365215642102,19.492556103291552,18.091460050164077,16.690363997038745,15.289267943915391,13.888171890794119,12.3900795223289,10.850415667243288,9.3107518121597028,7.7710879570782874,6.2314241019989351,4.6917602469217128,3.1520963918465856,1.6124325367735191,0.072768681702596774,-1.46689517336624,-3.0843037892883842,-4.7276283052986257,-6.3709528213067275,-8.0142773373127163,-9.6576018533165211,-11.300926369318253,-12.944250885317761,-14.587575401315179,-16.230899917310492,-17.87422443330361,-19.579076375650903,-21.299310901541791,-23.019545427430494,-24.739779953316898,-26.460014479201089,-28.180249005083009,-29.900483530962674,-31.620718056840104,-33.340952582715282,-35.06118710858825,-36.830412169647289,-38.608283164049119,-40.386154158448718,-42.164025152846186,-43.941896147241394,-45.719767141634435,-47.497638136025216,-49.27550913041383,-51.053380124800221,-52.831251119184486,-54.649131323235395,-56.471457415216271,-58.293783507194846,-60.116109599170962,-61.938435691144846,-63.760761783116195,-65.5830878750853,-67.405413967051942,-69.227740059016185,-71.0500661509781,-72.907619996968592,-74.767028285776618,-76.626436574582243,-78.485844863385353,-80.345253152186061,-82.204661440984466,-84.064069729780357,-85.923478018573775,-87.782886307364848,-89.6422945961534,0.36062864109787712,0.36062864109787712,0.36062864109787712,0.36062864109787712,0.36062864109787712,0.36062864109787712,0.36062864109787712,0.36062864109787712,0.36062864109787712,0.36062864109787712,0.36062864109787712,0.36062864109787712
DP 321,233.15663480533289,0.0021981507942837974,-95.303482417255609,-92.715246497283658,-90.127010577309917,-87.538774657334571,-84.950538737357391,-82.362302817378463,-79.774066897397717,-77.1858309774153,-74.5975950574311,-72.009359137445188,-69.425909379702759,-66.933397609416645,-64.440885839128853,-61.948374068839257,-59.45586229854802,-56.963350528254942,-54.470838757960223,-51.978326987663721,-49.485815217365541,-46.9933034470655,-44.520027956744947,-42.219880804499866,-39.919733652253051,-37.61958650000458,-35.319439347754447,-33.019292195502608,-30.719145043249075,-28.418997890993857,-26.118850738736946,-23.818703586478364,-21.559141491920805,-19.529563948457508,-17.499986404992512,-15.470408861525781,-13.44083131805735,-11.411253774587195,-9.38167623111532,-7.3520986876417229,-5.322521144166422,-3.2929436006894108,-1.3293504050220923,0.37030228092772183,2.069954966879211,3.7696076528323905,5.4692603387872429,7.1689130247437909,8.8685657107020184,10.56821839666193,12.267871082623518,13.967523768586798,15.575176673957191,16.906826759161167,18.238476844366822,19.570126929574151,20.901777014783185,22.233427099993889,23.565077185206302,24.896727270420392,26.228377355636159,27.560027440853631,28.776194834396517,29.7228980658643,30.669601297333706,31.616304528804868,32.5630077602777,33.5097109917522,34.456414223228435,35.40311745470634,36.349820686185922,37.296523917667244,38.1092575235352,38.67318677811749,39.237116032701415,39.801045287287089,40.364974541874439,40.928903796463466,41.492833051054234,42.056762305646679,42.62069156024085,43.184620814836713,43.6025673771867,43.801536451542013,44.000505525899037,44.19947460025783,44.398443674618271,44.597412748980496,44.796381823344348,44.99535089770994,45.19431997207726,45.393289046446263,45.441199263292916,45.30447881465485,45.167758366018546,45.031037917383962,44.894317468751119,44.757597020119995,44.620876571490641,44.484156122862963,44.347435674237033,44.210715225612851,43.05246771992541,42.616512241700846,42.180556763478059,41.744601285256948,41.308645807037664,40.87269032882012,40.43673485060431,40.000779372390241,39.422106506233327,38.726662415422751,38.031218324613938,37.335774233806937,36.640330143001677,35.944886052198235,35.249441961396521,34.553997870596632,33.8585537797985,33.163109689002169,32.335872044817094,31.420769955487572,30.505667866159879,29.590565776833923,28.675463687509858,27.760361598187554,26.845259508867105,25.930157419548422,25.015055330231576,24.09995324091652,23.066454437370648,21.969201835235797,20.871949233102825,19.774696630971661,18.677444028842395,17.580191426714951,16.48293882458934,15.385686222465633,14.288433620343728,13.191181018223707,11.989920891181063,10.744084355072195,9.4982478189651758,8.2524112828601055,7.0065747467568809,5.7607382106555836,4.5149016745561736,3.2690651384586222,2.0232286023629986,0.77739206626925872,-0.558395141480053,-1.9241670400808726,-3.2899389386797706,-4.6557108372767475,-6.021482735871766,-7.3872546344649139,-8.7530265330560688,-10.118798431645317,-11.484570330232682,-12.850342228818061,-14.293347446932316,-15.755661907451755,-17.2179763679692,-18.680290828484615,-20.142605288997981,-21.604919749509303,-23.067234210018622,-24.529548670525891,-25.991863131031124,-27.454177591534393,-28.9834114079922,-30.524455266711609,-32.065499125428957,-33.606542984144411,-35.147586842857805,-36.688630701569252,-38.229674560278667,-39.770718418986142,-41.3117622776916,-42.852806136395074,-44.453237069010179,-46.060267189096123,-47.667297309179979,-49.274327429261639,-50.88135754934121,-52.488387669418508,-54.095417789493773,-55.702447909566764,-57.309478029637724,-58.916508149706459,-60.579224385559925,-62.244872023665664,-63.910519661769293,-65.576167299870733,-67.24181493796992,-68.907462576067047,-70.573110214161929,-72.2387578522545,-73.904405490345042,-75.570053128433287,0.32611102756737326,0.32611102756737326,0.32611102756737326,0.32611102756737326,0.32611102756737326,0.32611102756737326,0.32611102756737326,0.32611102756737326,0.32611102756737326,0.32611102756737326,0.32611102756737326,0.32611102756737326
DP 322,56.457741864429067,0.0024554591425728824,-37.432550747496364,-36.644744179344627,-35.856937611191711,-35.069131043037721,-34.281324474882624,-33.493517906726382,-32.70571133856901,-31.917904770410555,-31.130098202251006,-30.342291634090319,-29.555247825718972,-28.782696597561287,-28.010145369402469,-27.2375941412425,-26.465042913081405,-25.692491684919187,-24.919940456755828,-24.147389228591337,-23.374838000425697,-22.602286772258914,-21.832913874454619,-21.092146250342779,-20.351378626229788,-19.610611002115672,-18.869843378000404,-18.129075753883978,-17.388308129766394,-16.647540505647676,-15.906772881527797,-15.166005257406766,-14.43231669847937,-13.738743288404962,-13.045169878329377,-12.351596468252607,-11.658023058174667,-10.964449648095536,-10.270876238015244,-9.5773028279337478,-8.8837294178510859,-8.1901560077672482,-7.5089845756564424,-6.8774216415687972,-6.2458587074799619,-5.614295773389915,-4.9827328392986807,-4.3511699052062367,-3.7196069711125972,-3.0880440370177555,-2.4564811029217193,-1.824918168824482,-1.2123581577421771,-0.65680763418129184,-0.10125711061917603,0.45429341294417,1.0098439365087488,1.565394460074558,2.1209449836415963,2.6764955072098688,3.2320460307793635,3.7875965543500971,4.316420457424929,4.7828811934112432,5.2493419293988257,5.715802665387673,6.1822634013777851,6.6487241373691583,7.1151848733618044,7.581645609355709,8.048106345350881,8.5145670813473124,8.9456365038872612,9.3109782456527643,9.6763199874195642,10.041661729187684,10.407003470957086,10.772345212727812,11.137686954499825,11.503028696273132,11.868370438047771,12.233712179823684,12.55424402393229,12.807559962664827,13.060875901398706,13.314191840133933,13.567507778870512,13.820823717608425,14.074139656347686,14.32745559508828,14.580771533830218,14.83408747257352,15.032604539047501,15.164144055043161,15.295683571040179,15.427223087038612,15.558762603038428,15.690302119039622,15.821841635042212,15.953381151046191,16.084920667051556,16.216460183058317,16.285185801509623,16.286367899261982,16.287549997015795,16.288732094771021,16.289914192527704,16.291096290285818,16.292278388045361,16.293460485806367,16.218857265237759,16.082246572702008,15.945635880167741,15.809025187634964,15.672414495103689,15.535803802573909,15.399193110045603,15.262582417518809,15.125971724993487,14.989361032469672,14.766269613672403,14.485523014979645,14.204776416288441,13.924029817598786,13.643283218910677,13.362536620224125,13.081790021539131,12.801043422855672,12.52029682417378,12.239550225493421,11.8616641095,11.431470686990236,11.001277264482082,10.571083841975504,10.140890419470542,9.710696996967167,9.2805035744653832,8.8503101519652034,8.4201167294666046,7.9899233069696125,7.4520688128419375,6.8680720422486754,6.2840752716570654,5.7000785010671642,5.1160817304789239,4.5320849598923738,3.9480881893074944,3.3640914187242843,2.7800946481427635,2.1960978775629183,1.49410783567854,0.75278521630970274,0.01146259694259311,-0.7298600224227878,-1.4711826417864244,-2.2125052611483538,-2.953827880508523,-3.6951504998669678,-4.4364731192237032,-5.1777957385786824,-6.047104308490006,-6.9484108782143537,-7.8497174479368521,-8.75102401765748,-9.6523305873762357,-10.553637157093112,-11.454943726808132,-12.356250296521285,-13.257556866232552,-14.158863435941981,-15.197989354881051,-16.261437868019733,-17.324886381156535,-18.38833489429161,-19.45178340742482,-20.515231920556214,-21.578680433685765,-22.642128946813518,-23.705577459939452,-24.769025973063563,-25.979519175481833,-27.206352221026176,-28.433185266568508,-29.660018312108814,-30.886851357647132,-32.113684403183328,-33.340517448717577,-34.567350494249716,-35.7941835397799,-37.02101658530799,-38.403954247445625,-39.795109495214696,-41.186264742981749,-42.577419990746684,-43.968575238509509,-45.35973048627028,-46.750885734028962,-48.142040981785492,-49.533196229539982,-50.924351477292355,0.2926267640456196,0.2926267640456196,0.2926267640456196,0.2926267640456196,0.2926267640456196,0.2926267640456196,0.2926267640456196,0.2926267640456196,0.2926267640456196,0.2926267640456196,0.2926267640456196,0.2926267640456196
DP 323,198.19906165005048,0.0026342727485370128,-101.33150851636684,-98.658421520429172,-95.9853345244895,-93.312247528547715,-90.639160532603654,-87.966073536657618,-85.292986540709393,-82.61989954475915,-79.946812548806719,-77.2737255528522,-74.605142083138233,-72.022126463398976,-69.439110843657687,-66.856095223914281,-64.273079604168871,-61.690063984421286,-59.10704836467167,-56.524032744919964,-53.94101712516612,-51.3580015054102,-48.793199285103164,-46.39231938141527,-43.991439477725272,-41.590559574033264,-39.189679670339238,-36.788799766643194,-34.387919862945147,-31.987039959244992,-29.586160055542862,-27.185280151838729,-24.8232003656256,-22.6809903568412,-20.538780348054782,-18.396570339266283,-16.254360330475709,-14.112150321683067,-11.969940312888349,-9.8277303040915918,-7.68552029529276,-5.5433102864918746,-3.465032687798332,-1.642487751037734,0.18005718572488361,2.0026021224895381,3.8251470592562078,5.6476919960249212,7.470236932795653,9.2927818695684188,11.115326806343212,12.937871743120024,14.669766605379749,16.129707816730196,17.5896490280827,19.049590239437215,20.509531450793798,21.969472662152381,23.429413873513042,24.889355084875685,26.349296296240372,27.809237507607126,29.153081131595521,30.226025812650061,31.298970493706637,32.371915174765256,33.444859855825918,34.5178045368886,35.590749217953352,36.66369389902011,37.736638580088922,38.809583261159787,39.744687447261981,40.423798420166676,41.102909393073396,41.78202036598222,42.461131338893054,43.140242311805935,43.819353284720883,44.49846425763787,45.177575230556918,45.856686203478048,46.381630605307109,46.675321507484142,46.969012409663172,47.2627033118443,47.556394214027506,47.850085116212746,48.143776018400089,48.437466920589458,48.731157822780951,49.0248487249745,49.154352856653894,49.08318082010998,49.0120087835682,48.940836747028484,48.869664710490817,48.798492673955273,48.727320637421833,48.65614860089044,48.584976564361192,48.513804527834012,47.461252945749358,47.054466085774315,46.647679225801426,46.240892365830625,45.834105505861963,45.427318645895426,45.020531785930977,44.613744925968668,44.041358715961906,43.333479282702648,42.625599849445649,41.917720416190775,41.209840982938033,40.501961549687508,39.79408211643905,39.086202683192838,38.378323249948714,37.670443816706786,36.803941454937018,35.831687975271642,34.859434495608468,33.887181015947462,32.914927536288694,31.942674056632093,30.970420576977716,29.998167097325528,29.025913617675538,28.053660138027709,26.933187725078795,25.732902961912636,24.532618198748768,23.332333435587124,22.132048672427739,20.931763909270565,19.731479146115671,18.531194382963022,17.330909619812619,16.130624856664465,14.794507083058877,13.400172869408935,12.005838655761226,10.6115044421159,9.217170228472817,7.8228360148320721,6.4285018011936232,5.0341675875574357,3.6398333739235871,2.2454991602920313,0.72824203483855232,-0.82999094373226667,-2.3882239223007509,-3.946456900866897,-5.5046898794306705,-7.06292285799215,-8.6211558365512158,-10.179388815107968,-11.737621793662431,-13.295854772214469,-14.964816171621225,-16.661460984514516,-18.358105797405351,-20.05475061029372,-21.751395423179613,-23.448040236063019,-25.144685048943963,-26.841329861822423,-28.537974674698425,-30.234619487571965,-32.031948384006938,-33.84704617951445,-35.662143975019468,-37.477241770522177,-39.292339566022349,-41.107437361520233,-42.922535157015581,-44.737632952508605,-46.552730747999171,-48.3678285434873,-50.276364654387073,-52.195283781653835,-54.114202908918,-56.033122036179471,-57.952041163438395,-59.870960290694605,-61.78987941794832,-63.708798545199215,-65.627717672447645,-67.546636799693374,-69.556034809362558,-71.570195765702266,-73.584356722039388,-75.598517678373781,-77.612678634705517,-79.6268395910346,-81.641000547360889,-83.655161503684567,-85.66932246000556,-87.683483416323824,0.3973339558606625,0.3973339558606625,0.3973339558606625,0.3973339558606625,0.3973339558606625,0.3973339558606625,0.3973339558606625,0.3973339558606625,0.3973339558606625,0.3973339558606625,0.3973339558606625,0.3973339558606625
DP 324,153.23333250455505,0.0039039877513175007,-122.98718938447711,-119.88508084807242,-116.78297231166458,-113.68086377525373,-110.57875523883973,-107.47664670242288,-104.37453816600294,-101.27242962957983,-98.170321093153731,-95.068212556724632,-91.970657401863107,-88.959617357633391,-85.948577313400648,-82.937537269164835,-79.926497224926052,-76.915457180684214,-73.904417136439335,-70.893377092191443,-67.882337047940482,-64.871297003686465,-61.878824912230186,-59.05346615105222,-56.228107389871347,-53.40274862868749,-50.577389867500706,-47.752031106310994,-44.9266723451183,-42.101313583922639,-39.275954822724053,-36.450596061522539,-33.665299534523562,-31.107024859187838,-28.548750183849123,-25.99047550850737,-23.432200833162671,-20.873926157814921,-18.315651482464183,-15.757376807110422,-13.199102131753655,-10.640827456393904,-8.1497411850929957,-5.9274117054148148,-3.7050822257336784,-1.482752746049572,0.73957673363747545,2.9619062133275058,5.1842356930204865,7.4065651727164363,9.6288946524153349,11.851224132117196,13.976143662388839,15.808829661428488,17.641515660471114,19.474201659516712,21.306887658565305,23.13957365761685,24.972259656671387,26.804945655728918,28.637631654789374,30.470317653852867,32.174863659416737,33.580411300154182,34.985958940894626,36.391506581638033,37.797054222384467,39.202601863133879,40.6081495038863,42.0136971446417,43.419244785400046,44.824792426161451,46.07339585702934,47.030527231063814,47.987658605101245,48.944789979141774,49.901921353185223,50.859052727231806,51.816184101281316,52.773315475333874,53.730446849389381,54.687578223447943,55.462869219849949,55.965395352809985,56.467921485773118,56.970447618739271,57.47297375170853,57.975499884680815,58.478026017656141,58.980552150634452,59.483078283615882,59.985604416600339,60.286694484567192,60.341580686393392,60.396466888222648,60.451353090055,60.506239291890452,60.561125493728994,60.616011695570606,60.67089789741528,60.725784099263052,60.780670301113936,59.870277703045211,59.495142610535524,59.120007518028991,58.744872425525529,58.369737333025235,57.99460224052811,57.619467148034012,57.244332055543154,56.646704204412281,55.867032999787966,55.0873617951668,54.3076905905489,53.528019385934151,52.748348181322562,51.968676976714207,51.189005772109077,50.409334567507052,49.629663362908268,48.625592194616104,47.471917515428295,46.318242836243734,45.16456815706249,44.010893477884494,42.857218798709688,41.703544119538208,40.549869440369974,39.396194761204995,38.242520082043264,36.86713807941522,35.37237198629272,33.877605893173651,32.382839800057816,30.888073706945409,29.393307613836303,27.898541520730529,26.403775427628133,24.909009334529035,23.414243241433326,21.703762572184175,19.90082915785495,18.097895743529055,16.294962329206669,14.492028914887666,12.689095500572115,10.886162086259974,9.0832286719512076,7.2802952576459159,5.4773618433440312,3.4664579377798703,1.386227914110981,-0.69400210955442776,-2.7742321332163504,-4.8544621568747459,-6.9346921805297264,-9.0149222041811239,-11.095152227829045,-13.175382251473557,-15.255612275114483,-17.535781888637061,-19.865938761946822,-22.196095635252952,-24.526252508555391,-26.856409381854142,-29.186566255149163,-31.516723128440486,-33.846880001728138,-36.177036875012071,-38.507193748292423,-41.0309476106776,-43.588867800436063,-46.146787990190852,-48.704708179942152,-51.262628369689722,-53.820548559433774,-56.378468749174111,-58.936388938910888,-61.494309128644126,-64.052229318373719,-66.799987380313169,-69.568840532908425,-72.3376936854999,-75.106546838087311,-77.875399990670871,-80.644253143250509,-83.413106295826182,-86.181959448397819,-88.9508126009657,-91.71966575352954,-94.679432458572549,-97.6492491448368,-100.61906583109706,-103.58888251735328,-106.55869920360557,-109.52851588985386,-112.49833257609806,-115.46814926233819,-118.43796594857443,-121.40778263480652,0.59363083601550637,0.59363083601550637,0.59363083601550637,0.59363083601550637,0.59363083601550637,0.59363083601550637,0.59363083601550637,0.59363083601550637,0.59363083601550637,0.59363083601550637,0.59363083601550637,0.59363083601550637
DP 325,92.064694686890292,0.0012873352107216809,-27.313873324263366,-26.684458002151704,-26.05504268003914,-25.425627357925734,-24.796212035811457,-24.166796713696343,-23.537381391580357,-22.90796606946353,-22.278550747345836,-21.649135425227279,-21.020442949777564,-20.405484697701397,-19.79052644562438,-19.175568193546518,-18.560609941467774,-17.9456516893882,-17.330693437307776,-16.715735185226468,-16.100776933144328,-15.485818681061319,-14.873847083973363,-14.288755664151495,-13.703664244328788,-13.118572824505241,-12.533481404680854,-11.948389984855625,-11.363298565029552,-10.778207145202638,-10.193115725374895,-9.6080243055463086,-9.0295011846608038,-8.4881988383548155,-7.946896492047971,-7.4055941457402605,-6.8642917994316912,-6.3229894531222675,-5.7816871068119733,-5.2403847605008265,-4.6990824141888217,-4.1577800678759527,-3.6277911845877981,-3.1430566880844877,-2.6583221915803259,-2.1735876950753057,-1.6888531985694371,-1.2041187020627091,-0.7193842055551295,-0.23464970904669333,0.25008478746259372,0.73481928397273577,1.2025903394723165,1.6194704305742802,2.0363505216771056,2.4532306127807955,2.8701107038853513,3.2869907949907713,3.7038708860970559,4.1207509772042039,4.537631068312213,4.9545111594210907,5.34814506873693,5.6875369716763533,6.02692887461664,6.3663207775578154,6.7057126804998548,7.045104583442777,7.3844964863865741,7.7238883893312389,8.06328029227679,8.4026721952232091,8.71219426682423,8.9662429878285153,9.2202917088336971,9.4743404298397564,9.7283891508467129,9.9824378718545415,10.236486592863272,10.490535313872874,10.744584034883381,10.998632755894773,11.216121638378596,11.378769899148145,11.541418159918583,11.704066420689935,11.866714681462181,12.029362942235343,12.192011203009402,12.354659463784357,12.517307724560217,12.679955985336985,12.799526500803374,12.866445533829809,12.933364566857151,13.00028359988543,13.067202632914631,13.134121665944733,13.201040698975772,13.267959732007713,13.334878765040601,13.401797798074384,13.356400858438979,13.324858089846281,13.293315321254521,13.261772552663713,13.230229784073828,13.198687015484889,13.167144246896903,13.135601478309852,13.049167943139475,12.917822837427511,12.786477731716532,12.655132626006505,12.523787520297432,12.392442414589343,12.2610973088822,12.129752203176038,11.998407097470826,11.867061991766587,11.6757242572817,11.444390491845159,11.213056726409619,10.981722960975056,10.750389195541491,10.519055430108905,10.287721664677324,10.056387899246726,9.8250541338171189,9.59372036838851,9.2978463980450918,8.9672190711430968,8.63659174424213,8.30596441734217,7.97533709044323,7.6447097635453,7.3140824366483841,6.9834551097525,6.6528277828576119,6.3222004559637455,5.9229823247995954,5.4943669769285846,5.0657516290586022,4.637136281189699,4.208520933321827,3.7799055854550176,3.3512902375892581,2.92267488972454,2.4940595418608851,2.06544419399828,1.564555821190919,1.0395755292237114,0.51459523725757839,-0.010385054707479221,-0.53536534667145086,-1.0603456386343633,-1.5853259305961751,-2.1103062225569169,-2.6352865145165989,-3.1602668064751827,-3.7609351641451982,-4.3805264325093249,-5.0001177008723152,-5.6197089692341562,-6.2393002375948532,-6.8588915059543938,-7.4784827743127948,-8.0980740426700457,-8.7176653110261491,-9.337256579381128,-10.035985891549014,-10.748681620886668,-11.461377350223183,-12.174073079558609,-12.886768808892889,-13.599464538226064,-14.312160267558097,-15.024855996889032,-15.737551726218834,-16.450247455547537,-17.24552406901622,-18.049977203571967,-18.8544303381265,-19.658883472679793,-20.463336607231902,-21.267789741782703,-22.072242876332339,-22.876696010880686,-23.681149145427828,-24.485602279973758,-25.376520374347187,-26.271990116371548,-27.167459858394697,-28.062929600416521,-28.95839934243714,-29.853869084456484,-30.749338826474595,-31.644808568491424,-32.540278310506963,-33.435748052521269,0.18373054603016231,0.18373054603016231,0.18373054603016231,0.18373054603016231,0.18373054603016231,0.18373054603016231,0.18373054603016231,0.18373054603016231,0.18373054603016231,0.18373054603016231,0.18373054603016231,0.18373054603016231
DP 326,226.6559681661011,0.0017309031797683651,-73.532508075686465,-71.545754434324,-69.55900079296,-67.572247151594738,-65.585493510228019,-63.598739868859987,-61.6119862274905,-59.625232586119694,-57.638478944747462,-55.651725303373823,-53.668585104922492,-51.754101005120781,-49.839616905317705,-47.925132805513215,-46.010648705707361,-44.096164605900178,-42.1816805060916,-40.267196406281613,-38.352712306470316,-36.438228206657612,-34.5382837133637,-32.769197053058818,-31.000110392752593,-29.231023732445056,-27.461937072136191,-25.69285041182598,-23.92376375151445,-22.15467709120157,-20.385590430887394,-18.616503770571864,-16.878148076838293,-15.313936463571769,-13.749724850303883,-12.185513237034645,-10.621301623764058,-9.0570900104921161,-7.4928783972188207,-5.92866678394417,-4.3644551706681725,-2.8002435573908251,-1.2861191106392647,0.027654302845127782,1.341427716330841,2.6552011298178884,3.9689745433062518,5.2827479567959594,6.5965213702869825,7.910294783779344,9.22406819727303,10.537841610768039,11.781562946015615,12.815125397946096,13.848687849877896,14.882250301811023,15.915812753745479,16.949375205681278,17.982937657618415,19.016500109556883,20.050062561496659,21.083625013437793,22.028927981891382,22.768288679531256,23.50764937717247,24.247010074815037,24.986370772458923,25.725731470104133,26.465092167750694,27.20445286539859,27.943813563047833,28.683174260698358,29.319709558903217,29.765280624076308,30.210851689250745,30.656422754426533,31.101993819603667,31.547564884782105,31.993135949961893,32.438707015143066,32.884278080325529,33.3298491455094,33.66283647146215,33.826945528172239,33.99105458488372,34.155163641596531,34.3192726983107,34.483381755026194,34.647490811743083,34.811599868461279,34.975708925180854,35.139817981901786,35.18681372041484,35.090668498957214,34.99452327750096,34.898378056046084,34.802232834592537,34.706087613140362,34.609942391689565,34.513797170240174,34.417651948792077,34.321506727345323,33.449760470027819,33.1202905703128,32.790820670599153,32.461350770886881,32.13188087117598,31.802410971466482,31.472941071758392,31.143471172051637,30.702030359910186,30.168975058749133,29.635919757589505,29.102864456431288,28.569809155274459,28.036753854119087,27.503698552965037,26.970643251812437,26.437587950661232,25.904532649511438,25.267389891441507,24.560853855676015,23.854317819911977,23.147781784149331,22.441245748388138,21.734709712628366,21.028173676870029,20.321637641113107,19.615101605357641,18.908565569603581,18.107856365582364,17.256437163051523,16.405017960522159,15.553598757994248,14.702179555467808,13.850760352942823,12.99934115041928,12.147921947897245,11.296502745376632,10.445083542857493,9.5103036382431068,8.5397963114118109,7.5692889845819691,6.5987816577536655,5.6282743309268293,4.65776700410151,3.6872596772776838,2.71675235045532,1.7462450236344831,0.77573769681513238,-0.26745538736139818,-1.3348779733698917,-2.4023005593768674,-3.4697231453823223,-4.5371457313862367,-5.6045683173886669,-6.6719909033895286,-7.7394134893888822,-8.8068360753867445,-9.8742586613830436,-11.0046360592887,-12.150752903992061,-13.296869748693856,-14.442986593394012,-15.589103438092582,-16.735220282789527,-17.88133712748489,-19.02745397217862,-20.173570816870757,-21.319687661561328,-22.520837317304313,-23.731699257558,-24.942561197810118,-26.153423138060695,-27.364285078309656,-28.575147018557093,-29.786008958802924,-30.996870899047209,-32.207732839289918,-33.41859477953107,-34.678705381477968,-35.944288574173811,-37.209871766867913,-38.475454959560309,-39.741038152251065,-41.006621344940051,-42.272204537627353,-43.537787730312971,-44.803370922996884,-46.068954115679105,-47.380999744742454,-48.695491227475905,-50.009982710207623,-51.324474192937629,-52.638965675665915,-53.953457158392439,-55.267948641117243,-56.582440123840293,-57.896931606561637,-59.21142308928129,0.25768141632936964,0.25768141632936964,0.25768141632936964,0.25768141632936964,0.25768141632936964,0.25768141632936964,0.25768141632936964,0.25768141632936964,0.25768141632936964,0.25768141632936964,0.25768141632936964,0.25768141632936964
DP 327,55.798658494447658,0.0016416340898940996,-24.840932596728656,-24.319316483835092,-23.79770037094076,-23.276084258045703,-22.754468145149925,-22.232852032253373,-21.711235919356117,-21.189619806458097,-20.668003693559346,-20.146387580659862,-19.625275010607847,-19.113729849862793,-18.602184689117003,-18.09063952837046,-17.579094367623156,-17.067549206875125,-16.556004046126329,-16.04445888537678,-15.532913724626486,-15.021368563875455,-14.511922461095871,-14.021368078472046,-13.530813695847465,-13.040259313222119,-12.549704930596022,-12.059150547969148,-11.568596165341525,-11.078041782713134,-10.587487400083988,-10.096933017454083,-9.6110539017008527,-9.1516682595286127,-8.6922826173555912,-8.2328969751817844,-7.7735113330072,-7.3141256908318413,-6.8547400486556906,-6.3953544064787655,-5.9359687643010561,-5.476583122122574,-5.025391522533833,-4.6069764805634854,-4.1885614385923455,-3.7701463966204121,-3.351731354647685,-2.9333163126741626,-2.5149012706998479,-2.0964862287247343,-1.6780711867488356,-1.2596561447721402,-0.85380037416270871,-0.48562289250532448,-0.11744541084712566,0.25073207081188886,0.6189095524717193,0.98708703413236476,1.3552645157938263,1.7234419974561048,2.091619479119192,2.4597969607831,2.8103033879453889,3.1195766586487168,3.4288499293528831,3.7381232000578839,4.0473964707637249,4.3566697414704,4.6659430121779124,4.9752162828862687,5.2844895535954564,5.5937628243054824,5.8796247141230271,6.1220076928884906,6.3643906716548333,6.60677365042203,6.8491566291900927,7.0915396079590227,7.3339225867288125,7.57630556549947,7.8186885442709881,8.0610715230433776,8.2737963740404261,8.4420333325415449,8.61027029104356,8.7785072495464558,8.9467442080502515,9.114981166554939,9.283218125060511,9.4514550835669731,9.6196920420743446,9.78792900058259,9.9198766808939443,10.007470036716473,10.095063392539922,10.182656748364288,10.270250104189588,10.357843460015792,10.445436815842925,10.533030171670987,10.620623527499959,10.708216883329857,10.755046541367099,10.756259570123204,10.757472598880277,10.758685627638297,10.759898656397267,10.761111685157198,10.762324713918085,10.763537742679931,10.714501995707723,10.624352750482959,10.534203505259175,10.444054260036397,10.353905014814606,10.263755769593798,10.173606524373985,10.083457279155173,9.9933080339373461,9.903158788720507,9.7556341667858373,9.5698583898391512,9.3840826128935042,9.198306835948868,9.0125310590052674,8.8267552820627042,8.6409795051211713,8.4552037281806545,8.26942795124118,8.083652174302733,7.8333909661225869,7.5484058956966882,7.2634208252718855,6.9784357548481264,6.69345068442546,6.4084656140038447,6.1234805435833062,5.838495473163853,5.5535104027454576,5.2685253323281378,4.9120291667974829,4.5248841820504877,4.1377391973045912,3.7505942125598351,3.3634492278161763,2.9763042430736459,2.5891592583322267,2.2020142735919137,1.8148692888527291,1.4277243041146561,0.96216570535475687,0.4704682470204874,-0.021229211312634475,-0.512926669644606,-1.0046241279754184,-1.4963215863050976,-1.9880190446336026,-2.4797165029609616,-2.9714139612871913,-3.4631114196122428,-4.0399015664018947,-4.6379658906910546,-5.2360302149789879,-5.8340945392656707,-6.4321588635511144,-7.0302231878353014,-7.6282875121182476,-8.2263518363999513,-8.82441616068041,-9.422480484959646,-10.112209111636275,-10.818114810997308,-11.524020510357115,-12.229926209715732,-12.935831909073123,-13.641737608429297,-14.347643307784272,-15.053549007138029,-15.759454706490589,-16.465360405841935,-17.269093133715504,-18.0836965588391,-18.89829998396138,-19.712903409082291,-20.527506834201887,-21.342110259320087,-22.156713684436973,-22.971317109552487,-23.785920534666658,-24.600523959779451,-25.518998176770953,-26.442940311018276,-27.366882445264228,-28.29082457950874,-29.214766713751864,-30.138708847993676,-31.062650982234082,-31.986593116473003,-32.910535250710609,-33.83447738494678,0.19448139952617602,0.19448139952617602,0.19448139952617602,0.19448139952617602,0.19448139952617602,0.19448139952617602,0.19448139952617602,0.19448139952617602,0.19448139952617602,0.19448139952617602,0.19448139952617602,0.19448139952617602
DP 328,77.159601462608364,0.0025249300903905955,-47.247933890184044,-46.193734123871579,-45.139534357557586,-44.085334591242088,-43.031134824925068,-41.976935058606536,-40.922735292286475,-39.868535525964923,-38.81433575964185,-37.760135993317235,-36.707061910653756,-35.675376030382608,-34.643690150110011,-33.61200426983585,-32.580318389560183,-31.548632509283035,-30.516946629004323,-29.485260748724116,-28.45357486844236,-27.421888988159125,-26.394872378444887,-25.409879645211472,-24.424886911976522,-23.439894178740126,-22.4549014455022,-21.469908712262772,-20.484915979021835,-19.4999232457794,-18.514930512535475,-17.529937779290044,-16.5552682831104,-15.639097780824285,-14.722927278536618,-13.806756776247422,-12.89058627395668,-11.974415771664408,-11.058245269370586,-10.142074767075243,-9.225904264778368,-8.3097337624799366,-7.4114732117746636,-6.5848533138853966,-5.758233415994586,-4.9316135181022407,-4.1049936202083632,-3.2783737223129426,-2.4517538244159889,-1.6251339265174964,-0.79851402861747334,0.02810586928408677,0.82762149846589617,1.54582329671048,2.2640250949566263,2.9822268932043317,3.7004286914535989,4.4186304897044275,5.1368322879568158,5.8550340862107655,6.5732358844662624,7.2914376827233367,7.9720801742457095,8.56508280415457,9.15808543406502,9.75108806397705,10.344090693890672,10.937093323805886,11.530095953722665,12.123098583641035,12.716101213561018,13.309103843482571,13.85321369406309,14.306521348318022,14.759829002574564,15.213136656832747,15.666444311092516,16.11975196535392,16.573059619616927,17.026367273881551,17.479674928147798,17.932982582415647,18.325555689340042,18.627025540068622,18.928495390798865,19.229965241530753,19.531435092264296,19.832904942999448,20.134374793736296,20.435844644474781,20.737314495214928,21.038784345956692,21.267511841917148,21.407330487430176,21.547149132944906,21.686967778461334,21.826786423979421,21.966605069499206,22.106423715020671,22.24624236054385,22.386061006068704,22.525879651595236,22.522207570723058,22.492774689316665,22.463341807912027,22.433908926509087,22.404476045107916,22.375043163708451,22.345610282310737,22.316177400914754,22.190586853946741,21.98632020079075,21.782053547636508,21.577786894484063,21.373520241333395,21.169253588184535,20.96498693503742,20.760720281892119,20.556453628748589,20.352186975606831,20.040731817215498,19.657815966723184,19.274900116232715,18.891984265744082,18.509068415257268,18.126152564772319,17.743236714289171,17.360320863807878,16.977405013328422,16.5944891628508,16.093927512249486,15.530016412344255,14.966105312440948,14.40219421253955,13.838283112640056,13.274372012742479,12.710460912846795,12.146549812953047,11.582638713061186,11.018727613171249,10.327290751434516,9.5811978392752621,8.835104927117932,8.0890120149625986,7.3429191028092013,6.5968261906577785,5.850733278508315,5.1046403663607931,4.3585474542152474,3.6124545420716578,2.7294438668701275,1.8007922117641046,0.872140556660087,-0.056511098441920392,-0.98516275354190119,-1.9138144086399043,-2.8424660637358565,-3.7711177188298106,-4.6997693739217814,-5.6284210290117054,-6.7029231363183754,-7.8138895799250161,-8.9248560235295535,-10.035822467131919,-11.146788910732145,-12.257755354330209,-13.36872179792614,-14.479688241519908,-15.590654685111534,-16.701621128701039,-17.967296601375018,-19.260275387803322,-20.553254174229469,-21.8462329606536,-23.13921174707556,-24.432190533495508,-25.725169319913256,-27.018148106328969,-28.311126892742539,-29.604105679154063,-31.060310952871873,-32.534654217219639,-34.008997481565068,-35.483340745908187,-36.957684010249018,-38.432027274587483,-39.9063705389237,-41.380713803257542,-42.855057067589115,-44.329400331918322,-45.975825422067956,-47.631309162563717,-49.28679290305724,-50.942276643548269,-52.59776038403696,-54.253244124523277,-55.908727865007279,-57.564211605488786,-59.21969534596797,-60.875179086444788,0.34261261333082238,0.34261261333082238,0.34261261333082238,0.34261261333082238,0.34261261333082238,0.34261261333082238,0.34261261333082238,0.34261261333082238,0.34261261333082238,0.34261261333082238,0.34261261333082238,0.34261261333082238
DP 329,168.38355438417017,0.0048401040349107995,-164.22110144229165,-160.01062041172213,-155.80013938114877,-151.58965835057163,-147.3791773199907,-143.1686962894058,-138.95821525881723,-134.74773422822494,-130.53725319762867,-126.32677216702855,-122.122783644869,-118.04215401051854,-113.96152437616463,-109.88089474180664,-105.80026510744499,-101.71963547307939,-97.639005838710162,-93.5583762043371,-89.477746569960118,-85.39711693557939,-81.342887708538711,-77.526264643000232,-73.709641577458029,-69.893018511912288,-66.076395446362753,-62.259772380809565,-58.44314931525269,-54.626526249692077,-50.809903184127784,-46.993280118559795,-43.233371731394634,-39.794850095709371,-36.356328460020421,-32.917806824327677,-29.479285188631195,-26.040763552930922,-22.6022419172269,-19.1637202815191,-15.72519864580754,-12.286677010092228,-8.9426986402376478,-5.9768978020283949,-3.011096963815453,-0.04529612559879112,2.9205047126215478,5.886305550845619,8.85210638907339,11.81790722730485,14.783708065540022,17.749508903778885,20.579280752535464,23.000960489769852,25.422640227007985,27.84431996424982,30.265999701495403,32.687679438744667,35.10935917599766,37.531038913254406,39.95271865051479,42.37439838777901,44.618772176173529,46.449425100860665,48.280078025551589,50.110730950246136,51.9413838749445,53.77203679964655,55.602689724352381,57.43334264906197,59.2639955737752,61.094648498492212,62.710452443549009,63.927245338420583,65.144038233296,66.360831128175079,67.57762402305795,68.794416917944616,70.011209812834963,71.228002707729146,72.444795602627053,73.6615884975287,74.632470708693887,75.234481083291868,75.836491457893672,76.438501832499284,77.040512207108648,77.642522581721821,78.2445329563388,78.846543330959591,79.44855370558416,80.050564080212581,80.383859241551676,80.388719053456938,80.393578865365924,80.398438677278861,80.403298489195663,80.408158301116217,80.413018113040692,80.417877924968991,80.4227377369011,80.427597548837127,79.029580093341821,78.469400080605169,77.9092200678724,77.349040055143533,76.788860042418548,76.228680029697543,75.66850001698036,75.108320004267085,74.26059772198937,73.177608641175723,72.094619560366013,71.011630479560282,69.928641398758444,68.845652317960727,67.762663237166876,66.679674156377018,65.596685075591168,64.51369599480924,63.145890907307269,61.588203995123862,60.030517082944492,58.472830170769157,56.915143258597844,55.35745634643056,53.799769434267404,52.242082522108227,50.684395609953164,49.12670869780213,47.293066801536092,45.310829747108862,43.328592692685859,41.346355638267006,39.364118583852289,37.381881529441713,35.399644475035274,33.417407420633047,31.435170366234964,29.452933311840976,27.207750112422854,24.849871269765266,22.491992427111789,20.134113584462696,17.77623474181777,15.418355899177154,13.060477056540769,10.702598213908585,8.34471937128071,5.9868405286570621,3.3809488877728646,0.69238318847146674,-1.99618251082561,-4.6847482101183617,-7.3733139094067406,-10.061879608690877,-12.750445307970557,-15.439011007245947,-18.12757670651709,-20.81614240578379,-23.7379052069515,-26.717970038853572,-29.698034870751137,-32.678099702644133,-35.658164534532567,-38.638229366416354,-41.6182941982956,-44.598359030170265,-47.578423862040331,-50.558488693905964,-53.7596474632874,-56.999825268472463,-60.240003073652979,-63.480180878829181,-66.720358684000757,-69.96053648916795,-73.200714294330581,-76.4408920994888,-79.681069904642527,-82.921247709791842,-86.374349528264,-89.851111806640645,-93.327874085012553,-96.80463636337943,-100.28139864174159,-103.75816092009879,-107.23492319845123,-110.71168547679859,-114.18844775514127,-117.66521003347904,-121.35351160224978,-125.05294892261463,-128.75238624297455,-132.45182356332927,-136.1512608836793,-139.85069820402438,-143.55013552436449,-147.24957284469949,-150.94901016502965,-154.64844748535464,0.73583600439562347,0.73583600439562347,0.73583600439562347,0.73583600439562347,0.73583600439562347,0.73583600439562347,0.73583600439562347,0.73583600439562347,0.73583600439562347,0.73583600439562347,0.73583600439562347,0.73583600439562347
DP 330,89.5821351086858,0.0055671841570313577,-115.7861454237635,-113.13122673369904,-110.47630804363105,-107.8213893535595,-105.16647066348405,-102.51155197340506,-99.856633283322424,-97.201714593236119,-94.546795903146261,-91.891877213052609,-89.239971215484687,-86.645306945501986,-84.050642675515633,-81.455978405525656,-78.861314135532069,-76.266649865534731,-73.671985595533826,-71.07732132552924,-68.482657055521045,-65.887992785509184,-63.305785644252786,-60.83569383929462,-58.365602034332909,-55.895510229367673,-53.425418424398728,-50.955326619426266,-48.485234814450244,-46.015143009470549,-43.545051204487329,-41.074959399500479,-38.63228848018305,-36.3450043075891,-34.057720134991484,-31.770435962390138,-29.483151789785175,-27.1958676171765,-24.908583444564179,-22.621299271948146,-20.334015099328475,-18.046730926705138,-15.806729766859627,-13.755862892769873,-11.704996018676491,-9.6541291445794482,-7.6032622704787656,-5.5523953963744184,-3.5015285222664279,-1.4506616481547794,0.60020522596050585,2.6510721000794444,4.630930969504945,6.3977631401284176,8.1645953107555869,9.9314274813864518,11.698259652021017,13.465091822659264,15.231923993301233,16.998756163946883,18.76558833459621,20.532420505249259,22.201769970317454,23.643655949768849,25.085541929224,26.527427908682892,27.969313888145507,29.411199867611884,30.853085847082021,32.294971826555873,33.736857806033463,35.178743785514811,36.4950995814827,37.578324503693963,38.661549425909023,39.744774348127876,40.827999270350482,41.911224192576931,42.994449114807168,44.077674037041206,45.160898959279031,46.244123881520672,47.1733267030688,47.871492733975721,48.569658764886441,49.267824795801083,49.9659908267195,50.664156857641892,51.362322888568059,52.060488919498184,52.758654950432131,53.456820981369908,53.973009989844549,54.266778815144058,54.5605476404475,54.854316465754927,55.148085291066252,55.441854116381528,55.735622941700825,56.02939176702403,56.32316059235113,56.61692941768225,56.455280714329788,56.331866679281895,56.208452644238051,56.085038609198257,55.961624574162506,55.838210539130749,55.714796504103028,55.5913824690794,55.2346502378996,54.687017291033932,54.139384344172413,53.591751397315051,53.044118450461809,52.49648550361276,51.948852556767768,51.401219609926954,50.853586663090276,50.305953716257761,49.502459027797265,48.528385814183139,47.554312600573326,46.580239386967669,45.606166173366326,44.632092959769238,43.658019746176379,42.683946532587747,41.709873319003435,40.735800105423316,39.485521941019812,38.08651401736185,36.687506093708308,35.288498170059057,33.889490246414148,32.49048232277363,31.091474399137415,29.692466475505551,28.293458551878061,26.894450628254869,25.200892277003625,23.381093056524634,21.561293836050091,19.741494615580141,17.921695395114643,16.101896174653721,14.282096954197291,12.462297733745343,10.642498513297955,8.8226992928550647,6.6915141393432043,4.4565297504631225,2.2215453615876664,-0.013439027283171432,-2.2484234161493446,-4.4834078050109687,-6.7183921938678628,-8.9533765827201623,-11.188360971567905,-13.423345360410936,-15.985415235806004,-18.629260347404895,-21.273105458998927,-23.916950570587993,-26.560795682172177,-29.20464079375137,-31.84848590532566,-34.492331016895037,-37.136176128459461,-39.78002124001906,-42.76673868561123,-45.813966826468913,-48.861194967321673,-51.908423108169814,-54.955651249013023,-58.002879389851493,-61.050107530685032,-64.097335671513818,-67.144563812337751,-70.191791953157,-73.59752147745408,-77.043088253912984,-80.488655030366729,-83.934221806815,-87.379788583258176,-90.825355359695948,-94.27092213612849,-97.716488912555533,-101.16205568897759,-104.60762246539413,-108.42901716491312,-112.27019602077398,-116.11137487662958,-119.95255373247973,-123.7937325883245,-127.63491144416388,-131.47609029999785,-135.31726915582618,-139.15844801164934,-142.99962686746693,0.78918165103450355,0.78918165103450355,0.78918165103450355,0.78918165103450355,0.78918165103450355,0.78918165103450355,0.78918165103450355,0.78918165103450355,0.78918165103450355,0.78918165103450355,0.78918165103450355,0.78918165103450355
DP 331,231.15331833110821,0.0036235758937722268,-156.13460758050536,-151.90098757973212,-147.66736757895603,-143.43374757817688,-139.20012757739508,-134.96650757661018,-130.73288757582247,-126.49926757503198,-122.2656475742384,-118.03202757344212,-113.80619673667323,-109.72836148898197,-105.65052624128785,-101.57269099359067,-97.494855745890916,-93.417020498188066,-89.339185250482444,-85.26135000277398,-81.183514755062575,-77.105679507348384,-73.0591604101567,-69.294489627748987,-65.529818845338426,-61.765148062925128,-58.000477280509095,-54.235806498090191,-50.471135715668531,-46.706464933244078,-42.941794150816875,-39.177123368386894,-35.4785625053449,-32.154628684731357,-28.830694864115003,-25.5067610434958,-22.182827222873797,-18.858893402248945,-15.534959581621262,-12.211025760990731,-8.8870919403573918,-5.5631581197212281,-2.3467875410947103,0.439324985959022,3.2254375130155148,6.0115500400748019,8.7976625671368414,11.583775094201679,14.369887621269289,17.156000148339682,19.94211267541284,22.728225202488773,25.364221260070018,27.549862233465547,29.735503206863843,31.921144180264946,34.106785153668838,36.292426127075494,38.478067100484935,40.6637080738972,42.849349047312167,45.03499002073,47.03198242079398,48.588787386634465,50.145592352477777,51.702397318323868,53.25920228417273,54.816007250024377,56.372812215878852,57.929617181736113,59.486422147596159,61.04322711345899,62.380897449411563,63.311597554690849,64.242297659972934,65.172997765257819,66.103697870545489,67.034397975835972,67.965098081129327,68.895798186425409,69.826498291724349,70.757198397026016,71.448761233589423,71.781612516141891,72.114463798697159,72.447315081255226,72.780166363816079,73.113017646379873,73.445868928946339,73.778720211515733,74.111571494087883,74.44442277666289,74.5294209006795,74.31148218035834,74.093543460040053,73.875604739724679,73.657666019412076,73.439727299102316,73.221788578795454,73.003849858491364,72.785911138190187,72.5679724178919,70.684554323035442,69.974773899374071,69.2649934757156,68.55521305206004,67.84543262840738,67.135652204757548,66.4258717811107,65.716091357466681,64.771286264246982,63.634184220489175,62.497082176734423,61.359980132982543,60.222878089233582,59.085776045487655,57.948674001744578,56.81157195800445,55.674469914267249,54.537367870532954,53.182789110669852,51.683222447353295,50.183655784039779,48.684089120729226,47.184522457421615,45.684955794117016,44.185389130815423,42.685822467516793,41.186255804221211,39.68668914092855,37.99132612571502,36.19053145839937,34.389736791086847,32.588942123777315,30.788147456470838,28.987352789167453,27.186558121867041,25.385763454569794,23.584968787275528,21.784174119984311,19.810976592409524,17.763889214750179,15.716801837093856,13.669714459440771,11.622627081790748,9.5755397041438837,7.5284523265001431,5.4813649488594631,3.4342775712219678,1.3871901935875757,-0.80937357093784668,-3.0557646815857216,-5.3021557922304279,-7.5485469028719558,-9.79493801351028,-12.041329124145477,-14.287720234777405,-16.534111345406195,-18.780502456031872,-21.026893566654245,-23.401970989426797,-25.809221510684509,-28.216472031938945,-30.623722553189967,-33.030973074437668,-35.438223595681983,-37.845474116922986,-40.252724638160615,-42.659975159394889,-45.067225680625882,-47.5862814229286,-50.125068741650225,-52.663856060368538,-55.202643379083668,-57.741430697795451,-60.28021801650393,-62.819005335209155,-65.3577926539111,-67.896579972609757,-70.435367291305241,-73.073631396884693,-75.72294952352334,-78.372267650158449,-81.021585776789934,-83.670903903418,-86.320222030042316,-88.969540156663285,-91.618858283280531,-94.268176409894281,-96.917494536504535,-99.660266376062154,-102.40795776191543,-105.15564914776517,-107.90334053361126,-110.65103191945374,-113.39872330529262,-116.14641469112799,-118.89410607695952,-121.64179746278761,-124.38948884861185,0.53816396509556508,0.53816396509556508,0.53816396509556508,0.53816396509556508,0.53816396509556508,0.53816396509556508,0.53816396509556508,0.53816396509556508,0.53816396509556508,0.53816396509556508,0.53816396509556508,0.53816396509556508
DP 332,262.26440187812216,0.0050493756503103759,-237.72246125282177,-231.12416209095753,-224.52586292908916,-217.92756376721644,-211.32926460534,-204.73096544345961,-198.13266628157527,-191.53436711968661,-184.93606795779405,-178.33776879589763,-171.75256614538563,-165.41619968707565,-159.07983322876177,-152.7434667704438,-146.40710031212168,-140.0707338537961,-133.73436739546634,-127.39800093713254,-121.06163447879482,-114.72526802045311,-108.44127531151649,-102.62865129771563,-96.816027283910984,-91.0034032701026,-85.19077925629027,-79.37815524247408,-73.565531228654137,-67.752907214830316,-61.940283201002586,-56.127659187171055,-50.424653784110028,-45.342827416328269,-40.261001048542688,-35.179174680753171,-30.09734831295976,-25.015521945162433,-19.933695577361188,-14.851869209556007,-9.77004284174698,-4.6882164739340366,0.21734596940374248,4.417844384453705,8.6183427995074755,12.818841214565095,17.019339629626518,21.219838044691816,25.420336459760897,29.620834874833847,33.821333289910605,38.0218317049912,41.9799423822793,45.210880681837217,48.44181898139896,51.672757280964539,54.903695580534013,58.134633880107273,61.36557217968442,64.596510479265334,67.827448778850112,71.058387078438741,73.990036840842663,76.223334895975057,78.456632951111217,80.6899310062513,82.923229061395162,85.156527116542819,87.389825171694483,89.623123226849856,91.856421282009165,94.089719337172312,95.982318006300176,97.242180043241646,98.502042080186982,99.7619041171361,101.02176615408914,102.28162819104598,103.54149022800672,104.80135226497133,106.06121430193978,107.32107633891206,108.21745205985246,108.56858971742682,108.91972737500511,109.27086503258732,109.6220026901734,109.97314034776335,110.32427800535713,110.67541566295485,111.02655332055643,111.37769097816194,111.36133070036331,110.89579856008197,110.43026641980447,109.96473427953086,109.4992021392613,109.03366999899556,108.56813785873378,108.10260571847598,107.63707357822193,107.17154143797197,104.00016448071683,102.82471878384266,101.64927308697239,100.47382739010614,99.2983816932438,98.122935996385451,96.947490299531211,95.772044602680779,94.2670245954811,92.49234721584358,90.717669836210092,88.9429924565807,87.16831507695521,85.393637697333887,83.618960317716486,81.844282938103134,80.069605558493876,78.294928178888625,76.224549044703792,73.95703074910837,71.689512453517054,69.421994157929788,67.1544758623467,64.88695756676772,62.61943927119281,60.351920975621887,58.084402680055263,55.816884384492589,53.291767851931759,50.627940830442604,47.964113808957748,45.300286787476985,42.636459766000357,39.972632744527928,37.308805723059663,34.644978701595612,31.981151680135675,29.317324658679926,26.434527825647596,23.457883091693688,20.481238357743933,17.504593623798627,14.527948889857493,11.551304155920718,8.5746594219882173,5.59801468805992,2.6213699541359881,-0.35527477978368771,-3.5147357469868092,-6.7351377626192788,-9.955539778247406,-13.175941793871189,-16.396343809490549,-19.616745825105667,-22.83714784071627,-26.057549856322566,-29.277951871924625,-32.498353887522164,-35.869916487488645,-39.279271019531258,-42.6886255515694,-46.097980083602913,-49.507334615631834,-52.91668914765615,-56.326043679675884,-59.735398211691034,-63.144752743701538,-66.554107275707608,-70.089450615190572,-73.647028674651466,-77.204606734107671,-80.7621847935596,-84.319762853006878,-87.877340912449753,-91.4349189718881,-94.992497031322,-98.550075090751349,-102.1076531501763,-105.77293111459225,-109.45017686621794,-113.12742261783882,-116.80466836945479,-120.48191412106615,-124.1591598726723,-127.83640562427378,-131.51365137587038,-135.19089712746205,-138.8681428790488,-142.64360166411547,-146.42423053338405,-150.20485940264791,-153.98548827190666,-157.76611714116049,-161.54674601040946,-165.32737487965355,-169.10800374889243,-172.88863261812648,-176.66926148735541,0.73661193747950449,0.73661193747950449,0.73661193747950449,0.73661193747950449,0.73661193747950449,0.73661193747950449,0.73661193747950449,0.73661193747950449,0.73661193747950449,0.73661193747950449,0.73661193747950449,0.73661193747950449
DP 333,266.016804163075,0.00110988342669968,-52.761248220411332,-51.292853585066005,-49.824458949719713,-48.3560643143726,-46.887669679024611,-45.4192750436757,-43.950880408325943,-42.482485772975281,-41.014091137623744,-39.545696502271376,-38.080241988461509,-36.670650339789887,-35.2610586911174,-33.851467042444057,-32.44187539376987,-31.03228374509478,-29.622692096418817,-28.213100447742004,-26.803508799064296,-25.393917150385757,-23.996075628996788,-22.703986363863983,-21.411897098730318,-20.119807833595829,-18.827718568460504,-17.535629303324306,-16.243540038187291,-14.951450773049407,-13.659361507910704,-12.367272242771147,-11.099751207251582,-9.971451687737316,-8.8431521682221828,-7.7148526487062,-6.58655312918936,-5.4582536096716661,-4.3299540901531079,-3.2016545706336919,-2.0733550511134227,-0.94505553159229794,0.14379550578244241,1.0748507502019373,2.005905994622267,2.9369612390434447,3.8680164834654582,4.7990717278883173,5.730126972312009,6.6611822167365506,7.5922374611619281,8.523292705588144,9.4001962882713013,10.114642838324157,10.82908938837787,11.543535938432408,12.2579824884878,12.97242903854403,13.686875588601106,14.401322138659017,15.115768688717788,15.830215238777397,16.47793911590685,16.969974128394853,17.462009140883705,17.954044153373392,18.446079165863942,18.938114178355328,19.430149190847555,19.922184203340617,20.414219215834517,20.906254228329281,21.322517489711476,21.598059738438515,21.87360198716642,22.149144235895157,22.424686484624736,22.700228733355171,22.975770982086459,23.251313230818585,23.526855479551564,23.802397728285371,23.997318031054586,24.071303509750013,24.145288988446254,24.219274467143379,24.293259945841381,24.367245424540226,24.441230903239919,24.515216381940437,24.589201860641833,24.663187339344073,24.65590129240103,24.549281673690388,24.44266205498058,24.336042436271637,24.22942281756357,24.122803198856335,24.016183580149981,23.90956396144448,23.802944342739849,23.696324724036071,22.98522422151504,22.722107648405174,22.45899107529619,22.195874502188069,21.932757929080832,21.669641355974463,21.406524782868956,21.14340820976431,20.807886001252502,20.413121573973992,20.018357146696335,19.623592719419573,19.228828292143685,18.834063864868703,18.439299437594581,18.044535010321372,17.649770583049023,17.255006155777572,16.795512775136075,16.292865739202558,15.79021870326997,15.287571667338254,14.784924631407465,14.282277595477565,13.779630559548565,13.276983523620459,12.774336487693276,12.271689451766965,11.712871193647365,11.123806075980413,10.534740958314412,9.9456758406492991,9.3566107229851,8.76754560532182,8.1784804876594457,7.5894153699980018,7.0003502523374506,6.411285134677831,5.774667754517675,5.117670030658001,4.4606723067992391,3.8036745829414524,3.1466768590845793,2.4896791352286627,1.8326814113736845,1.1756836875196266,0.51868596366652742,-0.13831176018563873,-0.834836473414872,-1.5445373479216318,-2.2542382224274387,-2.9639390969322914,-3.6736399714361783,-4.38334084593913,-5.0930417204410912,-5.80274259494211,-6.5124434694421964,-7.2221443439413004,-7.9643741708495757,-8.7147366201943459,-9.4650990695381445,-10.215461518880918,-10.9658239682227,-11.716186417563454,-12.466548866903217,-13.21691131624196,-13.967273765579698,-14.717636214916451,-15.494978515808954,-16.277082266995325,-17.059186018180689,-17.841289769365094,-18.623393520548479,-19.405497271730905,-20.187601022912336,-20.969704774092779,-21.751808525272256,-22.533912276450742,-23.338968740985958,-24.146575748062162,-24.954182755137321,-25.761789762211347,-26.569396769284392,-27.377003776356329,-28.184610783427203,-28.99221779049698,-29.799824797565741,-30.607431804633386,-31.435893714511497,-32.265453458350443,-33.095013202188376,-33.924572946025151,-34.754132689860867,-35.583692433695504,-36.413252177529024,-37.242811921361451,-38.072371665192826,-38.901931409023078,0.16154206000415258,0.16154206000415258,0.16154206000415258,0.16154206000415258,0.16154206000415258,0.16154206000415258,0.16154206000415258,0.16154206000415258,0.16154206000415258,0.16154206000415258,0.16154206000415258,0.16154206000415258
DP 334,81.020684388602817,0.00240789201824418,-46.612900482663406,-45.563513559426518,-44.514126636188116,-43.464739712948266,-42.415352789706887,-41.365965866464009,-40.316578943219689,-39.267192019973827,-38.217805096726487,-37.1684181734777,-36.120173455390272,-35.093630851324306,-34.067088247256848,-33.040545643187876,-32.014003039117448,-30.987460435045531,-29.9609178309721,-28.934375226897206,-27.907832622820745,-26.881290018742874,-25.859480386945307,-24.8802679530516,-23.901055519156365,-22.921843085259713,-21.94263065136159,-20.963418217461978,-19.984205783560871,-19.004993349658303,-18.025780915754268,-17.046568481848759,-16.077804691783925,-15.16825054190584,-14.258696392026264,-13.349142242145167,-12.439588092262559,-11.530033942378465,-10.620479792492835,-9.710925642605698,-8.8013714927170579,-7.8918173428269123,-7.0003582347215687,-6.181280148946275,-5.3622020631694793,-4.5431239773911809,-3.7240458916113792,-2.9049678058300628,-2.0858897200472524,-1.2668116342629316,-0.44773354847711111,0.37134453731021266,1.1631060783253298,1.8729169522200517,2.582727826116296,3.2925387000140662,4.0023495739133681,4.7121604478141963,5.4219713217165442,6.131782195620425,6.8415930695258238,7.5514039434327547,8.2234707378733329,8.8074665270491277,9.3914623162264643,9.97545810540536,10.559453894585806,11.143449683767788,11.727445472951333,12.311441262136409,12.89543705132305,13.479432840511235,14.014460405399877,14.458545659859629,14.90263091432093,15.346716168783823,15.79080142324829,16.234886677714321,16.678971932181934,17.123057186651138,17.567142441121891,18.011227695594229,18.394718585436586,18.687316496465957,18.979914407496906,19.272512318529486,19.565110229563654,19.857708140599449,20.15030605163685,20.442903962675842,20.735501873716448,21.028099784758641,21.248426411320448,21.380419949919478,21.512413488520203,21.644407027122565,21.776400565726561,21.908394104332181,22.040387642939478,22.172381181548388,22.304374720158965,22.436368258771175,22.41387954252275,22.378485031871378,22.343090521221733,22.307696010573757,22.272301499927462,22.236906989282836,22.201512478639923,22.16611796799868,22.036081035716151,21.828607768320406,21.621134500926384,21.413661233534093,21.206187966143535,20.998714698754707,20.791241431367602,20.583768163982239,20.3762948965986,20.168821629216698,19.856371807429344,19.473935962283225,19.091500117138892,18.709064271996308,18.326628426855549,17.94419258171655,17.561756736579337,17.179320891443894,16.796885046310233,16.414449201178353,15.917372931456869,15.35856553526858,14.799758139082142,14.240950742897544,13.682143346714769,13.123335950533843,12.564528554354764,12.005721158177522,11.446913762002119,10.888106365828556,10.205637738385088,9.47016935313809,8.7347009678929517,7.9992325826497561,7.2637641974084284,6.5282958121690173,5.7928274269315017,5.05735904169587,4.3218906564621529,3.5864222712303286,2.7187952711210213,1.8071137338128009,0.895432196506522,-0.016249340797813698,-0.92793087810018615,-1.8396124154006441,-2.7512939526991147,-3.6629754899956484,-4.5746570272902707,-5.4863385645829075,-6.5382171606916675,-7.6251466779545138,-8.712076195215305,-9.7990057124740186,-10.885935229730661,-11.972864746985207,-13.059794264237697,-14.146723781488079,-15.233653298736396,-16.320582815982661,-17.555709529355077,-18.816990337076675,-20.078271144796144,-21.339551952513691,-22.600832760229153,-23.862113567942608,-25.123394375653998,-26.384675183363388,-27.645955991070746,-28.907236798776083,-30.324460794827335,-31.759013449576646,-33.193566104323764,-34.628118759068613,-36.062671413811309,-37.4972240685517,-38.9317767232899,-40.36632937802576,-41.800882032759496,-43.235434687490958,-44.834122067540754,-46.441449750418784,-48.048777433294589,-49.656105116168064,-51.263432799039244,-52.870760481908192,-54.478088164774817,-56.085415847639062,-57.692743530501161,-59.300071213360859,0.3318534760398939,0.3318534760398939,0.3318534760398939,0.3318534760398939,0.3318534760398939,0.3318534760398939,0.3318534760398939,0.3318534760398939,0.3318534760398939,0.3318534760398939,0.3318534760398939,0.3318534760398939
DP 335,60.948904701878227,0.0024796442625702173,-39.688508017122651,-38.84092838764635,-37.993348758168736,-37.145769128689949,-36.298189499209933,-35.45060986972868,-34.603030240246184,-33.755450610762487,-32.907870981277576,-32.060291351791435,-31.213548680987987,-30.3827083833996,-29.551868085809996,-28.721027788219121,-27.890187490627042,-27.059347193033698,-26.228506895439132,-25.397666597843347,-24.566826300246305,-23.735986002648019,-22.908630561192329,-22.112639154424514,-21.316647747655491,-20.520656340885225,-19.7246649341137,-18.928673527340944,-18.13268212056693,-17.336690713791668,-16.540699307015174,-15.744707900237438,-14.95646617794654,-14.212139822762641,-13.467813467577484,-12.723487112391041,-11.979160757203326,-11.234834402014327,-10.490508046824054,-9.7461816916325077,-9.0018553364396769,-8.25752898124558,-7.5267530516222658,-6.85017946468998,-6.1736058777564127,-5.4970322908215552,-4.8204587038854037,-4.14388511694796,-3.4673115300092361,-2.790737943069213,-2.1141643561279051,-1.4375907691853091,-0.78172794611078389,-0.18799819768837345,0.40573155073535477,0.999461299160403,1.5931910475867697,2.1869207960144581,2.7806505444434637,3.3743802928737914,3.9681100413054322,4.5618397897383911,5.1265285603989392,5.6234539058437818,6.1203792512899771,6.6173045967375295,7.114229942186423,7.6111552876366719,8.10808063308827,8.605005978541227,9.1019313239955366,9.5988566694511857,10.057457470686549,10.444883083370822,10.832308696056471,11.21973430874351,11.607159921431936,11.994585534121757,12.382011146812951,12.769436759505535,13.156862372199507,13.544287984894883,13.883372177460467,14.149943097505117,14.416514017551204,14.683084937598691,14.94965585764762,15.216226777697969,15.482797697749756,15.749368617802956,16.015939537857594,16.282510457913645,16.490207314548918,16.625945745922227,16.76168417729701,16.89742260867326,17.033161040050988,17.16889947143018,17.304637902810843,17.440376334192965,17.57611476557657,17.711853196961645,17.770437996791451,17.766723966826294,17.763009936862669,17.759295906900554,17.755581876939956,17.75186784698089,17.748153817023319,17.744439787067286,17.660011574390584,17.5095430978116,17.359074621234218,17.208606144658368,17.058137668084115,16.907669191511406,16.757200714940296,16.606732238370746,16.456263761802763,16.305795285236353,16.063631327213212,15.760335603688073,15.457039880164571,15.153744156642665,14.85044843312242,14.547152709603777,14.243856986086792,13.940561262571411,13.637265539057664,13.33396981554554,12.92812257939017,12.467053806686899,12.005985033985333,11.544916261285456,11.083847488587262,10.622778715890746,10.161709943195921,9.7006411705027933,9.2395723978113278,8.7785036251215676,8.20424171777656,7.5814665564381407,6.9586913951014466,6.3359162337665422,5.7131410724333751,5.0903659111019737,4.4675907497723308,3.8448155884444257,3.2220404271182908,2.5992652657939095,1.8529012027268943,1.0653392815085818,0.27777736029207295,-0.50978456092262947,-1.2973464821355085,-2.084908403346605,-2.8724703245558612,-3.6600322457633157,-4.447594166968992,-5.2351560881728254,-6.1563370766928243,-7.1109244107719531,-8.0655117448491556,-9.020099078924412,-9.9746864129977268,-10.929273747069084,-11.883861081138495,-12.838448415205967,-13.793035749271491,-14.747623083335096,-15.845707731972039,-16.969117031832596,-18.092526331691193,-19.215935631547961,-20.339344931402778,-21.462754231255744,-22.586163531106774,-23.709572830955931,-24.832982130803174,-25.956391430648544,-27.232599535804905,-28.525786890743206,-29.818974245679446,-31.112161600613518,-32.40534895554557,-33.698536310475404,-34.991723665403192,-36.284911020328828,-37.578098375252416,-38.871285730173859,-40.326487442864725,-41.790217838995012,-43.25394823512314,-44.717678631249115,-46.181409027372951,-47.645139423494662,-49.108869819614156,-50.572600215731384,-52.03633061184663,-53.500061007959587,0.30658377230079742,0.30658377230079742,0.30658377230079742,0.30658377230079742,0.30658377230079742,0.30658377230079742,0.30658377230079742,0.30658377230079742,0.30658377230079742,0.30658377230079742,0.30658377230079742,0.30658377230079742
DP 336,138.59651846909162,0.0049627015708739852,-144.38236372804752,-140.80367997479524,-137.22499622153944,-133.6463124682798,-130.06762871501627,-126.48894496174891,-122.91026120847779,-119.33157745520288,-115.75289370192418,-112.17420994864153,-108.60051676623975,-105.12164537407959,-101.64277398191541,-98.163902589747536,-94.68503119757591,-91.206159805400432,-87.727288413221146,-84.248417021038236,-80.7695456288514,-77.2906742366608,-73.832213238951951,-70.557447720834787,-67.282682202713957,-64.00791668458946,-60.733151166461226,-57.458385648329369,-54.183620130193717,-50.9088546120545,-47.634089093911562,-44.359323575764904,-41.128783993703919,-38.148860836353933,-35.168937679000209,-32.189014521642704,-29.209091364281445,-26.229168206916441,-23.249245049547657,-20.269321892175096,-17.2893987347988,-14.309475577418732,-11.404170064428374,-8.7973386554982014,-6.190507246564338,-3.5836758376267537,-0.97684442868547861,1.6299869802595282,4.2368183892082323,6.8436497981606621,9.4504812071167787,12.057312616076617,14.555147349926411,16.725987937425224,18.896828524927773,21.067669112434039,23.238509699944057,25.409350287457791,27.580190874975287,29.751031462496496,31.92187205002142,34.092712637550086,36.11885340043785,37.807355540311661,39.495857680189253,41.184359820070625,42.872861959955749,44.561364099844575,46.249866239737251,47.938368379633616,49.626870519533711,51.3153726594376,52.824747646668534,54.0014530842565,55.178158521848225,56.35486395944374,57.531569397043093,58.708274834646168,59.884980272253095,61.061685709863774,62.238391147478218,63.415096585096457,64.381711324770762,65.03318505300625,65.684658781245574,66.336132509488763,66.987606237735747,67.6390799659866,68.290553694241225,68.9420274224998,69.593501150762108,70.2449748790282,70.6605046525609,70.787653525469381,70.914802398381838,71.041951271298188,71.1691001442183,71.296249017142429,71.423397890070419,71.550546763002245,71.677695635937965,71.804844508877608,70.907756632964109,70.523490741232919,70.13922484950568,69.754958957782421,69.370693066063083,68.986427174347725,68.6021612826363,68.217895390928774,67.56456189236,66.69107754587651,65.817593199396981,64.944108852921445,64.0706245064499,63.197140159982482,62.323655813519075,61.450171467059654,60.576687120604312,59.703202774153006,58.553355637514066,57.219262287050228,55.885168936590546,54.551075586134985,53.216982235683517,51.882888885236135,50.548795534792923,49.214702184353804,47.880608833918821,46.546515483487909,44.933966610174885,43.171476098386876,41.408985586603187,39.646495074823683,37.884004563048343,36.121514051277252,34.359023539510353,32.596533027747682,30.834042515989211,29.071552004234952,27.03243342021376,24.87475527891381,22.717077137618087,20.5593989963268,18.40172085503978,16.244042713757121,14.086364572478789,11.928686431204735,9.7710082899350663,7.6133301486697027,5.1831414816034478,2.6621125381989112,0.14108359479877666,-2.3799453485969466,-4.9009742919882111,-7.4220032353751435,-9.9430321787575462,-12.46406112213557,-14.985090065509249,-17.506119008878411,-20.294821453093185,-23.150445435122823,-26.0060694171479,-28.861693399168232,-31.7173173811839,-34.572941363194857,-37.428565345201179,-40.284189327202789,-43.139813309199688,-45.995437291192054,-49.115463610875047,-52.282152106811978,-55.448840602744291,-58.615529098672191,-61.78221759459538,-64.948906090514043,-68.115594586428088,-71.282283082337557,-74.448971578242563,-77.615660074142966,-81.045980885064324,-84.505596944191609,-87.965213003314048,-91.424829062431357,-94.88444512154382,-98.344061180651209,-101.80367723975367,-105.26329329885093,-108.72290935794351,-112.18252541703096,-115.91022039847522,-119.65202746416199,-123.39383452984376,-127.13564159552031,-130.87744866119192,-134.6192557268584,-138.36106279251979,-142.10286985817581,-145.84467692382711,-149.58648398947292,0.75190411017427861,0.75190411017427861,0.75190411017427861,0.75190411017427861,0.75190411017427861,0.75190411017427861,0.75190411017427861,0.75190411017427861,0.75190411017427861,0.75190411017427861,0.75190411017427861,0.75190411017427861
DP 337,166.54752850406584,0.0018966243695071356,-63.801083876366583,-62.168391303534648,-60.535698730701192,-58.903006157866237,-57.270313585029825,-55.637621012191886,-54.004928439352433,-52.372235866511524,-50.739543293669072,-49.106850720825186,-47.476661259739515,-45.894031395286824,-44.31140153083269,-42.728771666377035,-41.1461418019199,-39.563511937461243,-37.980882073001155,-36.39825220853956,-34.81562234407648,-33.232992479611895,-31.660544066522679,-30.17972967819215,-28.698915289860192,-27.21810090152681,-25.73728651319195,-24.256472124855676,-22.775657736517928,-21.294843348178734,-19.814028959838115,-18.333214571496043,-16.874283967968385,-15.539362857391781,-14.204441746813677,-12.869520636234098,-11.534599525653068,-10.199678415070549,-8.8647573044865435,-7.5298361939010787,-6.1949150833141422,-4.85999397272573,-3.5615800583903829,-2.4091966544312862,-1.2568132504707477,-0.10442984650875214,1.0479535574546834,2.2003369614195805,3.3527203653859194,4.5051037693537177,5.6574871733229521,6.8098705772936468,7.9096800404832059,8.8517656935784927,9.7938513466752557,10.735936999773468,11.678022652873135,12.620108305974274,13.562193959076847,14.504279612180907,15.446365265286376,16.388450918393339,17.26193345598131,17.975339355495468,18.688745255011124,19.402151154528216,20.115557054046768,20.8289629535668,21.542368853088274,22.255774752611245,22.96918065213567,23.68258655166154,24.3127564746466,24.788343050457939,25.26392962627073,25.739516202084967,26.215102777900729,26.690689353717932,27.166275929536607,27.641862505356773,28.1174490811784,28.593035657001483,28.973213041522168,29.210274384533925,29.447335727547191,29.684397070561928,29.921458413578186,30.158519756595876,30.395581099615068,30.632642442635778,30.869703785657933,31.10676512868163,31.239400350543871,31.244401453094962,31.249402555647556,31.254403658201646,31.259404760757253,31.264405863314387,31.269406965872992,31.274408068433146,31.279409170994754,31.284410273557885,30.7494673531468,30.534489548621572,30.319511744097873,30.104533939575759,29.889556135055141,29.674578330536026,29.459600526018466,29.244622721502441,28.917479166070088,28.498561704966669,28.079644243864788,27.660726782764488,27.241809321665716,26.822891860568507,26.403974399472858,25.985056938378776,25.566139477286217,25.147222016195279,24.616963188721293,24.012475029634953,23.407986870550204,22.803498711467004,22.199010552385431,21.594522393305422,20.990034234227014,20.385546075150181,19.78105791607495,19.176569757001296,18.46395306458145,17.693111743366277,16.922270422152728,16.1514291009408,15.380587779730511,14.609746458521842,13.838905137314789,13.06806381610939,12.297222494905585,11.526381173703417,10.652251632797363,9.73385396863159,8.8154563044674461,7.8970586403050111,6.9786609761442167,6.0602633119851,5.1418656478276485,4.2234679836718394,3.3050703195177191,2.3866726553652557,1.3705964358088381,0.32195946675798509,-0.72667750229117511,-1.77531447133864,-2.82395144038439,-3.872588409428479,-4.9212253784708206,-5.9698623475114818,-7.0184993165504812,-8.0671362855877344,-9.207863577792633,-10.371614538850606,-11.535365499906806,-12.699116460961198,-13.862867422013821,-15.026618383064614,-16.190369344113613,-17.354120305160844,-18.517871266206267,-19.681622227249928,-20.932908215873791,-22.199642535707486,-23.466376855539387,-24.733111175369594,-25.999845495197995,-27.26657981502467,-28.533314134849572,-29.800048454672741,-31.066782774494136,-32.333517094313805,-33.684739331962113,-35.045350003357335,-36.405960674750638,-37.76657134614203,-39.127182017531574,-40.487792688919143,-41.84840336030485,-43.209014031688589,-44.56962470307046,-45.930235374450433,-47.374911236063149,-48.82401241778652,-50.27311359950788,-51.722214781227386,-53.171315962944846,-54.6204171446605,-56.069518326374165,-57.518619508085827,-58.967720689795634,-60.416821871503409,0.28839751273472813,0.28839751273472813,0.28839751273472813,0.28839751273472813,0.28839751273472813,0.28839751273472813,0.28839751273472813,0.28839751273472813,0.28839751273472813,0.28839751273472813,0.28839751273472813,0.28839751273472813
DP 338,293.71911229955646,0.0019912559483990853,-101.10311503882689,-98.235121627893335,-95.367128216958292,-92.499134806021672,-89.631141395083418,-86.763147984143728,-83.89515457320239,-81.027161162259532,-78.159167751315081,-75.291174340369054,-72.429292298858016,-69.683527431961636,-66.937762565063679,-64.191997698164244,-61.446232831263224,-58.7004679643607,-55.95470309745653,-53.208938230550906,-50.463173363643712,-47.717408496734969,-44.995952381033476,-42.493277323915841,-39.990602266796635,-37.487927209675973,-34.985252152553805,-32.482577095430152,-29.979902038304996,-27.477226981178337,-24.974551924050193,-22.471876866920542,-20.019644541270868,-17.853257539304934,-15.686870537337482,-13.520483535368513,-11.354096533398035,-9.1877095314260266,-7.0213225294524921,-4.8549355274774291,-2.6885485255008641,-0.522161523522778,1.5640704498670981,3.3296785207081836,5.0952865915507459,6.8608946623948164,8.6265027332403541,10.3921108040874,12.157718874935934,13.923326945785956,15.688935016637478,17.454543087490464,19.111546347054205,20.442731066549502,21.773915786046295,23.105100505544574,24.436285225044372,25.767469944545624,27.098654664048397,28.42983938355264,29.761024103058396,31.092208822565627,32.291632003003919,33.183606402987024,34.075580802971629,34.967555202957712,35.859529602945322,36.751504002934375,37.643478402924991,38.535452802917057,39.42742720291065,40.319401602905693,41.064368661981007,41.53631811781753,42.008267573655573,42.480217029495115,42.952166485336207,43.424115941178684,43.896065397022717,44.368014852868264,44.839964308715317,45.311913764563869,45.630499184198911,45.719034925464058,45.80757066673074,45.896106407998921,45.984642149268623,46.0731778905398,46.161713631812475,46.2502493730867,46.338785114362395,46.427320855639664,46.364550383311141,46.116846916200608,45.869143449091524,45.621439981984032,45.373736514878047,45.126033047773582,44.878329580670631,44.630626113569186,44.382922646469289,44.135219179370885,42.680421397966605,42.148042440673272,41.615663483381525,41.08328452609129,40.5509055688026,40.018526611515441,39.486147654229832,38.953768696945751,38.292899335971505,37.526899254687585,36.760899173405221,35.994899092124435,35.22889901084514,34.462898929567487,33.696898848291376,32.930898767016807,32.164898685743815,31.398898604472386,30.521006097100674,29.568516876290492,28.616027655481936,27.663538434674937,26.711049213869583,25.758559993065745,24.806070772263546,23.853581551462916,22.901092330663893,21.94860310986644,20.901675056328781,19.80389395031743,18.706112844307746,17.608331738299622,16.510550632293157,15.412769526288299,14.314988420285045,13.217207314283426,12.119426208283388,11.021645102284989,9.8462396722552814,8.637565364573506,7.4288910568933337,6.2202167492148783,5.011542441538043,3.802868133862892,2.5941938261893975,1.3855195185175309,0.17684521084735538,-1.031829096821173,-2.3030282337726478,-3.59506976847464,-4.8871113031749491,-6.1791528378735787,-7.4711943725704915,-8.7632359072657628,-10.055277441959289,-11.347318976651156,-12.639360511341362,-13.931402046029831,-15.273188466626872,-16.62741169644379,-17.98163492625897,-19.335858156072355,-20.690081385883971,-22.044304615693793,-23.398527845501842,-24.75275107530814,-26.106974305112612,-27.461197534915396,-28.855249743174834,-30.256331037594336,-31.657412332011997,-33.058493626428053,-34.45957492084235,-35.86065621525487,-37.26173750966565,-38.662818804074682,-40.063900098482016,-41.4649813928876,-42.898773553776977,-44.336200598926638,-45.7736276440745,-47.211054689220362,-48.648481734364395,-50.085908779506546,-51.523335824646786,-52.960762869785121,-54.398189914921687,-55.835616960056313,-57.301972009917364,-58.769849874163519,-60.237727738407834,-61.705605602650159,-63.173483466890659,-64.641361331129161,-66.109239195365873,-67.577117059600482,-69.044994923833329,-70.512872788064129,0.28483373259990891,0.28483373259990891,0.28483373259990891,0.28483373259990891,0.28483373259990891,0.28483373259990891,0.28483373259990891,0.28483373259990891,0.28483373259990891,0.28483373259990891,0.28483373259990891,0.28483373259990891
DP 339,133.22356949493744,0.0016336211806170791,-46.061173470177295,-44.927359790851305,-43.79354611152413,-42.659732432195725,-41.525918752866019,-40.392105073535078,-39.258291394202892,-38.1244777148695,-36.99066403553482,-35.856850356198883,-34.724586759656681,-33.621775029251516,-32.518963298845115,-31.416151568437432,-30.313339838028561,-29.210528107618451,-28.107716377207115,-27.00490464679455,-25.9020929163807,-24.799281185965633,-23.702816231197417,-22.66347285716898,-21.624129483139342,-20.5847861091085,-19.545442735076453,-18.506099361043191,-17.466755987008735,-16.427412612973068,-15.388069238936222,-14.348725864898149,-13.323156215091938,-12.375638537216307,-11.428120859339415,-10.480603181461314,-9.53308550358198,-8.5855678257014176,-7.6380501478196257,-6.6905324699365947,-5.7430147920523478,-4.7954971141668716,-3.8712711602188841,-3.0402132028102393,-2.2091552454003827,-1.3780972879893103,-0.54703933057703358,0.28401862683646439,1.11507658425117,1.946134541667093,2.7771924990842232,3.6082504565025655,4.4051892087150115,5.0997690553073856,5.7943489019009862,6.4889287484958116,7.1835085950918431,7.8780884416891084,8.5726682882875913,9.267248134887291,9.96182798148821,10.656407828090357,11.305537060180823,11.848613068385761,12.391689076591909,12.934765084799292,13.477841093007903,14.020917101217744,14.5639931094288,15.10706911764111,15.650145125854623,16.193221134069375,16.679805687360791,17.061476013034564,17.44314633870956,17.824816664385803,18.20648699006329,18.58815731574202,18.969827641421993,19.351497967103182,19.733168292785614,20.1148386184693,20.429946509150728,20.645209174433244,20.86047183971699,21.075734505002,21.290997170288268,21.506259835575779,21.721522500864545,21.936785166154561,22.152047831445845,22.367310496738373,22.507432126751876,22.555713135325909,22.60399414390124,22.652275152477824,22.700556161055719,22.748837169634843,22.797118178215261,22.845399186796964,22.893680195379911,22.941961203964144,22.67727298024224,22.561741179365143,22.446209378489332,22.330677577614825,22.215145776741608,22.099613975869673,21.984082174999067,21.868550374129715,21.666285949187476,21.393056977623445,21.11982800606074,20.846599034499359,20.573370062939276,20.300141091380528,20.0269121198231,19.753683148266994,19.48045417671219,19.207225205158736,18.844297232255379,18.421568512039542,17.998839791825077,17.576111071611919,17.153382351400154,16.730653631189718,16.307924910980617,15.885196190772877,15.462467470566486,15.039738750361437,14.525962435720288,13.963159169314485,13.400355902910084,12.837552636507045,12.274749370105399,11.711946103705127,11.149142837306236,10.586339570908738,10.023536304512616,9.4607330381178851,8.8067736608661118,8.11374584035092,7.4207180198371026,6.727690199324754,6.0346623788137963,5.3416345583042784,4.6486067377961735,3.9555789172894715,3.2625510967842111,2.5695232762803633,1.7859779535944078,0.972258989404105,0.15854002521524702,-0.6551789389721635,-1.4688979031581093,-2.2826168673426355,-3.0963358315256708,-3.9100547957072722,-4.7237737598874512,-5.5374927240661416,-6.4408211132810429,-7.3665529175041247,-8.2922847217256948,-9.2180165259457176,-10.143748330164213,-11.069480134381157,-11.995211938596576,-12.920943742810458,-13.846675547022789,-14.772407351233609,-15.787289709690446,-16.817905510263227,-17.848521310834489,-18.8791371114043,-19.909752911972554,-20.940368712539339,-21.9709845131046,-23.001600313668373,-24.032216114230643,-25.062831914791428,-26.182865178524278,-27.312834655036553,-28.442804131547156,-29.57277360805616,-30.702743084563561,-31.832712561069258,-32.962682037573373,-34.092651514075783,-35.222620990576608,-36.352590467075771,-37.5738381377691,-38.799890832127296,-40.025943526483864,-41.251996220838734,-42.478048915191927,-43.704101609543507,-44.930154303893396,-46.156206998241494,-47.382259692588029,-48.608312386932823,0.2468830664412113,0.2468830664412113,0.2468830664412113,0.2468830664412113,0.2468830664412113,0.2468830664412113,0.2468830664412113,0.2468830664412113,0.2468830664412113,0.2468830664412113,0.2468830664412113,0.2468830664412113
DP 340,134.58321397900335,0.0039271376213400218,-111.62305222520163,-108.87051493496659,-106.11797764472861,-103.36544035448753,-100.61290306424353,-97.860365773996563,-95.107828483746559,-92.355291193493528,-89.602753903237584,-86.850216612978613,-84.10146184411802,-81.424575696945553,-78.7476895497699,-76.070803402591451,-73.39391725541,-70.7170311082255,-68.0401449610381,-65.363258813847679,-62.686372666654329,-60.00948651945793,-57.348081979697866,-54.826013370236957,-52.30394476077312,-49.781876151306378,-47.259807541836771,-44.737738932364245,-42.215670322888791,-39.6936017134104,-37.171533103929193,-34.649464494445063,-32.160981368330404,-29.862818097695584,-27.564654827057797,-25.266491556417062,-22.968328285773353,-20.670165015126706,-18.372001744477075,-16.07383847382448,-13.775675203168934,-11.477511932510438,-9.2361093322571328,-7.2217520961885882,-5.2073948601171347,-3.1930376240427587,-1.1786803879654735,0.83567684811475007,2.8500340841978828,4.8643913202839482,6.8787485563729236,8.893105792464814,10.824375439524159,12.506379178053272,14.188382916585311,15.870386655120287,17.552390393658225,19.234394132199078,20.916397870742895,22.598401609289624,24.2804053478393,25.962409086391936,27.533828987127269,28.847215577726722,30.160602168329092,31.473988758934428,32.787375349542764,34.100761940154,35.414148530768237,36.727535121385422,38.040921712005535,39.354308302628645,40.530386179580525,41.451458451533711,42.372530723489881,43.293602995449028,44.214675267411167,45.135747539376261,46.056819811344361,46.977892083315467,47.898964355289529,48.820036627266624,49.579513026877976,50.096591799369151,50.613670571863345,51.1307493443605,51.647828116860772,52.164906889364005,52.681985661870229,53.199064434379515,53.716143206891807,54.233221979407141,54.568117357187312,54.680340314680969,54.792563272177638,54.904786229677363,55.017009187180271,55.129232144686171,55.2414551021951,55.353678059707114,55.465901017222166,55.578123974740357,54.923330107018359,54.638967218720552,54.354604330425936,54.070241442134396,53.78587855384594,53.5015156655607,53.217152777278514,52.932789888999416,52.438784966596948,51.773251140699891,51.107717314805939,50.442183488915163,49.776649663027584,49.111115837143224,48.445582011261919,47.780048185383905,47.114514359509023,46.448980533637325,45.567016398410331,44.540761980730387,43.514507563053662,42.488253145380213,41.46199872771,40.435744310043,39.409489892379305,38.3832354747188,37.356981057061567,36.330726639407558,35.0851972467067,33.721593524953995,32.357989803204667,30.994386081458668,29.63078235971598,28.267178637976613,26.903574916240547,25.539971194507878,24.176367472778463,22.812763751052433,21.230058291671291,19.553448389395253,17.876838487122534,16.200228584853338,14.523618682587497,12.847008780325105,11.170398878066134,9.4937889758105332,7.817179073558397,6.1405691713096591,4.2468303645768168,2.2807125199099163,0.31459467524649354,-1.651523169413446,-3.6176410140698656,-5.5837588587228622,-7.5498767033722887,-9.5159945480182451,-11.482112392660774,-13.44823023729975,-15.628874963496896,-17.863153944751648,-20.097432926002764,-22.331711907250178,-24.565990888493896,-26.800269869733881,-29.034548850970186,-31.2688278322028,-33.503106813431721,-35.737385794657,-38.184708102940867,-40.669628661542049,-43.154549220139508,-45.639469778733464,-48.124390337323753,-50.609310895910482,-53.094231454493517,-55.579152013073006,-58.064072571648857,-60.548993130221156,-63.247278428903336,-65.969273161762629,-68.691267894618022,-71.413262627469422,-74.135257360316913,-76.857252093160412,-79.579246826000158,-82.301241558835656,-85.023236291667388,-87.74523102449524,-90.684820229449855,-93.6358639400194,-96.586907650585047,-99.537951361146625,-102.48899507170414,-105.44003878225772,-108.39108249280719,-111.34212620335262,-114.29316991389405,-117.24421362443128,0.59391821996073269,0.59391821996073269,0.59391821996073269,0.59391821996073269,0.59391821996073269,0.59391821996073269,0.59391821996073269,0.59391821996073269,0.59391821996073269,0.59391821996073269,0.59391821996073269,0.59391821996073269
DP 341,55.6859955913076,0.0031555875532861969,-47.688869208603904,-46.687879354619895,-45.68688950063445,-44.685899646647584,-43.684909792659312,-42.683919938669632,-41.682930084678517,-40.68194023068596,-39.680950376692032,-38.679960522696682,-37.67993643271646,-36.698262041621454,-35.716587650524986,-34.73491325942706,-33.7532388683277,-32.7715644772269,-31.789890086124707,-30.808215695021012,-29.826541303915924,-28.844866912809373,-27.867219037983666,-26.92581019029031,-25.984401342595497,-25.042992494899234,-24.101583647201487,-23.160174799502297,-22.218765951801622,-21.277357104099508,-20.335948256395945,-19.39453940869091,-18.462098746636819,-17.580478368403973,-16.698857990169628,-15.817237611933754,-14.935617233696407,-14.053996855457553,-13.172376477217197,-12.290756098975343,-11.409135720732003,-10.527515342487163,-9.6616134051474152,-8.8585859742987587,-8.0555585434485817,-7.2525311125968823,-6.4495036817436606,-5.6464762508889077,-4.8434488200326422,-4.0404213891748437,-3.2373939583155313,-2.4343665274546917,-1.6554330297606707,-0.948782242528418,-0.24213145529460209,0.46451933194077794,1.1711701191777246,1.877820906416235,2.5844716936563068,3.2911224808979425,3.9977732681411391,4.7044240553859051,5.3771716645515628,5.9708105229604911,6.5644493813710421,7.1580882397831944,7.751727098196957,8.3453659566123211,8.9390048150292962,9.5326436734478825,10.126282531868085,10.71992139028988,11.268640230578459,11.733934966930576,12.199229703284335,12.664524439639756,13.129819175996843,13.595113912355574,14.060408648715971,14.525703385078033,14.990998121441752,15.456292857807098,15.864676743134616,16.187693007080078,16.510709271027256,16.833725534976143,17.156741798926738,17.479758062879021,17.802774326833063,18.125790590788775,18.448806854746216,18.771823118705377,19.025197565009851,19.193452771370012,19.361707977731932,19.529963184095628,19.698218390461093,19.866473596828328,20.034728803197343,20.202984009568109,20.371239215940665,20.539494422314984,20.62979564397455,20.632264777962629,20.63473391195253,20.637203045944251,20.639672179937826,20.642141313933237,20.644610447930475,20.647079581929532,20.553097264333047,20.380198465116806,20.207299665902458,20.034400866690021,19.861502067479481,19.688603268270843,19.515704469064126,19.342805669859281,19.169906870656355,18.99700807145533,18.713966190737313,18.357493853861627,18.001021516987915,17.644549180116176,17.288076843246458,16.931604506378655,16.575132169512866,16.218659832649038,15.8621874957872,15.505715158927327,15.025440417082979,14.478501041481875,13.931561665882832,13.384622290285854,12.837682914690918,12.290743539098049,11.743804163507223,11.196864787918461,10.649925412331749,10.102986036747092,9.4187418837313839,8.67565050855589,7.9325591333825,7.1894677582112978,6.4463763830422218,5.7032850078752846,4.960193632710495,4.2171022575478343,3.4740108823873328,2.7309195072289669,1.8372571466685623,0.89340256001967122,-0.05045202662701373,-0.99430661327148984,-1.93816119991374,-2.8820157865538096,-3.8258703731916306,-4.7697249598272524,-5.71357954646069,-6.6574341330918863,-7.7646981124373751,-8.9128163706688568,-10.060934628897984,-11.209052887124699,-12.357171145349044,-13.505289403570968,-14.653407661790519,-15.801525920007672,-16.949644178222453,-18.097762436434863,-19.4219219737994,-20.777149576853773,-22.132377179905792,-23.487604782955561,-24.842832386002932,-26.198059989048023,-27.553287592090761,-28.908515195131191,-30.263742798169254,-31.618970401205083,-33.162078107499575,-34.726063354006541,-36.290048600510886,-37.854033847012708,-39.418019093511887,-40.98200434000843,-42.545989586502472,-44.109974832993814,-45.673960079482654,-47.237945325968838,-49.001429922088519,-50.775416468916958,-52.549403015742733,-54.323389562565794,-56.097376109386225,-57.871362656204035,-59.6453492030191,-61.419335749831482,-63.193322296641327,-64.967308843448379,0.37345172603156351,0.37345172603156351,0.37345172603156351,0.37345172603156351,0.37345172603156351,0.37345172603156351,0.37345172603156351,0.37345172603156351,0.37345172603156351,0.37345172603156351,0.37345172603156351,0.37345172603156351
DP 342,296.63240554585815,0.00492673444743955,-251.75351292067265,-244.59817096592735,-237.44282901117793,-230.287487056425,-223.13214510166819,-215.97680314690743,-208.82146119214272,-201.66611923737406,-194.51077728260185,-187.35543532782557,-180.215437360286,-173.36697805100914,-166.51851874172883,-159.67005943244448,-152.82160012315629,-145.9731408138644,-139.1246815045686,-132.27622219526907,-125.42776288596575,-118.57930357665849,-111.79184633797057,-105.55341350090951,-99.314980663844835,-93.076547826776462,-86.838114989704323,-80.5996821526285,-74.361249315548974,-68.122816478465737,-61.884383641378847,-55.645950804288269,-49.534001665311791,-44.138801452639981,-38.743601239964448,-33.348401027285092,-27.953200814602017,-22.558000601915197,-17.162800389224557,-11.767600176530188,-6.3723999638320814,-0.977199751130221,4.2172329817969239,8.6085863071806852,12.999939632568104,17.391292957959244,21.782646283354008,26.173999608752492,30.565352934154671,34.956706259560534,39.348059584970031,43.73941291038323,47.859111092660044,51.16383357461509,54.468556056573767,57.773278538536182,61.078001020502256,64.382723502472089,67.68744598444556,70.992168466422768,74.296890948403544,77.601613430388042,80.577291901932355,82.7851880567181,84.99308421150765,87.200980366300925,89.408876521097753,91.616772675898318,93.824668830702564,96.032564985510632,98.240461140322225,100.44835729513755,102.28981482906187,103.45073359952131,104.61165236998443,105.77257114045129,106.93348991092196,108.09440868139625,109.25532745187415,110.4162462223558,111.57716499284125,112.73808376333032,113.51750293646171,113.72466369857803,113.93182446069802,114.13898522282179,114.34614598494935,114.55330674708046,114.76046750921542,114.96762827135417,115.17478903349655,115.38194979564257,115.21357278746281,114.58619728302052,113.95882177858223,113.33144627414761,112.70407076971674,112.07669526528957,111.4493197608662,110.82194425644668,110.19456875203076,109.56719324761886,105.92292747467309,104.5906949339137,103.25846239315818,101.92622985240632,100.59399731165846,99.261764770914354,97.929532230173962,96.597299689437392,94.947738294346422,93.038538746714892,91.129339199087141,89.220139651463356,87.3109401038433,85.401740556227253,83.492541008614907,81.583341461006583,79.674141913401982,77.764942365801346,75.580153723658128,73.211634676975166,70.843115630296182,68.474596583621008,66.10607753694994,63.73755849028263,61.369039443619386,59.000520396959907,56.632001350304506,54.263482303652971,51.663025649888681,48.937676142592878,46.212326635301061,43.486977128013223,40.761627620729392,38.036278113449491,35.310928606173604,32.585579098901754,29.86022959163385,27.134880084369875,24.219464340039568,21.222588428865,18.225712517694415,15.228836606528077,12.231960695365736,9.2350847842075527,6.2382088730534662,3.2413329619033897,0.24445705075749874,-2.7524188603843234,-5.9018977290548387,-9.10224617346338,-12.302594617867769,-15.502943062268,-18.703291506663998,-21.903639951055947,-25.103988395443597,-28.304336839827094,-31.504685284206516,-34.705033728581689,-38.026374481929324,-41.377964742060975,-44.729555002188363,-48.081145262311296,-51.432735522429816,-54.784325782543966,-58.135916042653754,-61.4875063027591,-64.839096562860036,-68.190686822956735,-71.638801257162982,-75.103950442513423,-78.569099627859558,-82.034248813201529,-85.49939799853901,-88.964547183872384,-92.429696369201309,-95.894845554526057,-99.359994739846456,-102.82514392516261,-106.36927611047187,-109.92218501417372,-113.47509391787085,-117.02800282156331,-120.58091172525126,-124.1338206289343,-127.68672953261296,-131.23963843628684,-134.79254733995617,-138.34545624362065,-141.96801512248143,-145.59424048249588,-149.22046584250586,-152.84669120251087,-156.47291656251127,-160.09914192250707,-163.725367282498,-167.35159264248406,-170.97781800246551,-174.60404336244216,0.70341956993093213,0.70341956993093213,0.70341956993093213,0.70341956993093213,0.70341956993093213,0.70341956993093213,0.70341956993093213,0.70341956993093213,0.70341956993093213,0.70341956993093213,0.70341956993093213,0.70341956993093213
DP 343,214.33736183060739,0.0054307468054557795,-221.47653211682217,-215.55234975723573,-209.62816739764486,-203.70398503804952,-197.77980267845,-191.85562031884615,-185.93143795923754,-180.00725559962521,-174.08307324000836,-168.15889088038693,-162.24514117057703,-156.52961377949589,-150.8140863884104,-145.09855899732071,-139.38303160622669,-133.66750421512842,-127.95197682402573,-122.23644943291875,-116.52092204180744,-110.80539465069189,-105.13193497240792,-99.837088685957468,-94.542242399502669,-89.247396113043834,-83.952549826580722,-78.657703540113488,-73.362857253642019,-68.068010967166373,-62.773164680686563,-57.478318394202617,-52.272691116995055,-47.572643847798,-42.872596578596706,-38.17254930939108,-33.472502040181311,-28.772454770967222,-24.072407501748902,-19.37236023252629,-14.672312963299463,-9.9722656940683887,-5.4183170580615263,-1.4487698597036802,2.5207773386583159,6.49032453702451,10.459871735394847,14.429418933769385,18.398966132148097,22.368513330531,26.338060528918067,30.307607727309311,34.071607354370542,37.218956495964093,40.366305637561844,43.51365477916378,46.661003920769907,49.8083530623802,52.955702203994711,56.1030513456134,59.2504004872363,62.397749628863359,65.2842955549983,67.562290373517143,69.84028519204017,72.118280010567432,74.3962748290989,76.674269647634517,78.952264466174356,81.2302592847184,83.508254103266623,85.786248921819123,87.75791414303049,89.160673267825032,90.5634323926237,91.96619151742658,93.368950642233742,94.77170976704511,96.174468891860727,97.5772280166805,98.979987141504509,100.38274626633284,101.44702859491237,102.00358773078466,102.56014686666128,103.11670600254212,103.67326513842721,104.22982427431664,104.78638341021028,105.34294254610819,105.89950168201023,106.45606081791668,106.65695511777655,106.42314048069761,106.18932584362292,105.95551120655273,105.72169656948678,105.48788193242505,105.25406729536769,105.02025265831465,104.78643802126579,104.55262338422132,102.06014332057021,101.10991286820524,100.1596824158448,99.209451963488434,98.259221511136587,97.308991058789076,96.3587606064458,95.408530154107,94.1103928881372,92.527598613805537,90.94480433947831,89.3620100651553,87.779215790836787,86.196421516522889,84.6136272422133,83.030832967908168,81.448038693607387,79.86524441931121,77.954882961674613,75.8261382214593,73.6973934812486,71.568648741042352,69.439904000840585,67.311159260643308,65.182414520450621,63.053669780262389,60.924925040078762,58.7961802998995,56.366976728822912,53.7759832642196,51.184989799620944,48.59399633502693,46.003002870437435,43.412009405852643,40.821015941272385,38.230022476696824,35.639029012125789,33.0480355475594,30.187130675748268,27.210544930751094,24.233959185758497,21.257373440770763,18.280787695787666,15.304201950809347,12.327616205835731,9.3510304608667489,6.3744447159025706,3.397858970943076,0.1821766236785681,-3.1132076043148897,-6.4085918323035607,-9.7039760602874345,-12.999360288266454,-16.294744516240776,-19.590128744210151,-22.885512972174769,-26.180897200134694,-29.4762814280897,-32.98225341067,-36.54087482003218,-40.099496229389366,-43.658117638741487,-47.216739048088527,-50.775360457430438,-54.333981866767346,-57.892603276099138,-61.451224685425892,-65.009846094747687,-68.755701200741839,-72.534599629388737,-76.313498058030575,-80.0923964866677,-83.871294915299643,-87.650193343926688,-91.4290917725488,-95.207990201165927,-98.986888629778178,-102.76578705838541,-106.71490999784871,-110.68294855960718,-114.65098712136027,-118.61902568310796,-122.58706424485045,-126.5551028065875,-130.52314136831913,-134.49117993004515,-138.45921849176628,-142.42725705348155,-146.5577359260495,-150.69676590487489,-154.83579588369489,-158.97482586250965,-163.11385584131864,-167.25288582012246,-171.39191579892065,-175.5309457777133,-179.66997575650066,-183.80900573528234,0.81345505014255837,0.81345505014255837,0.81345505014255837,0.81345505014255837,0.81345505014255837,0.81345505014255837,0.81345505014255837,0.81345505014255837,0.81345505014255837,0.81345505014255837,0.81345505014255837,0.81345505014255837
DP 344,110.03734055313848,0.0039841044416028017,-96.696288432225174,-94.3952357843718,-92.0941831365155,-89.793130488656359,-87.492077840794309,-85.191025192929516,-82.8899725450617,-80.588919897191133,-78.287867249317628,-75.986814601441338,-73.688628275403147,-71.444902606203314,-69.20117693700071,-66.95745126779525,-64.713725598586961,-62.469999929375781,-60.22627426016178,-57.982548590944916,-55.738822921725173,-53.495097252502539,-51.263166989059556,-49.137396492577665,-47.011625996092981,-44.8858554996055,-42.760085003115265,-40.634314506622218,-38.508544010126364,-36.382773513627754,-34.257003017126351,-32.131232520622149,-30.031246624275557,-28.07737508697226,-26.12350354966614,-24.169632012357148,-22.215760475045307,-20.261888937730603,-18.308017400413039,-16.354145863092636,-14.400274325769391,-12.446402788443294,-10.536571115995526,-8.8029009844292148,-7.0692308528600885,-5.3355607212881306,-3.6018905897133733,-1.8682204581357746,-0.13455032655536603,1.5991198050278737,3.33278993661392,5.0664600682027867,6.7347890974001832,8.2070923489608365,9.6793956005243338,11.151698852090686,12.624002103659885,14.09630535523192,15.56860860680681,17.04091185838455,18.513215109965106,19.985518361548554,21.36942645146949,22.547075682827952,23.7247249141893,24.902374145553498,26.080023376920572,27.257672608290509,28.435321839663331,29.612971071039034,30.79062030241759,31.968269533799067,33.034037533526494,33.892023081556758,34.750008629589949,35.607994177626047,36.465979725665008,37.323965273706889,38.1819508217517,39.039936369799385,39.897921917850041,40.755907465903519,41.479296341742938,42.00078702869056,42.522277715641167,43.043768402594687,43.5652590895512,44.086749776510644,44.608240463473,45.129731150438346,45.651221837406609,46.172712524377822,46.538652251206358,46.714470870547316,46.890289489891295,47.066108109238307,47.241926728588318,47.417745347941235,47.593563967297214,47.769382586656171,47.945201206018162,48.121019825383115,47.778364327160617,47.606137746055033,47.433911164952448,47.261684583852976,47.089458002756473,46.917231421663075,46.745004840572754,46.572778259485453,46.210947921238116,45.69398397774745,45.177020034259868,44.660056090775427,44.143092147294112,43.626128203815917,43.109164260340854,42.592200316868905,42.075236373400045,41.558272429934362,40.839095836233874,39.985107623472949,39.131119410715257,38.277131197960749,37.423142985209473,36.569154772461367,35.715166559716486,34.861178346974754,34.007190134236254,33.153201921500944,32.087144882859562,30.906893854109168,29.726642825362113,28.546391796618305,27.36614076787777,26.18588973914057,25.005638710406586,23.825387681675942,22.645136652948555,21.464885624224483,20.064987269380797,18.570950638805826,17.076914008234134,15.582877377665909,14.088840747101031,12.594804116539549,11.10076748598145,9.6067308554266742,8.1126942248753391,6.6186575943273658,4.8989354224067929,3.1039818924180231,1.3090283624326988,-0.48592516754917625,-2.280878697527565,-4.0758322275025627,-5.8707857574740219,-7.6657392874420571,-9.4606928174066933,-11.2556463473678,-13.281482180023852,-15.365041316263772,-17.448600452500081,-19.532159588732704,-21.615718724961685,-23.699277861186928,-25.782836997408534,-27.866396133626473,-29.949955269840739,-32.033514406051388,-34.353627127802824,-36.715487230453171,-39.077347333099837,-41.439207435743072,-43.80106753838259,-46.162927641018605,-48.524787743651,-50.886647846279786,-53.248507948904951,-55.610368051526677,-58.215184992347233,-60.846999689030767,-63.478814385710429,-66.110629082386154,-68.742443779057936,-71.374258475725753,-74.006073172389748,-76.637887869049678,-79.269702565705856,-81.901517262358,-84.785172206233142,-87.682084405670935,-90.578996605104848,-93.475908804534669,-96.37282100396051,-99.269733203382415,-102.16664540280031,-105.0635576022139,-107.96046980162393,-110.85738200102945,0.5891216353207529,0.5891216353207529,0.5891216353207529,0.5891216353207529,0.5891216353207529,0.5891216353207529,0.5891216353207529,0.5891216353207529,0.5891216353207529,0.5891216353207529,0.5891216353207529,0.5891216353207529
DP 345,255.36129175653602,0.0038283366508139486,-176.96128887054653,-172.07403598950614,-167.18678310846269,-162.29953022741626,-157.41227734636681,-152.5250244653142,-147.63777158425864,-142.75051870320004,-137.86326582213832,-132.97601294107352,-128.09830354021204,-123.40192206740976,-118.70554059460437,-114.00915912179613,-109.31277764898464,-104.61639617617023,-99.9200147033529,-95.223633230532485,-90.527251757709053,-85.830870284882664,-81.1726985499271,-76.858418067485445,-72.544137585040843,-68.229857102593357,-63.915576620143007,-59.601296137689651,-55.287015655233375,-50.972735172774193,-46.658454690312077,-42.34417420784709,-38.110019797044309,-34.329918174779046,-30.549816552510823,-26.769714930239619,-22.98961330796546,-19.209511685688351,-15.429410063408236,-11.649308441125156,-7.8692068188391167,-4.0891051965501193,-0.43817956200955971,2.6960360165667869,5.8302515951460281,8.9644671737282078,12.098682752313254,15.232898330901254,18.367113909492147,21.501329488085975,24.635545066682695,27.769760645282336,30.725759314724005,33.147100518551241,35.568441722381365,37.989782926214431,40.411124130050439,42.832465333889296,45.253806537731144,47.675147741575884,50.09648894542353,52.5178301492741,54.718261391323679,56.403227355524031,58.088193319727431,59.773159283933673,61.458125248142828,63.143091212354953,64.828057176569942,66.51302314078788,68.197989105008659,69.882955069232509,71.315322038212742,72.278569765728761,73.2418174932477,74.205065220769555,75.168312948294329,76.1315606758221,77.094808403352758,78.0580561308863,79.02130385842284,79.984551585962308,80.676961320797375,80.96310766657227,81.249254012350278,81.535400358131213,81.821546703915018,82.107693049701851,82.393839395491582,82.679985741284355,82.966132087079984,83.252278432878583,83.263102211201812,82.937414846188815,82.611727481178818,82.286040116171819,81.960352751167818,81.634665386166816,81.3089780211687,80.983290656173637,80.657603291181545,80.331915926192437,78.017356598323644,77.156669328808945,76.295982059297373,75.43529478978877,74.574607520283138,73.713920250780546,72.85323298128101,71.992545711784487,70.8819161519975,69.566784059263171,68.251651966531867,66.936519873803746,65.621387781078539,64.306255688356373,62.991123595637404,61.67599150292142,60.360859410208526,59.045727317498688,57.504828326792158,55.813414514120282,54.122000701451661,52.430586888786074,50.739173076123663,49.047759263464286,47.356345450808107,45.664931638154982,43.973517825505091,42.2821040128582,40.392603421860137,38.396437838913762,36.400272255970663,34.404106673030668,32.407941090093857,30.411775507160229,28.415609924229777,26.419444341302576,24.423278758378476,22.427113175457585,20.261275500360263,18.022718350459272,15.784161200561432,13.545604050666952,11.307046900775662,9.0684897508876823,6.8299326010029553,4.5913754511214284,2.3528183012432273,0.11426115136826308,-2.2671159416138416,-4.6961014822335558,-7.1250870228499625,-9.5540725634630643,-11.9830581040728,-14.412043644679292,-16.841029185282345,-19.270014725882163,-21.69900026647872,-24.127985807071841,-26.676100195120391,-29.253998202557284,-31.831896209990727,-34.409794217420668,-36.987692224847116,-39.565590232270061,-42.143488239689489,-44.721386247105421,-47.299284254517907,-49.87718226192689,-52.555275862113888,-55.251052151684661,-57.946828441251995,-60.642604730815982,-63.338381020376417,-66.034157309933548,-68.72993359948714,-71.425709889037449,-74.12148617858432,-76.8172624681277,-79.599452058664653,-82.391244034630731,-85.183036010593185,-87.9748279865518,-90.766619962506837,-93.558411938458121,-96.35020391440581,-99.141995890349534,-101.93378786628979,-104.7255798422263,-107.59670037433777,-110.4719968829009,-113.3472933914605,-116.22258990001623,-119.09788640856812,-121.97318291711636,-124.84847942566087,-127.7237759342013,-130.59907244273828,-133.47436895127126,0.56080593227154008,0.56080593227154008,0.56080593227154008,0.56080593227154008,0.56080593227154008,0.56080593227154008,0.56080593227154008,0.56080593227154008,0.56080593227154008,0.56080593227154008,0.56080593227154008,0.56080593227154008
DP 346,268.42911787352136,0.0020951688657482688,-100.21104517649405,-97.417297922332921,-94.623550668170225,-91.829803414005781,-89.036056159839774,-86.242308905672118,-83.448561651502757,-80.654814397331791,-77.8610671431591,-75.0673198889848,-72.2791978530855,-69.597956027858331,-66.916714202629535,-64.235472377399134,-61.554230552167056,-58.872988726933364,-56.191746901698011,-53.510505076461079,-50.82926325122245,-48.148021425982215,-45.489251055874426,-43.032725906013461,-40.5762007561509,-38.119675606286762,-35.663150456421008,-33.206625306553711,-30.750100156684788,-28.293575006814287,-25.837049856942198,-23.380524707068528,-20.970953733482666,-18.827459384329256,-16.683965035174221,-14.540470686017592,-12.396976336859332,-10.253481987699459,-8.1099876385379659,-5.9664932893748412,-3.8229989402101197,-1.6795045910437798,0.38866458034656876,2.1555294806993519,3.9223943810537132,5.6892592814096661,7.4561241817671933,9.2229890821263183,10.989853982487025,12.756718882849334,14.523583783213207,16.29044868357866,17.954031804163531,19.307765680462253,20.661499556762557,22.015233433064445,23.368967309367935,24.722701185672996,26.076435061979677,27.430168938287924,28.783902814597734,30.137636690909183,31.364284142013855,32.294391595800079,33.2244990495879,34.154606503377316,35.08471395716829,36.014821410960884,36.944928864755092,37.875036318550869,38.805143772348217,39.7352512261472,40.521260653195256,41.039655567601748,41.558050482009826,42.07644539641948,42.594840310830747,43.113235225243606,43.631630139658093,44.150025054074156,44.668419968491818,45.186814882911108,45.55215247778564,45.68790047654128,45.823648475298555,45.959396474057421,46.095144472817921,46.230892471579978,46.366640470343661,46.502388469108944,46.638136467875846,46.773884466644382,46.75563359799785,46.549158656688206,46.342683715380119,46.136208774073715,45.92973383276891,45.723258891465754,45.516783950164189,45.31030900886423,45.103834067565948,44.89735912626918,43.538096357057242,43.035685678194177,42.533274999332747,42.030864320473007,41.528453641614888,41.02604296275841,40.523632283903567,40.021221605050371,39.382190463019114,38.631376594103628,37.880562725189748,37.1297488562776,36.37893498736706,35.62812111845826,34.877307249551052,34.1264933806456,33.3756795117417,32.624865642839552,31.752199500866077,30.798296590570313,29.844393680276294,28.89049076998392,27.936587859693287,26.982684949404273,26.028782039117051,25.074879128831437,24.120976218547622,23.16707330826539,22.107688479523947,20.99150416079733,19.875319842072475,18.759135523349322,17.6429512046279,16.526766885908195,15.410582567190207,14.29439824847398,13.178213929759439,12.062029611046642,10.856782657983382,9.6133645012086983,8.3699463444357445,7.12652818766461,5.8831100308952013,4.6396918741276,3.3962737173617619,2.1528555605976658,0.90943740383537264,-0.33398075292515955,-1.6512230487040085,-2.9930743212151918,-4.3349255937245772,-5.6767768662321654,-7.01862813873793,-8.36047941124193,-9.7023306837440764,-11.044181956244433,-12.386033228743031,-13.727884501239778,-15.130307076584142,-16.547873193298972,-17.965439310011973,-19.383005426723031,-20.800571543432191,-22.21813766013944,-23.635703776844824,-25.053269893548286,-26.470836010249858,-27.888402126949558,-29.356049553832438,-30.832535415893322,-32.309021277952276,-33.785507140009479,-35.261993002064791,-36.738478864118214,-38.214964726169796,-39.69145058821951,-41.1679364502674,-42.644422312313431,-44.163382860178338,-45.687063263661528,-47.210743667142843,-48.73442407062204,-50.258104474099348,-51.781784877574538,-53.3054652810478,-54.829145684518963,-56.352826087988191,-57.876506491455359,-59.438689152916233,-61.002898632088765,-62.567108111259422,-64.131317590427969,-65.695527069594448,-67.259736548758937,-68.823946027921338,-70.388155507081649,-71.952364986239914,-73.5165744653962,0.30449804072009695,0.30449804072009695,0.30449804072009695,0.30449804072009695,0.30449804072009695,0.30449804072009695,0.30449804072009695,0.30449804072009695,0.30449804072009695,0.30449804072009695,0.30449804072009695,0.30449804072009695
DP 347,246.98778313108158,0.0014808329082520572,-66.879795923261682,-65.044158120942214,-63.208520318621595,-61.372882516299811,-59.5372447139768,-57.701606911652625,-55.865969109327274,-54.030331307000758,-52.194693504673005,-50.359055702344158,-48.526930723695955,-46.761550059083632,-44.996169394470179,-43.230788729855583,-41.465408065239764,-39.700027400622794,-37.934646736004659,-36.169266071385358,-34.4038854067649,-32.638504742143262,-30.887209515697691,-29.262684564226227,-27.638159612753672,-26.01363466127998,-24.389109709805155,-22.764584758329175,-21.140059806852086,-19.515534855373847,-17.891009903894492,-16.266484952414007,-14.671564352553421,-13.244403610714393,-11.817242868874226,-10.390082127032889,-8.9629213851904144,-7.5357606433467792,-6.1085999015019921,-4.6814391596560538,-3.254278417808969,-1.8271176759607328,-0.44783620750994613,0.73992590453445251,1.9276880165799744,3.1154501286266294,4.3032122406744078,5.4909743527233221,6.6787364647733662,7.8664985768245508,9.0542606888768375,10.242022800930274,11.363465906017662,12.285949482774734,13.208433059532975,14.130916636292325,15.053400213052821,15.975883789814437,16.89836736657719,17.820850943341064,18.743334520106071,19.665818096872229,20.505705838596722,21.152866712271269,21.800027585946943,22.447188459623785,23.094349333301718,23.741510206980823,24.38867108066103,25.0358319543424,25.6829928280249,26.330153701708507,26.882356861253371,27.258207415812471,27.634057970372716,28.00990852493409,28.38575907949663,28.761609634060314,29.137460188625102,29.513310743191031,29.889161297758122,30.265011852326317,30.53842919785923,30.658194309303951,30.777959420749809,30.897724532196822,31.017489643644982,31.1372547550943,31.257019866544738,31.376784977996344,31.496550089449094,31.616315200902982,31.631255141305928,31.518073226373126,31.404891311441482,31.291709396510939,31.178527481581618,31.065345566653424,30.952163651726405,30.838981736800513,30.725799821875821,30.612617906952259,29.760160945160887,29.441814155584975,29.123467366010239,28.805120576436646,28.486773786864234,28.168426997293011,27.850080207722943,27.531733418154079,27.116793687569835,26.622821708863395,26.128849730158112,25.634877751454017,25.140905772751104,24.646933794049389,24.152961815348885,23.658989836649546,23.165017857951426,22.671045879254493,22.089101859373681,21.448508426163482,20.807914992954498,20.167321559746721,19.526728126540171,18.886134693334803,18.245541260130661,17.604947826927749,16.96435439372604,16.32376096052554,15.605299644824186,14.844908336979383,14.084517029135846,13.324125721293528,12.563734413452449,11.803343105612614,11.042951797774,10.282560489936637,9.522169182100491,8.7617778742655936,7.934059125199437,7.0774846220525429,6.2209101189068763,5.3643356157625277,4.507761112619411,3.65118660947758,2.7946121063370115,1.9380376031976914,1.0814631000596571,0.22488859692288246,-0.68893144777105975,-1.6218340611064859,-2.5547366744406288,-3.4876392877734816,-4.4205419011050306,-5.3534445144353242,-6.2863471277642882,-7.2192497410919714,-8.1521523544183978,-9.085054967743492,-10.06622464224918,-11.059461652332336,-12.052698662414166,-13.04593567249462,-14.039172682573732,-15.032409692651465,-16.025646702727844,-17.018883712802864,-18.012120722876514,-19.005357732948841,-20.039644380824466,-21.081175538907271,-22.122706696988725,-23.164237855068883,-24.205769013147691,-25.247300171225209,-26.288831329301338,-27.330362487376181,-28.37189364544966,-29.413424803521849,-30.490742340598906,-31.572036517850261,-32.65333069510023,-33.7346248723487,-34.815919049595749,-35.897213226841352,-36.978507404085541,-38.059801581328244,-39.141095758569556,-40.2223899358094,-41.336801850973728,-42.4529571344834,-43.5691124179916,-44.685267701498326,-45.801422985003633,-46.917578268507448,-48.0337335520098,-49.149888835510673,-50.266044119010054,-51.38219940250795,0.21799309895909402,0.21799309895909402,0.21799309895909402,0.21799309895909402,0.21799309895909402,0.21799309895909402,0.21799309895909402,0.21799309895909402,0.21799309895909402,0.21799309895909402,0.21799309895909402,0.21799309895909402
DP 348,282.65413643646224,0.0042640561725641266,-211.11854472589474,-205.17432248146397,-199.23010023702957,-193.28587799259216,-187.34165574815131,-181.39743350370705,-175.45321125925943,-169.50898901480855,-163.56476677035434,-157.62054452589652,-151.68868367436042,-145.99169162525132,-140.29469957613864,-134.59770752702278,-128.9007154779035,-123.20372342878125,-117.50673137965521,-111.80973933052614,-106.11274728139361,-100.41575523225792,-94.768024494704363,-89.56365021768363,-84.359275940659728,-79.154901663632586,-73.9505273866022,-68.746153109568652,-63.541778832531882,-58.337404555491844,-53.133030278448615,-47.928656001402118,-42.826812522016056,-38.305983356980846,-33.785154191942361,-29.264325026900579,-24.743495861855589,-20.222666696807266,-15.701837531755688,-11.181008366700818,-6.6601792016427028,-2.1393500365813192,2.2178746165082477,5.9206734896193529,9.6234723627336436,13.326271235851154,17.029070108971847,20.731868982095794,24.43466785522293,28.137466728353267,31.840265601486802,35.543064474623549,39.023036382134833,41.8345189679839,44.646001553836143,47.457484139691672,50.268966725550435,53.080449311412345,55.891931897277466,58.703414483145828,61.514897069017351,64.326379654892122,66.865851390987459,68.770620431393382,70.675389471802546,72.580158512214922,74.484927552630538,76.3896965930494,78.294465633471376,80.199234673896655,82.104003714325145,84.008772754756848,85.607914662087765,86.6394550684199,87.670995474755117,88.702535881093709,89.7340762874354,90.7656166937804,91.797157100128544,92.828697506479912,93.860237912834648,94.891778319192554,95.6019665482485,95.830118917679243,96.058271287113186,96.286423656550426,96.51457602599082,96.7427283954345,96.970880764881457,97.199033134331643,97.427185503785068,97.655337873241692,97.5637277071793,97.081289947831351,96.598852188486731,96.116414429145323,95.633976669807311,95.151538910472453,94.6691011511409,94.186663391812715,93.704225632487734,93.221787873165979,90.256531071008467,89.166914754198018,88.077298437390851,86.987682120586967,85.898065803786537,84.808449486989318,83.718833170195467,82.62921685340487,81.262848115378318,79.670040821970233,78.077233528565529,76.484426235164165,74.891618941766268,73.298811648371654,71.706004354980408,70.11319706159253,68.520389768208076,66.927582474826977,65.0912592138289,63.092588138174371,61.093917062523268,59.09524598687554,57.096574911231244,55.097903835590358,53.0992327599529,51.10056168431889,49.101890608688329,47.103219533061171,44.896752080340349,42.578391249000049,40.260030417663266,37.941669586329965,35.62330875500011,33.304947923673765,30.98658709235082,28.668226261031471,26.349865429715496,24.03150459840306,21.540349461318158,18.975136705188579,16.409923949062442,13.844711192940023,11.279498436821084,8.7142856807057889,6.1490729245940612,3.5838601684858422,1.0186474123812648,-1.5465653437197613,-4.25269346706951,-7.0057951554341065,-9.7588968437950818,-12.511998532152431,-15.265100220506092,-18.018201908856195,-20.77130359720255,-23.524405285545317,-26.27750697388451,-29.030608662219969,-31.897323188801877,-34.792442267297027,-37.687561345788417,-40.582680424275971,-43.477799502759716,-46.37291858123956,-49.26803765971561,-52.163156738187794,-55.058275816656149,-57.953394895120788,-60.940753876761931,-63.944391514094377,-66.94802915142283,-69.951666788747829,-72.955304426068892,-75.958942063386345,-78.962579700699891,-81.966217338009812,-84.969854975315982,-87.9734926126184,-91.053953948636632,-94.14295205800606,-97.231950167371423,-100.32094827673264,-103.40994638609003,-106.49894449544313,-109.58794260479236,-112.67694071413744,-115.76593882347849,-118.85493693281535,-122.0126146662913,-125.17390780015866,-128.33520093402194,-131.49649406788112,-134.6577872017362,-137.81908033558736,-140.9803734694342,-144.14166660327672,-147.30295973711526,-150.46425287094968,0.6142393723214703,0.6142393723214703,0.6142393723214703,0.6142393723214703,0.6142393723214703,0.6142393723214703,0.6142393723214703,0.6142393723214703,0.6142393723214703,0.6142393723214703,0.6142393723214703,0.6142393723214703
DP 349,63.247419929081794,0.0016984290155755647,-27.840026745886728,-27.241322609856091,-26.642618473824577,-26.043914337792213,-25.445210201758922,-24.846506065724828,-24.247801929689846,-23.649097793654,-23.050393657617271,-22.451689521579684,-21.853582773058509,-21.266826500297615,-20.680070227535822,-20.093313954773151,-19.506557682009614,-18.919801409245192,-18.333045136479896,-17.746288863713737,-17.159532590946679,-16.572776318178764,-15.988506981711987,-15.426620307032165,-14.864733632351454,-14.302846957669884,-13.740960282987421,-13.179073608304083,-12.617186933619861,-12.055300258934764,-11.493413584248788,-10.931526909561946,-10.375165212183646,-9.8501120677116472,-9.3250589232387373,-8.800005778764934,-8.2749526342902229,-7.749899489814613,-7.224846345338098,-6.699793200860686,-6.1747400563823733,-5.6496869119031548,-5.1342849245740947,-4.6574880219698409,-4.18069111936468,-3.7038942167586089,-3.2270973141516341,-2.7503004115437428,-2.2735035089349482,-1.7967066063252415,-1.31990970371463,-0.8431128011031096,-0.38104620709103815,0.036828904188285695,0.45470401546853612,0.87257912674971516,1.2904542380318234,1.7083293493148608,2.1262044605988222,2.544079571883715,2.9619546831695325,3.379829794456279,3.7770815133140583,4.1262111709414011,4.4753408285696956,4.8244704861989387,5.1736001438291295,5.52272980146027,5.87185945909236,6.2209891167254021,6.57011877435939,6.9192484319943288,7.2412130917601409,7.5127277361465019,7.7842423805338372,8.0557570249221389,8.3272716693114219,8.5987863137016625,8.8703009580928853,9.1418156024850816,9.4133302468782514,9.6848448912723963,9.9221643205810057,10.10819011921525,10.29421591785051,10.480241716486763,10.666267515124011,10.852293313762257,11.03831911240151,11.224344911041758,11.41037070968301,11.596396508325249,11.74086790232316,11.834549706692561,11.928231511063002,12.021913315434453,12.115595119806933,12.209276924180465,12.302958728555007,12.396640532930565,12.490322337307171,12.584004141684812,12.619559799484632,12.615045516099771,12.61053123271596,12.606016949333206,12.601502665951514,12.596988382570894,12.592474099191335,12.587959815812821,12.526746376883107,12.419141745359674,12.311537113837339,12.203932482316088,12.096327850795937,11.988723219276896,11.881118587758937,11.77351395624207,11.665909324726318,11.558304693211657,11.386443904039556,11.171744664165518,10.957045424292641,10.74234618442088,10.527646944550256,10.312947704680768,10.098248464812418,9.8835492249451953,9.6688499850791185,9.45415074521417,9.1677595776294449,8.8427640218233741,8.5177684660184934,8.192772910214785,7.8677773544122385,7.5427817986108678,7.21778624281067,6.8927906870116562,6.5677951312137983,6.2427995754171359,5.8388531449231111,5.4010692926732329,4.9632854404245492,4.5255015881771152,4.0877177359308909,3.6499338836858959,3.2121500314421216,2.77436617919956,2.3365823269582315,1.8987984747181228,1.3749911739986287,0.82250830631342631,0.2700254386294797,-0.28245742905321058,-0.83494029673463332,-1.3874231644148154,-1.9399060320937167,-2.4923888997713664,-3.0448717674477739,-3.5973546351229064,-4.2426717523728543,-4.911198528867625,-5.57972530536106,-6.2482520818531375,-6.91677885834387,-7.5853056348332268,-8.2538324113212589,-8.922359187807924,-9.5908859642932445,-10.259412740777224,-11.027486854107973,-11.813129251509942,-12.598771648910576,-13.384414046309933,-14.170056443707923,-14.955698841104615,-15.741341238499984,-16.526983635894041,-17.312626033286765,-18.098268430678203,-18.989792214827091,-19.893081709508593,-20.796371204188656,-21.69966069886722,-22.602950193544366,-23.506239688220013,-24.409529182894207,-25.312818677566906,-26.216108172238172,-27.119397666907982,-28.134876625482459,-29.156261408923687,-30.17764619236344,-31.199030975801683,-32.220415759238428,-33.241800542673687,-34.263185326107433,-35.284570109539644,-36.305954892970433,-37.32733967639961,0.21351116978357046,0.21351116978357046,0.21351116978357046,0.21351116978357046,0.21351116978357046,0.21351116978357046,0.21351116978357046,0.21351116978357046,0.21351116978357046,0.21351116978357046,0.21351116978357046,0.21351116978357046
DP 350,205.86628370844636,0.0022710556859551812,-89.886354142612731,-87.499218943806767,-85.112083744998912,-82.724948546189324,-80.337813347377946,-77.950678148564691,-75.56354294974966,-73.176407750932739,-70.78927255211407,-68.402137353293583,-66.019110810465122,-63.714149508238272,-61.409188206009482,-59.104226903778958,-56.799265601546637,-54.494304299312489,-52.1893429970765,-49.884381694838787,-47.579420392599268,-45.274459090357887,-42.986089682508535,-40.847048892495842,-38.708008102481408,-36.568967312465276,-34.429926522447367,-32.2908857324277,-30.151844942406296,-28.012804152383172,-25.873763362358275,-23.734722572331627,-21.630953007003221,-19.727055937571741,-17.823158868138449,-15.919261798703378,-14.015364729266539,-12.111467659827918,-10.207570590387514,-8.30367352094532,-6.3997764515013618,-4.4958793820556187,-2.6499288841619446,-1.0357674110836379,0.57839406199640675,2.1925555350782076,3.8067170081617436,5.4208784812470379,7.0350399543340769,8.6492014274228755,10.263362900513405,11.877524373605675,13.409827475058954,14.696552366639951,15.983277258222689,17.270002149807166,18.556727041393419,19.843451932981417,21.130176824571176,22.416901716162684,23.703626607755925,24.99035149935095,26.172703885860951,27.111516316568519,28.050328747277838,28.989141177988888,29.927953608701753,30.866766039416365,31.805578470132687,32.7443909008508,33.683203331570688,34.622015762292286,35.4375436457999,36.024111183611559,36.610678721424996,37.197246259240224,37.783813797057221,38.3703813348759,38.956948872696458,39.543516410518734,40.130083948342794,40.716651486168622,41.166128940909815,41.409968031533836,41.6538071221596,41.8976462127872,42.141485303416559,42.385324394047707,42.629163484680625,42.873002575315354,43.1168416659518,43.360680756590057,43.4594534885081,43.380919846015296,43.302386203524271,43.223852561035045,43.145318918547638,43.066785276061992,42.988251633578166,42.909717991096144,42.83118434861597,42.752650706137494,41.780914520391647,41.407926217951513,41.034937915513218,40.661949613076729,40.288961310642073,39.915973008209249,39.542984705778288,39.16999640334911,38.652822199219329,38.017675233942171,37.382528268666853,36.747381303393347,36.112234338121745,35.477087372852012,34.84194040758409,34.206793442318066,33.571646477053868,32.936499511791524,32.164374478319189,31.300928574813589,30.437482671309859,29.574036767808035,28.710590864308127,27.847144960810073,26.983699057313942,26.120253153819636,25.2568072503273,24.3933613468368,23.403055634264028,22.344438948960168,21.285822263658254,20.227205578358287,19.168588893060239,18.109972207764137,17.051355522469947,15.992738837177733,14.934122151887399,13.875505466599002,12.701737593240027,11.478617267087811,10.255496940937505,9.0323766147892357,7.8092562886429162,6.5861359624985951,5.363015636356252,4.139895310215854,2.9167749840774677,1.693654657941049,0.36738908164571965,-0.99325954462471766,-2.3539081708931482,-3.7145567971595632,-5.0752054234239425,-6.4358540496863572,-7.7965026759466909,-9.15715130220503,-10.517799928461399,-11.878448554715694,-13.331015644948957,-14.806563437207309,-16.282111229463577,-17.757659021717693,-19.233206813969723,-20.708754606219575,-22.184302398467324,-23.65985019071293,-25.13539798295643,-26.610945775197852,-28.169184982835517,-29.742017712729808,-31.31485044262196,-32.887683172512077,-34.46051590240009,-36.033348632286049,-37.606181362169878,-39.179014092051681,-40.751846821931395,-42.324679551809069,-43.973509183936279,-45.630783714458886,-47.288058244979254,-48.94533277549732,-50.602607306013248,-52.259881836526809,-53.91715636703816,-55.574430897547153,-57.23170542805407,-58.888979958558622,-60.619338931474438,-62.353545181150508,-64.087751430824341,-65.821957680495856,-67.556163930165013,-69.290370179831939,-71.024576429496591,-72.758782679158827,-74.492988928818761,-76.227195178476379,0.3414789935004367,0.3414789935004367,0.3414789935004367,0.3414789935004367,0.3414789935004367,0.3414789935004367,0.3414789935004367,0.3414789935004367,0.3414789935004367,0.3414789935004367,0.3414789935004367,0.3414789935004367
DP 351,200.37946621731598,0.0012902664962837465,-50.043338612149931,-48.720663048899112,-47.3979874856473,-46.075311922394363,-44.752636359140496,-43.429960795885556,-42.107285232629572,-40.784609669372585,-39.461934106114541,-38.13925854285548,-36.818825144122428,-35.540993295271207,-34.263161446419012,-32.985329597565809,-31.70749774871155,-30.429665899856218,-29.151834050999955,-27.874002202142616,-26.596170353284268,-25.318338504424872,-24.049570338218107,-22.86237617260786,-21.675182006996653,-20.487987841384449,-19.300793675771239,-18.113599510157044,-16.926405344541848,-15.739211178925656,-14.552017013308495,-13.364822847690329,-12.1969260046402,-11.138381872158087,-10.079837739674966,-9.0212936071908167,-7.9627494747056877,-6.9042053422195275,-5.8456612097323593,-4.7871170772441749,-3.728572944754986,-2.6700288122647886,-1.6432544896696748,-0.74356090812481679,0.15613267342102941,1.0558262549678741,1.9555198365157029,2.8552134180645377,3.75490699961436,4.6546005811651758,5.55429416271698,6.4539877442697779,7.3086821390144081,8.02837727197554,8.7480724049376661,9.46776753790079,10.187462670864909,10.907157803830026,11.626852936796144,12.346548069763257,13.066243202731343,13.785938335700452,14.448075250934352,14.975907391248105,15.503739531562852,16.031571671878613,16.55940381219537,17.087235952513122,17.61506809283188,18.142900233151625,18.670732373472394,19.198564513794135,19.658158597749797,19.991023019892513,20.323887442036252,20.656751864180976,20.989616286326708,21.322480708473435,21.655345130621189,21.988209552769913,22.321073974919692,22.65393839707043,22.910608539061112,23.0529854603121,23.195362381564124,23.337739302817155,23.480116224071189,23.622493145326231,23.764870066582304,23.907246987839379,24.049623909097477,24.192000830356587,24.253380017504025,24.215760272731394,24.178140527959776,24.14052078318921,24.102901038419652,24.065281293651132,24.027661548883621,23.99004180411713,23.952422059351669,23.91480231458722,23.388852617793926,23.185996375666228,22.983140133539564,22.780283891413941,22.577427649289362,22.374571407165842,22.171715165043331,21.96885892292185,21.684649254188976,21.333876292839051,20.983103331490167,20.632330370142334,20.281557408795564,19.930784447449867,19.580011486105203,19.229238524761609,18.878465563419049,18.527692602077558,18.099176997442356,17.618831739220671,17.138486481000054,16.658141222780525,16.177795964562062,15.697450706344673,15.217105448128375,14.736760189913143,14.256414931698991,13.7760696734859,13.223265782175304,12.63144465013684,12.039623518099484,11.447802386063225,10.855981254028062,10.264160121994003,9.6723389899610339,9.0805178579291752,8.4886967258984054,7.8968755938687449,7.238832405240637,6.5524072174607815,5.8659820296820131,5.17955684190442,4.4931316541279251,3.8067064663525705,3.1202812785783367,2.4338560908052158,1.747430903033238,1.0610057152623797,0.31482773086811827,-0.4512686054550108,-1.2173649417769965,-1.9834612780978389,-2.7495576144175176,-3.5156539507360773,-4.2817502870534554,-5.0478466233696988,-5.8139429596848169,-6.5800392959987617,-7.3997954788552649,-8.23296725734651,-9.0661390358365743,-9.8993108143254158,-10.732482592813058,-11.565654371299471,-12.398826149784691,-13.231997928268688,-14.06516970675146,-14.898341485233068,-15.780157257632036,-16.670557805179449,-17.560958352725653,-18.451358900270698,-19.341759447814546,-20.232159995357204,-21.122560542898704,-22.012961090438981,-22.9033616379781,-23.793762185516051,-24.729181400952349,-25.669603163401042,-26.610024925848464,-27.550446688294585,-28.490868450739434,-29.431290213182962,-30.371711975625246,-31.31213373806623,-32.252555500505942,-33.192977262944353,-34.176907031695173,-35.16312712840157,-36.149347225106695,-37.135567321810505,-38.121787418512959,-39.108007515214183,-40.094227611914064,-41.080447708612553,-42.066667805309834,-43.052887902005722,0.19444801130998393,0.19444801130998393,0.19444801130998393,0.19444801130998393,0.19444801130998393,0.19444801130998393,0.19444801130998393,0.19444801130998393,0.19444801130998393,0.19444801130998393,0.19444801130998393,0.19444801130998393
DP 352,157.45268969724756,0.0032829324897226007,-105.66495779603402,-102.98717491439925,-100.30939203276182,-97.63160915112195,-94.953826269479464,-92.276043387834335,-89.598260506186747,-86.920477624536559,-84.242694742883785,-81.564911861228452,-78.891115053540815,-76.29305440483229,-73.694993756121107,-71.096933107407523,-68.4988724586913,-65.900811809972524,-63.302751161251145,-60.704690512527357,-58.106629863800784,-55.508569215071752,-52.926751232048986,-50.491118775687646,-48.055486319323933,-45.619853862957662,-43.184221406588939,-40.748588950217709,-38.31295649384397,-35.877324037467737,-33.441691581089067,-31.006059124707878,-28.605428012017494,-26.403140052512146,-24.200852093004279,-21.998564133493861,-19.796276173980921,-17.593988214465437,-15.391700254947413,-13.189412295426848,-10.987124335903749,-8.7848363763781254,-6.6411504331042117,-4.7318753244233989,-2.8226002157401009,-0.91332510705429526,0.99595000163399117,2.9052251103247917,4.8145002190180843,6.7237753277138719,8.6330504364121587,10.542325545112934,12.366821693747442,13.936977756802923,15.507133819860918,17.077289882921423,18.647445945984437,20.21760200904998,21.787758072118002,23.357914135188576,24.928070198261619,26.498226261337187,27.957144337319342,29.156502729089951,30.355861120863093,31.55521951263875,32.754577904416948,33.953936296197632,35.153294687980875,36.352653079766633,37.552011471554913,38.751369863345708,39.81489492390525,40.626154415270669,41.437413906638625,42.24867339800916,43.059932889382182,43.871192380757783,44.6824518721359,45.493711363516582,46.304970854899793,47.116230346285569,47.770650477466027,48.189807862165267,48.608965246867015,49.028122631571385,49.447280016278278,49.866437400987756,50.285594785699814,50.7047521704144,51.123909555131618,51.543066939851343,51.789151755639359,51.823699796271654,51.858247836906543,51.892795877544025,51.927343918184135,51.961891958826868,51.996439999472109,52.030988040119951,52.065536080770464,52.100084121423521,51.283984318695282,50.950634093998595,50.617283869304543,50.283933644613093,49.950583419924349,49.617233195238221,49.283882970554728,48.950532745873879,48.427723248022509,47.749898361584023,47.07207347514818,46.394248588714966,45.7164237022845,45.038598815856716,44.360773929431659,43.682949043009231,43.005124156589545,42.327299270172524,41.459363667652177,40.464684592807657,39.470005517965873,38.475326443126818,37.480647368290583,36.485968293457,35.491289218626221,34.496610143798137,33.501931068972844,32.507251994150245,31.325778331698697,30.043720251895934,28.761662172095953,27.479604092298796,26.197546012504457,24.915487932712931,23.633429852924191,22.351371773138307,21.069313693355209,19.787255613574938,18.324518934472689,16.784345520299425,15.244172106128961,13.703998691961475,12.163825277796798,10.623651863635045,9.0834784494761731,7.5433050353201327,6.0031316211670163,4.4629582070167686,2.7496604085977103,0.97865230023142191,-0.79235580813193762,-2.5633639164923667,-4.3343720248498219,-6.1053801332044078,-7.8763882415559721,-9.6473963499046178,-11.418404458250391,-13.189412566593161,-15.125830959725477,-17.103603878402911,-19.081376797077304,-21.059149715748557,-23.036922634416722,-25.014695553081765,-26.992468471743702,-28.970241390402535,-30.948014309058248,-32.925787227710956,-35.062791690076622,-37.227897607303753,-39.393003524527813,-41.5581094417489,-43.723215358966904,-45.888321276181884,-48.053427193393809,-50.218533110602721,-52.38363902780857,-54.548744945011421,-56.869218409346395,-59.206956566197981,-61.544694723046405,-63.882432879891354,-66.220171036733177,-68.557909193571547,-70.8956473504067,-73.23338550723841,-75.571123664066974,-77.908861820892213,-80.402329630013526,-82.9039952860705,-85.4056609421241,-87.907326598174365,-90.408992254221246,-92.910657910264817,-95.41232356630502,-97.913989222341755,-100.41565487837524,-102.91732053440526,0.49934020954055075,0.49934020954055075,0.49934020954055075,0.49934020954055075,0.49934020954055075,0.49934020954055075,0.49934020954055075,0.49934020954055075,0.49934020954055075,0.49934020954055075,0.49934020954055075,0.49934020954055075
DP 353,258.01905446313231,0.0014686276821092995,-68.372587035250859,-66.480630980180635,-64.588674925109146,-62.696718870036513,-60.804762814962771,-58.912806759887815,-57.0208507048117,-55.128894649734434,-53.236938594655953,-51.344982539576378,-49.4567444927537,-47.63914930570327,-45.821554118651704,-44.003958931598966,-42.186363744545062,-40.368768557490007,-38.55117337043383,-36.733578183376459,-34.915982996317936,-33.098387809258284,-31.295671098506691,-29.626862080876627,-27.958053063245437,-26.289244045613145,-24.62043502797972,-22.951626010345173,-21.282816992709495,-19.614007975072703,-17.945198957434819,-16.276389939795802,-14.638758722697798,-13.177803673324338,-11.716848623949755,-10.255893574574028,-8.794938525197157,-7.3339834758191653,-5.8730284264400208,-4.4120733770597411,-2.9511183276783264,-1.4901632782957754,-0.079421620992847414,1.1304640948627034,2.3403498107193639,3.5502355265771488,4.7601212424360391,5.9700069582960529,7.1798926741571787,8.38977839001943,9.5996641058827876,10.809549821747263,11.950246424923014,12.883373074085695,13.816499723249501,14.749626372414429,15.682753021580478,16.615879670747642,17.549006319915929,18.482132969085328,19.415259618255842,20.348386267427458,21.195877221735206,21.8435481820193,22.4912191423045,23.138890102590842,23.786561062878278,24.434232023166839,25.081902983456537,25.729573943747344,26.377244904039284,27.024915864332325,27.574834881135072,27.943211934409323,28.311588987684715,28.679966040961233,29.048343094238863,29.41672014751763,29.785097200797527,30.153474254078517,30.52185130736067,30.890228360643913,31.153996262740844,31.260847966104823,31.367699669469864,31.474551372836089,31.581403076203454,31.688254779571924,31.795106482941538,31.901958186312275,32.008809889684166,32.115661593057155,32.116394931680851,31.987425817729655,31.858456703779659,31.729487589830782,31.60051847588306,31.471549361936479,31.342580247991002,31.213611134046729,31.084642020103594,30.955672906161553,30.054422493894943,29.719715762849876,29.385009031805971,29.050302300763217,28.715595569721597,28.380888838681152,28.046182107641862,27.711475376603744,27.280885415381086,26.771843890731034,26.262802366082155,25.753760841434438,25.244719316787876,24.735677792142535,24.226636267498321,23.717594742855322,23.208553218213488,22.69951169357282,22.104085717938506,21.451068747445095,20.798051776952921,20.145034806461908,19.492017835972135,18.839000865483513,18.185983894996124,17.532966924509882,16.87994995402488,16.226932983541044,15.498331713584435,14.729030106322199,13.959728499061177,13.190426891801376,12.421125284542784,11.651823677285423,10.882522070029269,10.113220462774356,9.34391885552064,8.574617248268158,7.7407644264238131,6.8792457087751329,6.0177269911276587,5.156208273481476,4.294689555836511,3.4331708381928134,2.5716521205503686,1.7101334029091431,0.84861468526919437,-0.012904032369515109,-0.92858686254590539,-1.8623250795225281,-2.796063296497882,-3.72980151347197,-4.6635397304447679,-5.59727794741633,-6.5310161643865854,-7.464754381355573,-8.3984925983233243,-9.3322308152897637,-10.310995648932579,-11.30101766874043,-12.291039688546975,-13.28106170835216,-14.271083728156031,-15.261105747958533,-16.251127767759709,-17.241149787559532,-18.231171807358031,-19.221193827155222,-20.24895392788255,-21.283374109602736,-22.317794291321576,-23.352214473039155,-24.38663465475538,-25.421054836470336,-26.455475018183932,-27.489895199896242,-28.524315381607249,-29.558735563316951,-30.625591916759973,-31.696052629939789,-32.766513343118248,-33.836974056295233,-34.907434769470861,-35.977895482645025,-37.048356195817782,-38.118816908989089,-39.189277622159018,-40.259738335327526,-41.359899628963284,-42.461624406552552,-43.563349184140392,-44.665073961726776,-45.76679873931171,-46.868523516895223,-47.97024829447728,-49.07197307205783,-50.173697849637023,-51.275422627214695,0.21479527398837406,0.21479527398837406,0.21479527398837406,0.21479527398837406,0.21479527398837406,0.21479527398837406,0.21479527398837406,0.21479527398837406,0.21479527398837406,0.21479527398837406,0.21479527398837406,0.21479527398837406
DP 354,266.93255882924387,0.0032128860019241734,-153.08986192731155,-148.82645457444121,-144.56304722156827,-140.29963986869291,-136.036232515815,-131.77282516293448,-127.50941781005149,-123.24601045716604,-118.9826031042778,-114.71919575138715,-110.46434287423379,-106.37202665331172,-102.27971043238708,-98.18739421145979,-94.095077990530143,-90.002761769597939,-85.910445548663233,-81.818129327725956,-77.725813106786219,-73.633496885843883,-69.575363698548017,-65.824881045130212,-62.074398391709963,-58.323915738287319,-54.5734330848622,-50.822950431434677,-47.072467778004651,-43.321985124572215,-39.571502471137329,-35.821019817700019,-32.141992490298563,-28.867883179833473,-25.59377386936589,-22.31966455889583,-19.045555248423309,-15.771445937948283,-12.497336627470784,-9.2232273169907888,-5.949118006508332,-2.6750086960233954,0.48440688133610726,3.1850421056679625,5.8856773300022391,8.5863125543389636,11.286947778678091,13.987583003019687,16.6882182273637,19.388853451710148,22.089488676059023,24.790123900410329,27.333384955179458,29.404517551097548,31.475650147018086,33.546782742941076,35.617915338866474,37.689047934794338,39.760180530724654,41.831313126657378,43.902445722592553,45.973578318530123,47.850902845972392,49.276000913991723,50.701098982013526,52.126197050037746,53.551295118064409,54.976393186093553,56.4014912541251,57.826589322159059,59.251687390195507,60.676785458234392,61.881920719852666,62.6785476863414,63.475174652832671,64.27180161932634,65.068428585822531,65.865055552321067,66.661682518822133,67.458309485325572,68.254936451831512,69.051563418339882,69.614300916917742,69.826198686703691,70.0380964564921,70.249994226283064,70.4618919960764,70.673789765872243,70.885687535670542,71.097585305471227,71.309483075274585,71.521380845080273,71.49767389540709,71.186000673102313,70.874327450800152,70.562654228500421,70.250981006203176,69.939307783908376,69.627634561616176,69.315961339326321,69.004288117039124,68.692614894754357,66.624275555629865,65.859273607463379,65.094271659299451,64.329269711138011,63.564267762979057,62.799265814822689,62.034263866668823,61.269261918517465,60.29469386075499,59.148659020858027,58.0026241809637,56.856589341071988,55.7105545011827,54.56451966129606,53.418484821411944,52.272449981530372,51.126415141651364,49.980380301774971,48.647164107679785,47.189157395331314,45.731150682985529,44.273143970642238,42.815137258301633,41.35713054596355,39.899123833628131,38.441117121295306,36.983110408965089,35.525103696637466,33.904814392575844,32.197139794630765,30.48946519668835,28.781790598748579,27.074116000811436,25.366441402876966,23.658766804945085,21.951092207015918,20.243417609089327,18.535743011165433,16.690823768750366,14.787083076449132,12.883342384150531,10.979601691854741,9.0758609995615984,7.1721203072712285,5.2683796149835622,3.3646389226985667,1.46089823041634,-0.44284246186318421,-2.4605437439458333,-4.5162333255218678,-6.571922907095141,-8.62761248866566,-10.683302070233369,-12.738991651798379,-14.79468123336054,-16.850370814919966,-18.90606039647669,-20.961749978030554,-23.111116675670718,-25.283903759140916,-27.456690842608236,-29.629477926072632,-31.802265009534157,-33.975052092992705,-36.147839176448365,-38.320626259901104,-40.49341334335093,-42.666200426797907,-44.91659183081002,-47.180678977891674,-49.444766124970364,-51.708853272046312,-53.972940419119304,-56.2370275661896,-58.501114713256868,-60.765201860321376,-63.029289007383007,-65.293376154441859,-67.623406746730566,-69.960765081048834,-72.298123415364074,-74.6354817496762,-76.972840083985275,-79.310198418291208,-81.647556752594113,-83.984915086893878,-86.322273421190587,-88.659631755484185,-91.0568532426882,-93.4572260177629,-95.857598792834452,-98.2579715679028,-100.65834434296806,-103.05871711803032,-105.45908989308923,-107.85946266814507,-110.25983544319774,-112.66020821824723,0.46736906276996293,0.46736906276996293,0.46736906276996293,0.46736906276996293,0.46736906276996293,0.46736906276996293,0.46736906276996293,0.46736906276996293,0.46736906276996293,0.46736906276996293,0.46736906276996293,0.46736906276996293
DP 355,83.493678807075355,0.001594666080355636,-31.5314871324623,-30.817710013132576,-30.103932893801826,-29.390155774470095,-28.676378655137338,-27.962601535803568,-27.248824416468786,-26.535047297133023,-25.821270177796265,-25.10749305845847,-24.394502277849533,-23.696452081760302,-22.998401885670084,-22.300351689578832,-21.602301493486582,-20.904251297393337,-20.206201101299094,-19.508150905203834,-18.810100709107566,-18.112050513010292,-17.41725711305822,-16.751775186258971,-16.086293259458738,-15.420811332657525,-14.75532940585529,-14.089847479052093,-13.42436555224789,-12.758883625442689,-12.093401698636514,-11.427919771829334,-10.769620766649195,-10.15202543665513,-9.5344301066600554,-8.9168347766639453,-8.2992394466668333,-7.6816441166687106,-7.0640487866695532,-6.446453456669393,-5.828858126668214,-5.2112627966660261,-4.606091961761706,-4.0506196944436113,-3.4951474271245062,-2.9396751598043891,-2.3842028924832612,-1.8287306251611211,-1.2732583578379686,-0.71778609051380315,-0.16231382318862991,0.39315844413755524,0.92990272155777576,1.4104623211786891,1.8910219208006316,2.3715815204235948,2.8521411200475888,3.3327007196726051,3.8132603192986472,4.29381991892572,4.774379518553804,5.2549391181829259,5.7096701506989618,6.1041335093875331,6.4985968680771409,6.8930602267677843,7.2875235854594766,7.6819869441522091,8.0764503028459647,8.4709136615407843,8.8653770202366271,9.259840378933518,9.6208678974899158,9.919799381383017,10.218730865277164,10.517662349172374,10.816593833068636,11.115525316965957,11.414456800864341,11.713388284763775,12.01231976866428,12.311251252565823,12.568908364332612,12.764652942568057,12.960397520804593,13.156142099042206,13.351886677280884,13.54763125552066,13.743375833761489,13.939120412003401,14.1348649902464,14.33060956849048,14.477261032297958,14.563908769493047,14.650556506689238,14.737204243886527,14.823851981084923,14.910499718284411,14.997147455484994,15.083795192686692,15.170442929889488,15.257090667093392,15.233602956378906,15.20687811033336,15.180153264288926,15.153428418245623,15.126703572203439,15.099978726162396,15.073253880122493,15.04652903408369,14.955903092094113,14.812993337049715,14.670083582006471,14.527173826964397,14.384264071923486,14.241354316883717,14.098444561845117,13.955534806807671,13.812625051771388,13.66971529673625,13.456157397696577,13.19549962302696,12.934841848358523,12.674184073691272,12.413526299025227,12.152868524360363,11.892210749696703,11.631552975034218,11.370895200372944,11.110237425712848,10.772679743112043,10.39371329951469,10.014746855918588,9.6357804123237027,9.2568139687300572,8.87784752513764,8.4988810815464486,8.1199146379565033,7.7409481943677756,7.3619817507802807,6.9003318777147635,6.403244853557517,5.9061578294015131,5.4090708052468131,4.9119837810933573,4.4148967569411806,3.9178097327902752,3.4207227086406236,2.923635684492254,2.4265486603451496,1.841367247477429,1.2268199281305499,0.6122726087849667,-0.0022747105593176483,-0.61682202990229085,-1.2313693492439846,-1.8459166685843498,-2.4604639879234251,-3.0750113072612191,-3.689558626597687,-4.3973022638447254,-5.1283460816983943,-5.8593898995506972,-6.5904337174015986,-7.3214775352511277,-8.0525213530992552,-8.7835651709459963,-9.5146089887913554,-10.245652806635325,-10.976696624477924,-11.806025689048399,-12.652700301869752,-13.499374914689724,-14.346049527508367,-15.192724140325637,-16.03939875314158,-16.886073365956129,-17.732747978769339,-18.5794225915812,-19.426097204391734,-20.376011794714017,-21.33739857791166,-22.298785361107822,-23.260172144302441,-24.221558927495632,-25.182945710687285,-26.144332493877492,-27.105719277066157,-28.067106060253366,-29.028492843439029,-30.098422068169057,-31.174065132934007,-32.249708197697487,-33.325351262459385,-34.4009943272198,-35.476637391978713,-36.55228045673605,-37.627923521491837,-38.70356658624614,-39.779209650998865,0.2217549459318188,0.2217549459318188,0.2217549459318188,0.2217549459318188,0.2217549459318188,0.2217549459318188,0.2217549459318188,0.2217549459318188,0.2217549459318188,0.2217549459318188,0.2217549459318188,0.2217549459318188
DP 356,94.594825540903315,0.001710504389513929,-37.024943286189583,-36.167539155208488,-35.31013502422622,-34.452730893242787,-33.5953267622582,-32.737922631272482,-31.880518500285607,-31.023114369297534,-30.165710238308328,-29.308306107317964,-28.451898506711338,-27.614425171805095,-26.776951836897727,-25.939478501989171,-25.1020051670795,-24.264531832168672,-23.427058497256684,-22.589585162343543,-21.752111827429246,-20.91463849251382,-20.081280007269342,-19.284955558015625,-18.488631108760771,-17.692306659504798,-16.895982210247684,-16.099657760989444,-15.303333311730066,-14.507008862469558,-13.710684413207927,-12.914359963945159,-12.127077160433462,-11.391030919271143,-10.654984678107677,-9.9189384369430567,-9.182892195777276,-8.4468459546103443,-7.7107997134422472,-6.9747534722730009,-6.2387072311026,-5.5026609899310444,-4.7821690965638224,-4.1238953295284508,-3.4656215624919313,-2.8073477954542612,-2.149074028415451,-1.4908002613754849,-0.83252649433437487,-0.17425272729211483,0.48402103975128929,1.1422948067958421,1.7772813769467948,2.34240547595796,2.9075295749702845,3.4726536739837708,4.0377777729984174,4.6029018720142281,5.1680259710311978,5.733150070049331,6.2982741690686144,6.86339826808907,7.3966698921216123,7.85561782004,8.3145657479595485,8.7735136758802845,9.2324616038021965,9.6914095317252684,10.150357459649525,10.609305387574947,11.068253315501552,11.527201243429328,11.945310299160141,12.287574632195305,12.629838965231656,12.972103298269207,13.314367631307929,13.656631964347856,13.998896297388979,14.341160630431293,14.683424963474769,15.025689296519475,15.318091003954187,15.535697594701098,15.753304185449213,15.97091077619854,16.188517366949078,16.406123957700835,16.623730548453793,16.841337139207969,17.058943729963342,17.276550320719934,17.435568127906567,17.522976191196729,17.610384254488128,17.697792317780745,17.785200381074603,17.872608444369693,17.96001650766603,18.047424570963592,18.134832634262381,18.222240697562427,18.150691110324466,18.104589410382971,18.058487710442716,18.012386010503725,17.966284310566003,17.920182610629542,17.874080910694335,17.827979210760393,17.707691436534478,17.526704690219876,17.345717943906582,17.164731197594588,16.983744451283883,16.802757704974454,16.621770958666339,16.44078421235951,16.259797466053971,16.078810719749722,15.817019811181419,15.501358188149988,15.185696565119876,14.870034942091092,14.554373319063634,14.238711696037505,13.923050073012678,13.607388449989205,13.291726826967052,12.97606520394622,12.573782404010984,12.124856172267558,11.675929940525489,11.227003708784792,10.778077477045473,10.329151245307509,9.8802250135709073,9.4312987818356824,8.9823725501018128,8.53344631836931,7.9927869347993488,7.4128117949489081,6.8328366550998547,6.2528615152522331,5.6728863754060042,5.0929112355611945,4.5129360957177891,3.9329609558757741,3.3529858160351829,2.7730106761959932,2.0967081577608004,1.3882952991289896,0.679882440498613,-0.028530418130324517,-0.73694327675780924,-1.4453561353838777,-2.1537689940084763,-2.8621818526316396,-3.5705947112533907,-4.2790075698736745,-5.0879850837606915,-5.9221049496514011,-6.7562248155406017,-7.59034468142826,-8.42446454731439,-9.2585844131989639,-10.092704279082028,-10.926824144963554,-11.760944010843541,-12.595063876722016,-13.53404900536769,-14.491540934735978,-15.449032864102749,-16.406524793468044,-17.364016722831824,-18.321508652194112,-19.279000581554897,-20.236492510914196,-21.193984440272004,-22.15147636962833,-23.218169843767559,-24.296997969756006,-25.375826095742859,-26.454654221728031,-27.533482347711605,-28.612310473693494,-29.691138599673771,-30.769966725652317,-31.848794851629329,-32.927622977604621,-34.120638963292784,-35.319665972457528,-36.518692981620639,-37.717719990782022,-38.916746999941736,-40.115774009099816,-41.31480101825619,-42.513828027410817,-43.712855036563852,-44.911882045715153,0.24568587613752876,0.24568587613752876,0.24568587613752876,0.24568587613752876,0.24568587613752876,0.24568587613752876,0.24568587613752876,0.24568587613752876,0.24568587613752876,0.24568587613752876,0.24568587613752876,0.24568587613752876
DP 357,171.729378858757,0.0035657535770230011,-122.85680907727762,-119.69608662954128,-116.53536418180209,-113.37464173406,-110.21391928631516,-107.05319683856739,-103.89247439081679,-100.73175194306346,-97.571029495307286,-94.410307047548272,-91.254509684829713,-88.192289868991409,-85.130070053150376,-82.067850237306487,-79.00563042145977,-75.943410605610268,-72.881190789757923,-69.81897097390285,-66.756751158044963,-63.694531342184256,-60.652325544089386,-57.790247797669807,-54.9281700512475,-52.066092304822504,-49.204014558394753,-46.341936811964274,-43.479859065531066,-40.617781319095158,-37.755703572656522,-34.893625826215121,-32.074502747127561,-29.498792156491067,-26.92308156585181,-24.347370975209781,-21.771660384564967,-19.195949793917372,-16.620239203266983,-14.044528612613819,-11.468818021957894,-8.8931074312991925,-6.3889073797231219,-4.1707528641317513,-1.9525983485376661,0.26555616705916191,2.4837106826587037,4.7018651982609967,6.92001971386601,9.1381742294737727,11.356328745084248,13.57448326069745,15.689918981045707,17.497194431938059,19.304469882833143,21.111745333730969,22.919020784631559,24.7262962355349,26.533571686440954,28.340847137349769,30.148122588261309,31.955398039175655,33.629053373188079,34.990923171939059,36.352792970692818,37.7146627694493,39.076532568208549,40.438402366970507,41.800272165735286,43.162141964502858,44.524011763273094,45.88588156204613,47.086215107339413,47.986548390840149,48.88688167434367,49.787214957849962,50.687548241359018,51.587881524870866,52.488214808385429,53.388548091902834,54.288881375422982,55.189214658945922,55.905144949527376,56.344466393184206,56.783787836843793,57.223109280506179,57.662430724171415,58.1017521678394,58.541073611510193,58.980395055183855,59.419716498860247,59.859037942539423,60.097451858489919,60.090307909421078,60.083163960355016,60.076020011291888,60.068876062231567,60.061732113174081,60.054588164119373,60.047444215067586,60.040300266018612,60.033156316972416,58.959024367154328,58.530799581024972,58.102574794898487,57.674350008774944,57.246125222654278,56.817900436536412,56.389675650421445,55.961450864309391,55.319705655015568,54.503258248162808,53.68681084131304,52.8703634344661,52.0539160276221,51.237468620781087,50.421021213942879,49.60457380710772,48.788126400275416,47.971678993446091,46.944557756376668,45.776983980282793,44.60941020419191,43.441836428104004,42.274262652019111,41.106688875937174,39.939115099858249,38.771541323782273,37.603967547709317,36.436393771639345,35.065556491813858,33.585266677235964,32.104976862661218,30.624687048089402,29.144397233520731,27.664107418955108,26.183817604392505,24.703527789832982,23.223237975276486,21.742948160723071,20.069849971208523,18.314116366612129,16.558382762018773,14.802649157428647,13.046915552841567,11.291181948257675,9.5354483436768991,7.7797147390992025,6.0239811345246927,4.2682475299532934,2.3315205275658526,0.33446011154365918,-1.6626003044753526,-3.659660720491182,-5.6567211365037844,-7.6537815525132595,-9.65084196851946,-11.647902384522492,-13.644962800522404,-15.642023216519046,-17.808436818519155,-20.017190717953692,-22.225944617384908,-24.434698516812734,-26.64345241623721,-28.852206315658286,-31.060960215076008,-33.269714114490355,-35.478468013901292,-37.687221913309,-40.055789350987013,-42.45256095492006,-44.849332558849724,-47.246104162776248,-49.642875766699326,-52.039647370619214,-54.436418974535719,-56.833190578448963,-59.229962182358946,-61.626733786265646,-64.176788092125648,-66.743875419141943,-69.310962746154729,-71.878050073163877,-74.445137400169529,-77.012224727171471,-79.579312054169918,-82.1463993811647,-84.713486708156,-87.280574035143744,-89.999525576757989,-92.7264714827601,-95.4534173887587,-98.180363294753462,-100.90730920074482,-103.63425510673233,-106.36120101271631,-109.08814691869631,-111.81509282467307,-114.5420387306458,0.541850264349862,0.541850264349862,0.541850264349862,0.541850264349862,0.541850264349862,0.541850264349862,0.541850264349862,0.541850264349862,0.541850264349862,0.541850264349862,0.541850264349862,0.541850264349862
DP 358,209.44053147585,0.0034620785361200697,-138.79471996681877,-135.09742717213649,-131.40013437745156,-127.70284158276397,-124.0055487880734,-120.30825599338016,-116.61096319868415,-112.91367040398541,-109.216377609284,-105.51908481457959,-101.82821783813256,-98.259442623390484,-94.690667408645552,-91.121892193897878,-87.5531169791475,-83.98434176439433,-80.4155665496385,-76.8467913348798,-73.278016120118437,-69.709240905354292,-66.166398942342255,-62.856958696377319,-59.547518450409754,-56.238078204439532,-52.9286379584666,-49.619197712491058,-46.309757466512778,-43.000317220531862,-39.690876974548296,-36.381436728562058,-33.127072038763139,-30.184805637929845,-27.242539237093844,-24.300272836255157,-21.358006435413746,-18.41574003456962,-15.473473633722776,-12.53120723287322,-9.5889408320209668,-6.646674431166,-3.7947651593250389,-1.304288673899171,1.1861878115293496,3.6766642969605456,6.1671407823943829,8.6576172678309113,11.148093753270087,13.638570238711939,16.129046724156446,18.619523209603607,20.982576330595212,22.963354540513738,24.944132750434925,26.92491096035879,28.9056891702853,30.886467380214512,32.867245590146382,34.848023800080959,36.828802010018144,38.809580219958036,40.628222979750646,42.068543303661222,43.508863627574428,44.949183951490362,46.389504275408932,47.829824599330209,49.270144923254122,50.710465247180757,52.150785571110056,53.591105895042034,54.840368535351828,55.734804603487568,56.629240671626007,57.523676739767133,58.418112807910894,59.312548876057448,60.206984944206624,61.101421012358557,61.9958570805131,62.890293148670395,63.572845752834404,63.937568154122296,64.302290555412924,64.667012956706316,65.0317353580024,65.3964577593012,65.761180160602677,66.125902561906912,66.490624963213818,66.8553473645235,66.9965242924835,66.8644742797161,66.7324242669514,66.600374254189461,66.468324241430309,66.3362742286739,66.204224215920235,66.072174203169268,65.940124190421017,65.808074177675536,64.281221208894507,63.696889168936664,63.1125571289816,62.52822508902927,61.943893049079762,61.359561009133046,60.775228969189037,60.190896929247877,59.385873726719574,58.400281234793688,57.414688742870545,56.429096250950224,55.443503759032787,54.45791126711817,53.472318775206283,52.486726283297351,51.501133791391155,50.515541299487857,49.321084751405962,47.987382208851045,46.653679666298963,45.319977123749737,43.986274581203467,42.652572038660011,41.318869496119461,39.985166953581768,38.651464411046994,37.317761868515021,35.791413342091225,34.16132956139267,32.531245780697148,30.901162000004543,29.271078219314887,27.640994438628173,26.010910657944393,24.380826877263587,22.750743096585694,21.120659315910775,19.316478755788236,17.437682351634063,15.558885947482841,13.68008954333472,11.801293139189546,9.9224967350474351,8.0437003309083153,6.1649039267721664,4.28610752263908,2.4073111185089928,0.37330324324856251,-1.7124437451592018,-3.7981907335639109,-5.8839377219655526,-7.9696847103641,-10.055431698759648,-12.141178687152031,-14.226925675541365,-16.31267266392771,-18.398419652310903,-20.6217986494375,-22.879587274892575,-25.137375900344484,-27.395164525793113,-29.65295315123856,-31.910741776680684,-34.168530402119622,-36.426319027555323,-38.684107652987791,-40.941896278417033,-43.322886992688481,-45.725620622073343,-48.128354251454986,-50.531087880833581,-52.933821510208837,-55.336555139581094,-57.739288768950068,-60.142022398315895,-62.544756027678567,-64.947489657038119,-67.462936420790982,-69.990908049895,-72.518879678995418,-75.046851308092442,-77.574822937186184,-80.102794566276316,-82.630766195363165,-85.1587378244464,-87.686709453526348,-90.2146810826028,-92.850694972321278,-95.4923963717856,-98.134097771246459,-100.77579917070375,-103.41750057015763,-106.05920196960807,-108.70090336905496,-111.34260476849812,-113.9843061679381,-116.6260075673744,0.51974554127080175,0.51974554127080175,0.51974554127080175,0.51974554127080175,0.51974554127080175,0.51974554127080175,0.51974554127080175,0.51974554127080175,0.51974554127080175,0.51974554127080175,0.51974554127080175,0.51974554127080175
DP 359,54.151680529796394,0.0010237267959153189,-15.20067990803904,-14.883351240717435,-14.566022573395385,-14.248693906072871,-13.931365238749924,-13.61403657142653,-13.296707904102698,-12.979379236778406,-12.662050569453697,-12.344721902128517,-12.02769748139673,-11.716453803463429,-11.405210125529669,-11.093966447595456,-10.782722769660793,-10.471479091725683,-10.160235413790113,-9.8489917358540957,-9.537748057917625,-9.2265043799806961,-8.9165293738830425,-8.6179725342595344,-8.3194156946355537,-8.02085885501112,-7.722302015386231,-7.42374517576087,-7.12518833613506,-6.8266314965087824,-6.5280746568820449,-6.2295178172548473,-5.9337882423345052,-5.6540800122471211,-5.3743717821592725,-5.0946635520709478,-4.8149553219821515,-4.5352470918928853,-4.2555388618031422,-3.9758306317129288,-3.6961224016222376,-3.4164141715310783,-3.1416644263707925,-2.8867488552774008,-2.6318332841835277,-2.3769177130891723,-2.1220021419943387,-1.8670865708990185,-1.6121709998032194,-1.3572554287069376,-1.1023398576101735,-0.84742428651292812,-0.60011511424079877,-0.37562542603239213,-0.15113573782349066,0.073353950385906544,0.29784363859579982,0.52233332680618871,0.74682301501707249,0.9713127032284522,1.195802391440326,1.4202920796526968,1.6340678200033389,1.8228439267197867,2.0116200334367433,2.2003961401542091,2.3891722468721852,2.5779483535906724,2.7667244603096695,2.9555005670291767,3.1442766737491947,3.3330527804697208,3.5076183898663102,3.6557926918902,3.8039669939146181,3.9521412959395623,4.1003155979650314,4.2484898999910286,4.3966642020175426,4.544838504044594,4.6930128060721747,4.8411871081002742,4.9713361382442365,5.0744468346178806,5.1775575309920754,5.2806682273668155,5.3837789237420939,5.4868896201179211,5.5900003164942884,5.6931110128712037,5.796221709248659,5.8993324056266623,5.9803558927596328,6.0343834379895522,6.0884109832200393,6.1424385284510885,6.1964660736827053,6.2504936189148772,6.3045211641476184,6.3585487093809254,6.4125762546147893,6.46660379984922,6.497063587086112,6.4984418934062145,6.4998201997269049,6.5011985060481718,6.5025768123700276,6.50395511869247,6.5053334250154942,6.506711731339097,6.4774165644153046,6.4230243922344679,6.3686322200542387,6.3142400478746143,6.2598478756955949,6.2054557035171864,6.1510635313393811,6.0966713591621913,6.0422791869856,5.9878870148096182,5.8984187738214073,5.7855659343851968,5.6727130949496241,5.5598602555146739,5.4470074160803659,5.3341545766466814,5.2213017372136328,5.1084488977812148,4.9955960583494274,4.88274321891827,4.7304108058430963,4.5568195867036927,4.3832283675649464,4.2096371484268529,4.03604592928942,3.8624547101526456,3.6888634910165252,3.5152722718810669,3.3416810527462606,3.168089833612119,2.9506579691650825,2.7144365167472286,2.4782150643300507,2.2419936119135713,2.0057721594977673,1.7695507070826539,1.5333292546682249,1.2971078022544771,1.0608863498414205,0.82466489742904681,0.54031078388650211,0.23991184335929325,-0.0604870971672089,-0.36088603769300409,-0.66128497821808618,-0.96168391874247128,-1.2620828592661351,-1.5624817997890958,-1.8628807403113585,-2.1632796808328996,-2.5159669284896586,-2.8817268707247097,-3.2474868129590084,-3.6132467551925358,-3.9790066974253007,-4.3447666396572906,-4.7105265818885194,-5.076286524118987,-5.4420464663486827,-5.80780640857762,-6.2299430225953838,-6.6620290879631279,-7.09411515333011,-7.5262012186963707,-7.9582872840618615,-8.3903733494266248,-8.8224594147906359,-9.2545454801538938,-9.6866315455164145,-10.118717610878196,-10.611009007567485,-11.109990517813182,-11.608972028058046,-12.107953538302098,-12.606935048545317,-13.105916558787669,-13.604898069029227,-14.103879579269924,-14.602861089509817,-15.101842599748856,-15.66477558739615,-16.231075078567,-16.79737456973702,-17.363674060906167,-17.929973552074461,-18.496273043241924,-19.06257253440851,-19.628872025574228,-20.195171516739087,-20.761471007903104,0.11941188004974787,0.11941188004974787,0.11941188004974787,0.11941188004974787,0.11941188004974787,0.11941188004974787,0.11941188004974787,0.11941188004974787,0.11941188004974787,0.11941188004974787,0.11941188004974787,0.11941188004974787
DP 360,122.83206216855248,0.0035390727770240413,-93.588002264614062,-91.316961137412576,-89.045920010208462,-86.774878883001676,-84.503837755792162,-82.232796628580076,-79.961755501365332,-77.690714374148,-75.419673246927985,-73.148632119705368,-70.880574072081117,-68.669195100809262,-66.45781612953472,-64.246437158257649,-62.035058186977842,-59.823679215695456,-57.61230024441047,-55.400921273122854,-53.1895423018326,-50.978163330539729,-48.779023409574648,-46.690036098437318,-44.601048787297458,-42.512061476155004,-40.423074165009965,-38.334086853862431,-36.2450995427123,-34.156112231559611,-32.067124920404368,-29.978137609246573,-27.9157982863622,-26.004465909582152,-24.093133532799492,-22.1818011560142,-20.270468779226331,-18.359136402435826,-16.447804025642707,-14.536471648846959,-12.625139272048617,-10.713806895247657,-8.8477327878228476,-7.1626938968528293,-5.4776550058802451,-3.7926161149050612,-2.1075772239273145,-0.42253833294697235,1.2625005580359436,2.9475394490214497,4.632578340009526,6.3176172310001846,7.9359849156057161,9.3543364603046246,10.772688005006128,12.191039549710231,13.609391094416928,15.027742639126242,16.446094183838145,17.864445728552653,19.28279727326975,20.701148817989473,22.030082956855388,23.150372960451779,24.270662964050768,25.390952967652389,26.511242971256625,27.631532974863493,28.751822978472973,29.872112982085081,30.99240298569979,32.112692989317139,33.120956357253526,33.921167233516044,34.72137810978127,35.521588986049117,36.321799862319565,37.1220107385927,37.922221614868477,38.722432491146876,39.522643367427925,40.322854243711696,40.989857340458855,41.45704562015078,41.924233899845362,42.3914221795426,42.85861045924257,43.325798738945188,43.792987018650507,44.260175298358511,44.727363578069195,45.194551857782571,45.5098087715481,45.639368602315393,45.768928433085385,45.898488263858169,46.028048094633633,46.157607925411796,46.287167756192737,46.416727586976371,46.546287417762684,46.675847248551733,46.22697057185141,46.021507301686455,45.816044031524342,45.610580761364936,45.405117491208323,45.1996542210545,44.994190950903423,44.78872768075513,44.403643092252061,43.871592519992625,43.339541947736,42.807491375482194,42.275440803231248,41.74339023098311,41.2113396587378,40.679289086495352,40.147238514255712,39.615187942018864,38.894831395937935,38.048934567470091,37.203037739005147,36.357140910543094,35.511244082083927,34.66534725362763,33.819450425174274,32.973553596723782,32.127656768276189,31.281759939831506,30.24193427735489,29.097682576488708,27.953430875625536,26.809179174765337,25.664927473908104,24.520675773053828,23.376424072202525,22.232172371354231,21.087920670508879,19.943668969666504,18.602289144542617,17.1764225102876,15.750555876035573,14.324689241786649,12.898822607540747,11.472955973297912,10.047089339058136,8.6212227048213741,7.1953560705876969,5.7694894363570555,4.1448382273644384,2.4539229882022928,0.76300774904324808,-0.92790749011268492,-2.6188227292654744,-4.3097379684152033,-6.0006532075617374,-7.6915684467051912,-9.3824836858455711,-11.07339892498277,-12.964072026232277,-14.904686953179793,-16.84530188012403,-18.785916807064968,-20.726531734002627,-22.667146660936922,-24.607761587867948,-26.548376514795667,-28.48899144172006,-30.429606368641235,-32.571661633683853,-34.749267433734026,-36.926873233780888,-39.10447903382466,-41.282084833865092,-43.459690633902362,-45.637296433936335,-47.814902233967111,-49.992508033994696,-52.170113834019062,-54.552000711850759,-56.956587632648564,-59.361174553442822,-61.765761474233521,-64.170348395020852,-66.5749353158045,-68.979522236584671,-71.384109157361223,-73.788696078134436,-76.193282998904,-78.807900118792929,-81.433573549403619,-84.059246980010826,-86.684920410614282,-89.310593841214214,-91.936267271810678,-94.561940702403476,-97.187614132992479,-99.813287563578143,-102.43896099415993,0.53095877020866511,0.53095877020866511,0.53095877020866511,0.53095877020866511,0.53095877020866511,0.53095877020866511,0.53095877020866511,0.53095877020866511,0.53095877020866511,0.53095877020866511,0.53095877020866511,0.53095877020866511
DP 361,103.85633595448571,0.0044916884213265168,-104.29021765286038,-101.8340433026231,-99.377868952382883,-96.921694602139439,-94.465520251892769,-92.009345901643059,-89.553171551390164,-87.096997201134172,-84.640822850875,-82.18464850061271,-79.731451874263541,-77.334832565245179,-74.938213256223648,-72.541593947198976,-70.144974638171178,-67.748355329140253,-65.35173602010606,-62.955116711068861,-60.558497402028465,-58.161878092984878,-55.777531195888422,-53.503637166350764,-51.229743136810015,-48.955849107266204,-46.681955077719344,-44.408061048169358,-42.13416701861631,-39.860272989060142,-37.586378959500934,-35.31248492993862,-33.065469560053579,-30.970768288765981,-28.876067017475219,-26.781365746181311,-24.686664474884278,-22.591963203584047,-20.497261932280697,-18.402560660974171,-16.307859389664518,-14.213158118351725,-12.164499198027764,-10.300011857667343,-8.4355245173038,-6.5710371769371347,-4.7065498365673593,-2.8420624961944445,-0.977575155818418,0.88691218456073773,2.7513995249430034,4.6158868653283918,6.4118230652333894,8.0021032518672,9.5923834385041626,11.18266362514427,12.772943811787535,14.363223998433968,15.953504185083531,17.543784371736258,19.1340645583921,20.724344745051123,22.221480478659529,23.501275486754384,24.781070494852411,26.060865502953629,27.340660511058047,28.620455519165617,29.90025052727637,31.180045535390338,32.459840543507475,33.739635551627785,34.900939673464222,35.842186092217943,36.783432510974848,37.724678929734985,38.665925348498355,39.607171767264909,40.548418186034716,41.489664604807743,42.430911023583967,43.372157442363431,44.170020063203076,44.752803598919257,45.335587134638622,45.91837067036132,46.501154206087286,47.083937741816413,47.666721277548959,48.2495048132847,48.832288349023756,49.415071884766043,49.8310606191634,50.043185537318379,50.255310455476717,50.467435373638324,50.679560291803277,50.891685209971541,51.103810128143174,51.315935046318153,51.528059964496428,51.740184882678051,51.436773470974288,51.272983212027711,51.10919295308446,50.9454026941447,50.7816124352082,50.617822176275212,50.454031917345553,50.290241658419333,49.92004513222345,49.380967203749684,48.841889275279357,48.302811346812554,47.763733418349133,47.224655489889265,46.685577561432829,46.146499632979889,45.607421704530474,45.068343776084511,44.307272709996788,43.398202721630867,42.489132733268484,41.580062744909682,40.670992756554448,39.761922768202751,38.852852779854658,37.943782791510095,37.034712803169114,36.125642814831707,34.981696852947181,33.711275797491147,32.440854742038795,31.170433686590059,29.900012631144939,28.629591575703515,27.359170520265653,26.088749464831505,24.818328409400955,23.547907353974065,22.032021679401694,20.410932739177849,18.789843798957683,17.168754858741384,15.547665918528804,13.926576978320021,12.305488038115016,10.684399097913722,9.0633101577162485,7.44222121752253,5.5666733533030914,3.6063026408382228,1.6459319283771976,-0.31443878407997383,-2.2748094965332575,-4.2351802089827517,-6.1955509214283007,-8.155921633870026,-10.11629234630796,-12.076663058741946,-14.299529062818909,-16.588021991229102,-18.876514919635284,-21.165007848037348,-23.453500776435316,-25.741993704829117,-28.030486633218885,-30.318979561604511,-32.60747248998608,-34.895965418363581,-37.45536718170591,-40.06257939905727,-42.669791616404531,-45.277003833747933,-47.884216051087243,-50.491428268422588,-53.098640485753876,-55.705852703081177,-58.313064920404514,-60.920277137723808,-63.807334993620671,-66.7254897483975,-69.6436445031699,-72.561799257937864,-75.47995401270164,-78.3981087674608,-81.316263522215721,-84.234418276966139,-87.15257303171235,-90.070727786453958,-93.280020852317392,-96.504639883896061,-99.72925891547041,-102.95387794704018,-106.17849697860554,-109.40311601016639,-112.62773504172277,-115.85235407327468,-119.0769731048221,-122.3015921363649,0.65767910519559336,0.65767910519559336,0.65767910519559336,0.65767910519559336,0.65767910519559336,0.65767910519559336,0.65767910519559336,0.65767910519559336,0.65767910519559336,0.65767910519559336,0.65767910519559336,0.65767910519559336
DP 362,67.77513754242824,0.0017477055301082726,-29.96963812048158,-29.316766838072791,-28.663895555663071,-28.011024273252431,-27.358152990840804,-26.705281708428245,-26.052410426014717,-25.399539143600247,-24.746667861184797,-24.093796578768451,-23.441591070974752,-22.80203540689044,-22.162479742805168,-21.52292407871894,-20.883368414631772,-20.243812750543647,-19.604257086454542,-18.964701422364513,-18.325145758273504,-17.685590094181553,-17.048802336907109,-16.436926002625203,-15.82504966834235,-15.213173334058549,-14.601296999773778,-13.989420665488076,-13.37754433120141,-12.765667996913793,-12.153791662625222,-11.541915328335692,-10.936178703405274,-10.365234151738251,-9.7942896000702646,-9.22334504840129,-8.65240049673134,-8.08145594506042,-7.5105113933885184,-6.9395668417156413,-6.3686222900417819,-5.7976777383669589,-5.237435169497803,-4.7200010376386317,-4.2025669057784887,-3.6851327739173572,-3.1676986420552504,-2.6502645101921538,-2.1328303783280806,-1.615396246463024,-1.0979621145969893,-0.58052798272997153,-0.0793837636963244,0.37289010093618846,0.82516396556970129,1.2774378302042155,1.7297116948397295,2.1819855594762463,2.6342594241137638,3.0865332887522792,3.5388071533917946,3.9910810180323124,4.4206225826477308,4.7971212185845431,5.173619854522383,5.5501184904612373,5.9266171264011094,6.3031157623420073,6.6796143982839311,7.0561130342268665,7.43261167017082,7.8091103061158078,8.1557775724977084,8.4470429183457441,8.7383082641948331,9.0295736100449648,9.3208389558961358,9.6121043017483565,9.9033696476016111,10.194634993455916,10.485900339311263,10.777165685167645,11.031036098253265,11.22881322852608,11.426590358799988,11.624367489074947,11.822144619350983,12.0199217496281,12.217698879906267,12.415476010185509,12.613253140465819,12.811030270747205,12.96357069737218,13.060820869341319,13.158071041311555,13.255321213282915,13.352571385255336,13.449821557228885,13.547071729203523,13.644321901179257,13.741572073156084,13.838822245134029,13.864615350200349,13.855482356725187,13.846349363251138,13.837216369778236,13.828083376306465,13.81895038283583,13.809817389366316,13.800684395897944,13.730432491998277,13.61017315646456,13.489913820932003,13.369654485400615,13.249395149870406,13.129135814341332,13.00887647881345,12.888617143286734,12.768357807761184,12.648098472236793,12.458923771919309,12.223804409410326,11.988685046902544,11.753565684395966,11.518446321890591,11.283326959386413,11.04820759688346,10.813088234381695,10.577968871881144,10.342849509381798,10.031224662882865,9.6784034432451573,9.3255822236086967,8.97276100397347,8.619939784339488,8.2671185647067471,7.9142973450752443,7.5614761254449894,7.2086549058159646,6.8558336861881868,6.4191610225726583,5.9465506105031141,5.4739401984348479,5.0013297863678989,4.5287193743022254,4.0561089622378574,3.5834985501747796,3.11088813811299,2.6382777260525012,2.1656673139933029,1.6020989993589079,1.0082102375387578,0.41432147571993583,-0.17956728609755665,-0.77345604791370925,-1.3673448097285517,-1.9612335715420366,-2.5551223333542,-3.1490110951650503,-3.7428998569745486,-4.4345697480201132,-5.15068607667396,-5.8668024053264061,-6.5829187339774222,-7.2990350626270084,-8.01515139127516,-8.7312677199218971,-9.4473840485672032,-10.163500377211092,-10.879616705853563,-11.700247187460747,-12.539322505332846,-13.378397823203535,-14.217473141072862,-15.056548458940766,-15.89562377680728,-16.73469909467239,-17.573774412536139,-18.412849730398506,-19.251925048259459,-20.201900223504868,-21.164198769836045,-22.126497316165722,-23.088795862493832,-24.051094408820429,-25.013392955145445,-25.975691501468958,-26.937990047790894,-27.90028859411132,-28.862587140430172,-29.9422183524178,-31.028026135274608,-32.1138339181299,-33.199641700983562,-34.285449483835663,-35.371257266686214,-36.457065049535139,-37.542872832382457,-38.628680615228184,-39.714488398072369,0.22616866389308887,0.22616866389308887,0.22616866389308887,0.22616866389308887,0.22616866389308887,0.22616866389308887,0.22616866389308887,0.22616866389308887,0.22616866389308887,0.22616866389308887,0.22616866389308887,0.22616866389308887
DP 363,192.89117186868066,0.0030714972771736923,-115.74394502723621,-112.70520558167068,-109.66646613610277,-106.62772669053236,-103.58898724495944,-100.55024779938414,-97.51150835380632,-94.472768908226087,-91.434029462643323,-88.39529001705823,-85.36159387210084,-82.423721392525664,-79.485848912947986,-76.547976433367907,-73.610103953785426,-70.6722314742005,-67.734358994613061,-64.79648651502329,-61.858614035431,-58.920741555836322,-56.003283091235517,-53.269552691167327,-50.535822291096693,-47.802091891023814,-45.06836149094849,-42.334631090870836,-39.6009006907908,-36.867170290708458,-34.13343989062372,-31.399709490536633,-28.709534141475203,-26.266173492836877,-23.822812844196147,-21.379452195552997,-18.936091546907448,-16.492730898259488,-14.049370249609115,-11.606009600956344,-9.1626489523011685,-6.7192883036436006,-4.3478403211719758,-2.2640464021020463,-0.18025248302976804,1.9035414360448857,3.9873353551218842,6.0711292742012706,8.1549231932830057,10.238717112367114,12.322511031453582,14.406304950542408,16.387870073610447,18.062744943482052,19.737619813356037,21.412494683232389,23.087369553111127,24.762244422992254,26.43711929287571,28.111994162761558,29.786869032649744,31.461743902540334,33.005285513997826,34.242377683352643,35.479469852709862,36.716562022069461,37.953654191431433,39.190746360795757,40.427838530162504,41.664930699531588,42.902022868903096,44.139115038276977,45.219719611301073,46.009700136404888,46.799680661511033,47.589661186619644,48.379641711730571,49.169622236844,49.959602761959715,50.749583287077861,51.5395638121984,52.329544337321352,52.943793029966635,53.294439821285991,53.645086612607805,53.995733403931958,54.3463801952586,54.697026986587581,55.047673777919016,55.398320569252817,55.7489673605891,56.099614151927781,56.262266483257996,56.195143859129942,56.128021235004319,56.06089861088121,55.993775986760461,55.926653362642192,55.859530738526367,55.79240811441295,55.725285490301964,55.658162866193457,54.491362308666417,54.038065880453942,53.584769452243989,53.131473024036559,52.67817659583153,52.224880167629074,51.771583739429012,51.3182873112314,50.673422327774247,49.871816143225708,49.070209958679627,48.268603774136089,47.466997589595096,46.665391405056596,45.863785220520576,45.06217903598715,44.260572851456196,43.458966666927786,42.472797271523639,41.3635828280067,40.254368384492309,39.1451539409805,38.035939497471219,36.926725053964518,35.817510610460417,34.708296166958839,33.599081723459861,32.489867279963427,31.207113496558716,29.830912929637591,28.454712362719153,27.078511795803294,25.702311228890089,24.326110661979492,22.949910095071477,21.573709528166152,20.197508961263392,18.821308394363275,17.284995374142223,15.680060028554731,14.075124682969868,12.470189337387763,10.865253991808302,9.26031864623156,7.6553833006574932,6.0504479550860735,4.4455126095173831,2.8405772639513676,1.0897021131308242,-0.70982147869598144,-2.5093450705200593,-4.3088686623414052,-6.1083922541599796,-7.90791584597589,-9.7074394377889632,-11.506963029599346,-13.306486621407037,-15.106010213211915,-17.037987581035317,-19.003079957824578,-20.968172334611026,-22.933264711394536,-24.898357088175157,-26.863449464952886,-28.828541841727763,-30.79363421849969,-32.7587265952688,-34.723818972034977,-36.81024840840896,-38.91809161635112,-41.025934824290417,-43.133778032226978,-45.24162124016059,-47.349464448091439,-49.457307656019495,-51.565150863944687,-53.672994071867066,-55.7808372797866,-58.00204246493653,-60.235844615900668,-62.469646766861814,-64.703448917819827,-66.9372510687749,-69.171053219726687,-71.404855370675591,-73.638657521621312,-75.872459672564062,-78.1062618235037,-80.450353428957641,-82.800250839878245,-85.1501482507958,-87.500045661710118,-89.849943072621329,-92.1998404835295,-94.549737894434529,-96.899635305336361,-99.249532716235151,-101.59943012713073,0.46418517535439541,0.46418517535439541,0.46418517535439541,0.46418517535439541,0.46418517535439541,0.46418517535439541,0.46418517535439541,0.46418517535439541,0.46418517535439541,0.46418517535439541,0.46418517535439541,0.46418517535439541
DP 364,201.81077372399847,0.0048523985947396394,-189.2118531248673,-184.20457787182804,-179.1973026187851,-174.19002736573819,-169.18275211268721,-164.17547685963245,-159.1682016065738,-154.16092635351112,-149.15365110044468,-144.14637584737434,-139.14762275382546,-134.31079230232262,-129.47396185081593,-124.6371313993054,-119.80030094779099,-114.96347049627282,-110.12664004475069,-105.28980959322486,-100.45297914169508,-95.616148690161523,-90.813758893637555,-86.3213382476232,-81.82891760160507,-77.336496955583257,-72.844076309557721,-68.351655663528433,-63.859235017495365,-59.366814371458545,-54.874393725418059,-50.381973079373815,-45.962850450320936,-41.959087869741047,-37.955325289157329,-33.951562708569817,-29.947800127978539,-25.94403754738342,-21.940274966784497,-17.936512386181747,-13.93274980557522,-9.9289872249649171,-6.0458314508146787,-2.6451086024912875,0.75561424583581926,4.1563370941666768,7.5570599425012484,10.957782790839582,14.358505639181629,17.75922848752743,21.159951335876954,24.560674184230187,27.790687403094328,30.508565279188666,33.226443155286745,35.944321031388569,38.662198907494151,41.3800767836035,44.0979546597166,46.8158325358334,49.533710411953948,52.251588288078288,54.751292698431548,56.741917096113994,58.732541493800184,60.723165891490105,62.713790289183834,64.7044146868813,66.695039084582476,68.685663482287467,70.676287879996266,72.666912277708732,74.399130151332173,75.651443215938713,76.903756280548947,78.156069345163061,79.408382409780884,80.660695474402459,81.913008539027942,83.165321603657148,84.417634668290049,85.669947732926843,86.634037095083187,87.1657840926843,87.697531090289274,88.229278087898024,88.761025085510624,89.292772083127,89.824519080747251,90.356266078371263,90.888013075999012,91.419760073630641,91.645480573573167,91.49716225943375,91.3488439452981,91.200525631166258,91.05220731703848,90.90388900291434,90.75557068879408,90.6072523746777,90.458934060565213,90.310615746456492,88.3069696045617,87.535173632002639,86.7633776594475,85.991581686896225,85.2197857143489,84.447989741805458,83.676193769265936,82.904397796730208,81.826072542768031,80.496945336077417,79.167818129390668,77.838690922707869,76.509563716029078,75.180436509354323,73.8513093026834,72.522182096016593,71.193054889353647,69.863927682694765,68.242327177014573,66.425739864489174,64.609152551967767,62.792565239450411,60.975977926937084,59.159390614427856,57.342803301922636,55.526215989421495,53.709628676924339,51.893041364431213,49.804313340476256,47.569044052947248,45.33377476542249,43.0985054779018,40.863236190385223,38.6279669028728,36.39269761536449,34.1574283278604,31.922159040360345,29.686889752864449,27.2033479820287,24.613399527778132,22.023451073531657,19.433502619289538,16.843554165051568,14.253605710817904,11.663657256588458,9.0737088023631625,6.4837603481421908,3.8938118939254149,1.0802737442420445,-1.8077971217933377,-4.6958679878244221,-7.5839388538512065,-10.472009719873617,-13.360080585891831,-16.248151451905585,-19.136222317915088,-22.024293183920353,-24.912364049921198,-28.000822277963888,-31.139379714123621,-34.277937150278909,-37.416494586429593,-40.55505202257573,-43.693609458717326,-46.8321668948544,-49.970724330986812,-53.1092817671148,-56.24783920323825,-59.56768967046041,-62.9195350415264,-66.271380412587774,-69.623225783644941,-72.975071154697446,-76.326916525745617,-79.678761896789325,-83.030607267828543,-86.382452638863313,-89.734298009893763,-93.253621249148708,-96.79155489933855,-100.32948854952359,-103.86742219970377,-107.40535584987936,-110.94328950004981,-114.4812231502157,-118.01915680037652,-121.55709045053258,-125.09502410068384,-128.79460765349006,-132.50270070425864,-136.21079375502262,-139.9188868057814,-143.62697985653537,-147.33507290728471,-151.04316595802882,-154.75125900876785,-158.45935205950212,-162.16744511023148,0.73085327307143466,0.73085327307143466,0.73085327307143466,0.73085327307143466,0.73085327307143466,0.73085327307143466,0.73085327307143466,0.73085327307143466,0.73085327307143466,0.73085327307143466,0.73085327307143466,0.73085327307143466
DP 365,170.06494284926916,0.0036636167239728276,-125.27289938389981,-122.05546738225657,-118.83803538061044,-115.62060337896135,-112.40317137730945,-109.18573937565455,-105.96830737399681,-102.75087537233615,-99.533443370672572,-96.316011369006176,-93.103566817323113,-89.985884758228025,-86.868202699129938,-83.750520640028952,-80.6328385809251,-77.5151565218184,-74.397474462708814,-71.279792403596332,-68.162110344480965,-65.04442828536277,-61.947020685203448,-59.032085132075366,-56.117149578944492,-53.202214025810733,-50.287278472674295,-47.372342919534987,-44.457407366392871,-41.542471813247978,-38.6275362601003,-35.7126007069498,-32.841197597108057,-30.216481075870774,-27.591764554630657,-24.967048033387659,-22.342331512141847,-19.717614990893171,-17.092898469641636,-14.468181948387253,-11.843465427130011,-9.2187489058699228,-6.6665546470335908,-4.4044528653615282,-2.1423510836866786,0.11975069799099111,2.3818524796714451,4.64395426135473,6.906056043040806,9.1681578247296951,11.430259606421384,13.692361388115874,15.850206728995078,17.695278805631006,19.540350882269731,21.3854229589113,23.230495035555659,25.07556711220289,26.92063918885291,28.765711265505708,30.610783342161351,32.455855418819795,34.165171490108591,35.557718202257838,36.950264914409956,38.342811626564888,39.735358338722676,41.12790505088325,42.52045176304668,43.912998475212945,45.305545187382052,46.698091899553965,47.926330233827144,48.84942000037973,49.772509766935094,50.6955995334933,51.618689300054363,52.541779066618361,53.464868833185086,54.38795859975469,55.311048366327149,56.234138132902494,56.9694147808305,57.422967312692613,57.876519844557642,58.33007237642547,58.783624908296233,59.2371774401698,59.690729972046327,60.1442825039257,60.597835035807954,61.05138756769307,61.300015575835694,61.298175972788464,61.296336369744182,61.294496766702785,61.292657163664288,61.290817560628753,61.288977957595932,61.287138354566281,61.285298751539315,61.283459148515412,60.202449800797623,59.7704131690708,59.338376537346939,58.906339905625948,58.47430327390795,58.042266642192914,57.610230010480819,57.178193378771738,56.527627333091267,55.698260738577339,54.86889414406631,54.039527549558414,53.2101609550535,52.38079436055154,51.551427766052576,50.72206117155671,49.892694577063764,49.06332798257386,48.017928364272478,46.828503326805929,45.639078289342486,44.449653251882019,43.260228214424707,42.070803176970408,40.881378139519192,39.691953102071032,38.502528064625956,37.313103027183914,35.914808458266606,34.404042642764729,32.893276827266007,31.38251101177044,29.871745196277988,28.360979380788731,26.850213565302532,25.339447749819573,23.828681934339695,22.317916118863,20.60857919265705,18.81413701020039,17.019694827746871,15.225252645296665,13.430810462849593,11.636368280405794,9.8419260979651977,8.04748391552778,6.2530417330936228,4.4585995506626652,2.477312686937112,0.43374190800786511,-1.6098288709181092,-3.6533996498408139,-5.6969704287602037,-7.74054120767638,-9.7841119865891919,-11.827682765498743,-13.871253544405102,-15.91482432330808,-18.133647885268509,-20.396286713631497,-22.658925541991088,-24.921564370347184,-27.184203198699834,-29.44684202704898,-31.7094808553947,-33.972119683736913,-36.2347585120757,-38.497397340411084,-40.925802841660065,-43.383463128536079,-45.84112341540866,-48.298783702277959,-50.7564439891438,-53.214104276006275,-55.67176456286532,-58.129424849720984,-60.587085136573293,-63.044745423422249,-65.661720805680631,-68.296399538389238,-70.931078271094179,-73.565757003795426,-76.200435736493,-78.835114469186877,-81.469793201877124,-84.104471934563591,-86.739150667246392,-89.373829399925611,-92.166567760474919,-94.96762662143523,-97.7686854823919,-100.56974434334471,-103.37080320429372,-106.17186206523914,-108.97292092618089,-111.77397978711863,-114.5750386480528,-117.37609750898307,0.556857208908358,0.556857208908358,0.556857208908358,0.556857208908358,0.556857208908358,0.556857208908358,0.556857208908358,0.556857208908358,0.556857208908358,0.556857208908358,0.556857208908358,0.556857208908358
DP 366,219.26058714004927,0.0012896455019022811,-53.479540252519961,-52.043206903306334,-50.60687355409177,-49.170540204876147,-47.734206855659465,-46.297873506441789,-44.861540157223089,-43.425206808003352,-41.988873458782557,-40.552540109560731,-39.11876935346865,-37.733688351303535,-36.348607349137417,-34.963526346970276,-33.578445344802105,-32.193364342632904,-30.808283340462719,-29.423202338291489,-28.038121336119215,-26.653040333945953,-25.278283803153972,-23.996448490689055,-22.714613178223143,-21.432777865756236,-20.150942553288356,-18.869107240819478,-17.587271928349587,-16.305436615878715,-15.023601303406855,-13.741765990934,-12.48179725949427,-11.345740531825156,-10.209683804155036,-9.0736270764838984,-7.9375703488117644,-6.8015136211386187,-5.6654568934644542,-4.5294001657892782,-3.3933434381131051,-2.25728671043592,-1.1569701819302423,-0.19961613922430629,0.75773790348261527,1.7150919461905323,2.6724459888994327,3.6298000316093324,4.5871540743202184,5.5445081170320947,6.5018621597449648,7.4592162024588147,8.36640654976673,9.12310391423488,9.8798012787040275,10.636498643174162,11.393196007645287,12.149893372117418,12.906590736590545,13.663288101064648,14.419985465539758,15.176682830015867,15.869910590835106,16.415040110102513,16.960169629370942,17.505299148640351,18.050428667910737,18.595558187182167,19.140687706454553,19.685817225727959,20.230946745002349,20.776076264277727,21.246899600634851,21.579723733419804,21.912547866205742,22.245371998992695,22.578196131780636,22.911020264569579,23.243844397359524,23.576668530150474,23.909492662942423,24.242316795735388,24.493336693030265,24.621648304013192,24.749959914997142,24.878271525982068,25.006583136968008,25.134894747954991,25.263206358942963,25.39151796993195,25.519829580921915,25.648141191912906,25.690842159449119,25.628906097863837,25.566970036279596,25.505033974696406,25.443097913114173,25.381161851532994,25.319225789952824,25.2572897283737,25.195353666795555,25.133417605218469,24.518392996005858,24.284770040079078,24.051147084153332,23.817524128228627,23.583901172304952,23.350278216382296,23.116655260460707,22.883032304540105,22.56643129904786,22.18193773605077,21.797444173054753,21.41295061005976,21.028457047065807,20.643963484072934,20.259469921081095,19.874976358090297,19.490482795100558,19.10598923211187,18.643769114637937,18.1297300697033,17.615691024769767,17.101651979837264,16.587612934905849,16.07357388997551,15.559534845046228,15.045495800118012,14.531456755190874,14.017417710264782,13.432477199427092,12.809357945144024,12.186238690862073,11.5631194365812,10.940000182301421,10.316880928022732,9.69376167374514,9.07064241946865,8.4475231651932319,7.8244039109189236,7.1379690359456189,6.4243978262633465,5.7108266165821542,4.9972554069021227,4.28368419722318,3.5701129875453734,2.856541777868681,2.1429705681930868,1.4293993585186302,0.715828148845285,-0.053474355056164151,-0.8413546594056881,-1.6292349637540768,-2.4171152681013304,-3.2049955724474333,-3.9928758767924215,-4.7807561811362431,-5.5686364854789314,-6.3565167898205068,-7.1443970941609143,-7.9810334624638,-8.8298594228174,-9.678685383169821,-10.527511343521038,-11.376337303871054,-12.225163264219855,-13.07398922456747,-13.922815184913881,-14.771641145259085,-15.620467105603122,-16.51234874426266,-17.411828922586224,-18.311309100908577,-19.210789279229818,-20.110269457549858,-21.009749635868722,-21.909229814186418,-22.808709992502934,-23.708190170818273,-24.607670349132437,-25.546048534992256,-26.488749130210504,-27.43144972542752,-28.374150320643231,-29.316850915857682,-30.259551511070853,-31.202252106282767,-32.144952701493366,-33.08765329670274,-34.030353891910821,-35.010005504825827,-35.991602275793547,-36.973199046759966,-37.9547958177251,-38.936392588688925,-39.917989359651514,-40.899586130612768,-41.881182901572679,-42.862779672531367,-43.844376443488727,0.19271323086385103,0.19271323086385103,0.19271323086385103,0.19271323086385103,0.19271323086385103,0.19271323086385103,0.19271323086385103,0.19271323086385103,0.19271323086385103,0.19271323086385103,0.19271323086385103,0.19271323086385103
DP 367,60.891395947213113,0.0015280713822121692,-24.443106206078454,-23.921197369914367,-23.399288533749544,-22.877379697583962,-22.355470861417626,-21.833562025250536,-21.311653189082715,-20.789744352914116,-20.267835516744768,-19.745926680574684,-19.224533076770108,-18.712928985325735,-18.201324893880635,-17.689720802434749,-17.17811671098811,-16.666512619540718,-16.154908528092541,-15.643304436643618,-15.131700345193934,-14.620096253743482,-14.110637420182487,-13.62048611040623,-13.130334800629209,-12.640183490851426,-12.150032181072865,-11.659880871293538,-11.169729561513451,-10.679578251732604,-10.18942694195098,-9.6992756321685949,-9.2138953278550577,-8.7555510218443935,-8.2972067158329281,-7.8388624098206812,-7.3805181038076677,-6.9221737977938451,-6.4638294917792471,-6.0054851857638569,-5.5471408797476789,-5.088796573730721,-4.6387943184830807,-4.2221606605671305,-3.8055270026503871,-3.3888933447328475,-2.9722596868145206,-2.5556260288953934,-2.138992370975473,-1.7223587130547575,-1.3057250551332495,-0.88909139721094832,-0.48520857806984335,-0.11957875736548607,0.24605106333968335,0.61168088404566445,0.97731070475246,1.3429405254600675,1.7085703461684858,2.0742001668777186,2.4398299875877592,2.8054598082986155,3.1532092568509116,3.4592371328346059,3.7652650088191284,4.0712928848044871,4.3773207607906777,4.6833486367776977,4.9893765127655509,5.2954043887542408,5.6014322647437575,5.9074601407341065,6.1898914362736859,6.4284998737228616,6.667108311172889,6.9057167486237727,7.1443251860755153,7.3829336235281087,7.6215420609815521,7.8601504984358579,8.0987589358910057,8.3373673733470159,8.5462100276693356,8.71040330391423,8.8745965801599986,9.0387898564066429,9.2029831326541842,9.3671764089025853,9.5313696851518763,9.6955629614020449,9.8597562376530856,10.023949513905007,10.151889842046689,10.23552024990186,10.319150657757943,10.402781065614937,10.486411473472831,10.570041881331633,10.653672289191343,10.737302697051952,10.820933104913475,10.904563512775903,10.940763022314027,10.938516582215753,10.936270142118405,10.934023702021985,10.931777261926511,10.929530821831969,10.927284381738362,10.925037941645686,10.873084228518485,10.780460074108063,10.687835919698609,10.595211765290122,10.502587610882593,10.409963456476051,10.317339302070467,10.224715147665853,10.1320909932622,10.039466838859518,9.8903682486238065,9.703619144825657,9.5168700410285076,9.3301209372323477,9.1433718334371985,8.9566227296430529,8.7698736258499164,8.5831245220577639,8.3963754182666346,8.2096263144764947,7.9597142958473777,7.6757905584210331,7.3918668209957445,7.1079430835714943,6.8240193461482672,6.5400956087260953,6.2561718713049448,5.9722481338848565,5.6883243964657924,5.4044006590477762,5.0507554866639106,4.66722852247718,4.283701558291507,3.9001745941069372,3.516647629923435,3.1331206657410249,2.7495937015596943,2.3660667373794353,1.9825397732002703,1.5990128090221831,1.1393557857295094,0.654321116610805,0.16928644749321184,-0.31574822162326788,-0.80078289073862563,-1.2858175598528849,-1.7708522289660085,-2.2558868980780269,-2.7409215671889449,-3.2259562362987291,-3.7933012921137874,-4.381224917115202,-4.9691485421154358,-5.5570721671144652,-6.1449957921122973,-6.7329194171089251,-7.3208430421043609,-7.9087666670985852,-8.496690292091623,-9.0846139170834821,-9.7609372405379862,-10.4528614937973,-11.14478574705543,-11.836710000312429,-12.52863425356821,-13.22055850682286,-13.912482760076317,-14.604407013328617,-15.296331266579744,-15.988255519829709,-16.774311781061218,-17.570828142898478,-18.367344504734479,-19.163860866569149,-19.960377228402546,-20.756893590234625,-21.553409952065429,-22.3499263138949,-23.146442675723087,-23.942959037549972,-24.839285780579512,-25.740866694640371,-26.642447608699893,-27.544028522758083,-28.445609436814955,-29.347190350870527,-30.24877126492472,-31.15035217897756,-32.051933093029106,-32.953514007079313,0.18884918755880764,0.18884918755880764,0.18884918755880764,0.18884918755880764,0.18884918755880764,0.18884918755880764,0.18884918755880764,0.18884918755880764,0.18884918755880764,0.18884918755880764,0.18884918755880764,0.18884918755880764
DP 368,226.48207440057433,0.0031144500557968718,-132.23507906788004,-128.66275315122186,-125.09042723456126,-121.5181013178981,-117.94577540123254,-114.37344948456449,-110.80112356789394,-107.22879765122087,-103.65647173454532,-100.08414581786724,-96.518314286283641,-93.0758772992681,-89.633440312250016,-86.191003325229559,-82.748566338206487,-79.306129351181042,-75.863692364153067,-72.421255377122719,-68.9788183900898,-65.53638140305452,-62.120076430396388,-58.93896205719696,-55.757847683995152,-52.576733310790992,-49.395618937584381,-46.214504564375424,-43.03339019116401,-39.852275817950243,-36.671161444734089,-33.490047071515569,-30.364169598746368,-27.551304709260343,-24.738439819771926,-21.925574930281091,-19.112710040787817,-16.299845151292086,-13.486980261793928,-10.67411537229332,-7.8612504827902967,-5.0483855932848414,-2.3255531970563736,0.037144971048483875,2.399843139155716,4.7625413072653515,7.1252394753773558,9.48793764349177,11.850635811608555,14.213333979727752,16.576032147849332,18.938730315973295,21.175497472705693,23.034466833981352,24.893436195259373,26.752405556539841,28.611374917822641,30.470344279107909,32.329313640395533,34.188283001685555,36.047252362977957,37.90622172427279,39.606513547791934,40.936551533815305,42.266589519841112,43.5966275058693,44.926665491899875,46.256703477932888,47.586741463968309,48.916779450006089,50.246817436046307,51.576855422088926,52.722007204823278,53.523793902634729,54.325580600448617,55.127367298264936,55.929153996083585,56.730940693904763,57.53272739172823,58.334514089554162,59.136300787382517,59.938087485213259,60.53741569154424,60.833051376455082,61.128687061368446,61.424322746284162,61.719958431202386,62.015594116122983,62.311229801046004,62.606865485971511,62.902501170899384,63.198136855829674,63.28313903024614,63.110695823058364,62.938252615873054,62.765809408690217,62.593366201509859,62.42092299433191,62.248479787156469,62.076036579983409,61.903593372812821,61.731150165644742,60.164548154650184,59.572395198266065,58.980242241884291,58.388089285505117,57.795936329128409,57.203783372754117,56.6116304163824,56.0194774600131,55.22587529752569,54.267447595256492,53.309019892989767,52.350592190725692,51.392164488464,50.433736786204911,49.475309083948311,48.51688138169434,47.558453679442756,46.600025977193809,45.454299027645419,44.183702962599405,42.913106897555956,41.642510832515079,40.371914767476774,39.10131870244102,37.830722637407845,36.560126572377278,35.289530507349284,34.018934442323832,32.578846998036276,31.047492500214048,29.516138002394452,27.984783504577486,26.453429006763123,24.922074508951439,23.390720011142346,21.859365513335934,20.328011015532084,18.796656517730941,17.115239976723611,15.369508598609693,13.623777220498392,11.878045842389856,10.132314464283956,8.386583086180794,6.640851708080306,4.8951203299824693,3.1493889518873672,1.4036575737949435,-0.47294845172882244,-2.3931810091206196,-4.3134135665096913,-6.2336461238960235,-8.15387868127959,-10.074111238660473,-11.994343796038534,-13.914576353413896,-15.834808910786556,-17.755041468156424,-19.788653677434795,-21.850612139287584,-23.912570601137514,-25.974529062984537,-28.036487524828722,-30.098445986669944,-32.160404448508288,-34.222362910343769,-36.284321372176343,-38.346279834006111,-40.50737462168108,-42.685965157502352,-44.864555693320739,-47.04314622913644,-49.221736764949164,-51.400327300759152,-53.578917836566291,-55.757508372370623,-57.9360989081721,-60.114689443970796,-62.3820163056126,-64.6592036909536,-66.936391076291486,-69.213578461626383,-71.490765846958212,-73.7679532322869,-76.045140617612674,-78.322328002935137,-80.599515388254744,-82.876702773571211,-85.23761999884718,-87.60294489088156,-89.968269782913,-92.333594674941082,-94.698919566966225,-97.064244458988227,-99.429569351007132,-101.79489424302285,-104.16021913503546,-106.52554402704513,0.46369353245615746,0.46369353245615746,0.46369353245615746,0.46369353245615746,0.46369353245615746,0.46369353245615746,0.46369353245615746,0.46369353245615746,0.46369353245615746,0.46369353245615746,0.46369353245615746,0.46369353245615746
DP 369,138.68075998533226,0.0043642868746864346,-127.03362658035464,-123.88461299879822,-120.73559941723843,-117.58658583567539,-114.43757225410896,-111.28855867253924,-108.13954509096607,-104.99053150938961,-101.84151792780975,-98.692504346226642,-95.547883785882718,-92.486731459620813,-89.42557913335574,-86.364426807087142,-83.303274480815332,-80.242122154540212,-77.180969828261723,-74.119817501979909,-71.05866517569477,-67.997512849406263,-64.95432546718169,-62.072824279636954,-59.191323092089007,-56.309821904537849,-53.428320716983393,-50.546819529425754,-47.66531834186484,-44.783817154300657,-41.902315966733255,-39.020814779162606,-36.178240156005479,-33.556251850811563,-30.934263545614314,-28.312275240413772,-25.690286935209944,-23.068298630002776,-20.4463103247923,-17.824322019578521,-15.202333714361453,-12.580345409141049,-10.024029903983987,-7.7304087028397248,-5.4367875016922067,-3.1431663005414228,-0.84954509938739176,1.4440761017699235,3.737697302930489,6.0313185040943305,8.32493970526142,10.618560906431771,12.816253495827949,14.726156622966968,16.636059750109265,18.545962877254826,20.4558660044037,22.36576913155584,24.275672258711282,26.185575385870013,28.095478513031974,30.005381640197246,31.787942792433071,33.273367654602488,34.758792516775252,36.244217378951319,37.729642241130648,39.215067103313309,40.700491965499268,42.185916827688523,43.671341689881039,45.156766552076967,46.484558966639874,47.519601149980573,48.554643333324613,49.589685516671963,50.624727700022675,51.659769883376711,52.694812066734059,53.729854250094704,54.764896433458794,55.799938616826104,56.650115624436189,57.2229904999762,57.795865375519547,58.368740251066271,58.941615126616377,59.514490002169829,60.087364877726671,60.660239753286916,61.233114628850437,61.805989504417411,62.171266055931063,62.282806961934362,62.394347867941121,62.505888773951291,62.617429679964957,62.728970585981969,62.840511492002427,62.952052398026261,63.063593304053562,63.175134210084273,62.384928287358456,62.046536886510538,61.70814548566603,61.369754084825111,61.031362683987595,60.692971283153575,60.35457988232298,60.016188481495888,59.4410985404497,58.672342089572311,57.903585638698509,57.13482918782816,56.36607273696147,55.597316286098277,54.828559835238607,54.059803384382569,53.29104693353,52.522290482680987,51.510445029636635,50.336536412276466,49.162627794919921,47.988719177566914,46.814810560217644,45.640901942871906,44.466993325529849,43.293084708191337,42.119176090856506,40.945267473525263,39.526456828663036,37.97577229997998,36.425087771300667,34.87440324262505,33.323718713953106,31.773034185284878,30.222349656620342,28.671665127959582,27.120980599302449,25.570296070649047,23.7763460763705,21.878135347925163,19.979924619483516,18.081713891045794,16.183503162611792,14.28529243418166,12.387081705755323,10.48887097733274,8.5906602489140163,6.6924495204990784,4.5546246433340043,2.3369253634351108,0.11922608354009105,-2.0984731963510517,-4.3161724762382709,-6.53387175612168,-8.7515710360011063,-10.969270315876672,-13.18696959574844,-15.40466887561622,-17.85770034879171,-20.369567650780088,-22.881434952764408,-25.393302254744615,-27.905169556720697,-30.417036858692637,-32.928904160660487,-35.4407714626242,-37.952638764583824,-40.464506066539407,-43.2088033398783,-45.994120251644482,-48.779437163406584,-51.564754075164792,-54.350070986918865,-57.135387898669023,-59.920704810415081,-62.706021722157161,-65.491338633895182,-68.276655545629282,-71.293704101662726,-74.336503051900948,-77.379302002134921,-80.422100952364346,-83.464899902589636,-86.5076988528104,-89.550497803026786,-92.59329675323869,-95.636095703446344,-98.67889465364965,-101.95731875107474,-105.24814651641222,-108.5389742817453,-111.82980204707394,-115.12062981239801,-118.41145757771775,-121.70228534303293,-124.99311310834348,-128.28394087364961,-131.57476863895127,0.66126017921035385,0.66126017921035385,0.66126017921035385,0.66126017921035385,0.66126017921035385,0.66126017921035385,0.66126017921035385,0.66126017921035385,0.66126017921035385,0.66126017921035385,0.66126017921035385,0.66126017921035385
DP 370,202.47788134259628,0.0011725675033382003,-45.835939774600881,-44.622236356111237,-43.40853293762067,-42.194829519129165,-40.981126100636715,-39.767422682143376,-38.553719263649057,-37.340015845153751,-36.126312426657591,-34.912609008160423,-33.700975040698573,-32.52866103414253,-31.35634702758556,-30.184033021027634,-29.011719014468795,-27.839405007909,-26.6670910013483,-25.494776994786672,-24.322462988224121,-23.150148981660617,-21.986197610721398,-20.897510750859158,-19.808823890995992,-18.720137031131941,-17.631450171266973,-16.542763311401103,-15.45407645153435,-14.365389591666672,-13.276702731798084,-12.188015871928611,-11.117122936342811,-10.14706335964399,-9.17700378294424,-8.2069442062435716,-7.2368846295419926,-6.26682505283949,-5.2967654761360636,-4.3267058994317145,-3.3566463227264616,-2.386586746020285,-1.4457984551656817,-0.62209669110474664,0.20160507295708652,1.0253068370198266,1.8490086010834617,2.6727103651480055,3.4964121292134522,4.3201138932798022,5.14381565734705,5.9675174214151978,6.7498010163625288,7.4078285379819153,8.0658560596022024,8.723883581223399,9.3819111028455033,10.039938624468515,10.697966146092421,11.355993667717243,12.014021189342966,12.672048710969596,13.27716293226938,13.758810702203856,14.240458472139251,14.722106242075538,15.203754012012732,15.685401781950853,16.167049551889878,16.648697321829797,17.130345091770625,17.61199286171237,18.030997590459219,18.333663550953734,18.63632951144918,18.93899547194551,19.241661432442772,19.544327392940936,19.846993353440006,20.149659313939988,20.4523252744409,20.754991234942729,20.987821117640184,21.115895233378268,21.243969349117318,21.372043464857274,21.500117580598118,21.628191696339929,21.756265812082614,21.884339927826261,22.012414043570814,22.140488159316256,22.194454008911453,22.157841532139976,22.121229055369447,22.084616578599849,22.048004101831168,22.011391625063386,21.974779148296573,21.938166671530702,21.90155419476574,21.864941718001713,21.377877494944286,21.190374015829594,21.002870536715847,20.815367057603034,20.62786357849118,20.440360099380271,20.252856620270297,20.065353141161253,19.80371420521984,19.481417712344687,19.159121219470503,18.836824726597268,18.514528233724995,18.192231740853686,17.869935247983321,17.547638755113937,17.225342262245498,16.903045769378028,16.510064044495635,16.069957718058724,15.6298513916228,15.189745065187827,14.749638738753852,14.309532412320838,13.869426085888829,13.429319759457774,12.989213433027709,12.5491071065986,12.043280305996495,11.502064602072045,10.960848898148598,10.419633194226144,9.8784174903046971,9.3372017863842416,8.79598608246478,8.2547703785463344,7.713554674628881,7.1723389707124268,6.5712168110448994,5.9444194449031835,5.3176220787624695,4.6908247126228124,4.0640273464841528,3.43722998034653,2.8104326142099296,2.1836352480743355,1.556837881939779,0.93004051580624048,0.24934053236293816,-0.44932766950919417,-1.1479958713802874,-1.8466640732503414,-2.5453322751193421,-3.2440004769873245,-3.942668678854234,-4.6413368807201119,-5.3400050825849679,-6.0386732844487527,-6.7856053623648211,-7.5446039795388442,-8.3036025967117943,-9.0626012138836245,-9.8215998310543871,-10.580598448224025,-11.339597065392566,-12.098595682560017,-12.85759429972636,-13.616592916891621,-14.419215878841804,-15.229537739686112,-16.039859600529315,-16.8501814613715,-17.660503322212573,-18.47082518305259,-19.28114704389149,-20.091468904729371,-20.901790765566147,-21.712112626401865,-22.562700381414668,-23.417762547555569,-24.272824713695353,-25.1278868798339,-25.9829490459713,-26.838011212107531,-27.693073378242634,-28.548135544376503,-29.403197710509282,-30.258259876640857,-31.152163366304208,-32.048111522608352,-32.944059678911351,-33.840007835213086,-34.73595599151372,-35.631904147813145,-36.52785230411137,-37.42380046040838,-38.319748616704238,-39.215696772998854,0.17656030787913943,0.17656030787913943,0.17656030787913943,0.17656030787913943,0.17656030787913943,0.17656030787913943,0.17656030787913943,0.17656030787913943,0.17656030787913943,0.17656030787913943,0.17656030787913943,0.17656030787913943
DP 371,162.15484433219015,0.0012014619882273259,-39.577195632346736,-38.569087258976161,-37.56097888560457,-36.552870512232083,-35.544762138858658,-34.536653765484239,-33.52854539210891,-32.520437018732615,-31.512328645355407,-30.504220271977243,-29.497635895422746,-28.520007746639447,-27.542379597855209,-26.564751449070005,-25.587123300283871,-24.609495151496784,-23.63186700270877,-22.654238853919829,-21.676610705129917,-20.698982556339082,-19.727558269207567,-18.811969323417255,-17.896380377626052,-16.980791431833925,-16.065202486040892,-15.14961354024693,-14.234024594452071,-13.318435648656283,-12.402846702859607,-11.487257757062006,-10.585020059165945,-9.7584402740385272,-8.9318604889101785,-8.1052807037808936,-7.278700918650685,-6.4521211335195305,-5.6255413483874479,-4.7989615632544371,-3.9723817781204955,-3.1458019929856262,-2.3415336355043879,-1.6265120430965787,-0.91149045068785872,-0.19646885827821697,0.51855273413233538,1.2335743265438106,1.9485959189561999,2.6636175113695071,3.3786391037837289,4.0936606961988673,4.7764805156705332,5.3626937988054744,5.948907081941325,6.5351203650781065,7.1213336482158143,7.7075469313544342,8.2937602144939753,8.8799734976344347,9.4661867807758142,10.052400063918121,10.596482305204715,11.042257122873719,11.488031940543641,11.933806758214486,12.37958157588627,12.825356393558971,13.271131211232593,13.716906028907157,14.162680846582635,14.608455664259029,15.002955320489452,15.302228292146667,15.601501263804801,15.900774235463883,16.200047207123895,16.499320178784838,16.798593150446692,17.0978661221095,17.397139093773241,17.696412065437897,17.936703908102974,18.088522663522312,18.240341418942606,18.392160174363809,18.543978929785965,18.695797685209069,18.847616440633107,18.999435196058084,19.151253951483994,19.303072706910861,19.390082115006521,19.397878737280475,19.405675359555381,19.413471981831236,19.42126860410804,19.429065226385806,19.436861848664506,19.444658470944191,19.452455093224813,19.460251715506377,19.140845853662331,19.011523925259496,18.882201996857635,18.752880068456747,18.623558140056829,18.494236211657867,18.364914283259871,18.23559235486286,18.036020862959653,17.778971248171519,17.521921633384363,17.264872018598197,17.007822403812987,16.7507727890288,16.49372317424557,16.23667355946337,15.979623944682094,15.722574329901844,15.39542924794938,15.021552750295099,14.647676252641826,14.273799754989556,13.899923257338301,13.526046759688031,13.152170262038798,12.778293764390545,12.404417266743298,12.030540769097055,11.588208360346297,11.10901408091661,10.62981980148799,10.15062552206038,9.6714312426338047,9.1922369632082539,8.71304268378373,8.2338484043602556,7.7546541249377761,7.2754598455163544,6.7304799216468378,6.1573050397705735,5.5841301578953324,5.0109552760211749,4.4377803941480511,3.8646055122759986,3.2914306304049936,2.7182557485350327,2.1450808666661394,1.5719059847982979,0.93612419039475736,0.27947263612156076,-0.37717891815056459,-1.033830472421617,-1.6904820266915812,-2.3471335809604965,-3.0037851352283,-3.6604366894950431,-4.3170882437607281,-4.9737397980253171,-5.6897974522545365,-6.4207073333670222,-7.1516172144783923,-7.8825270955886166,-8.6134369766977148,-9.34434685780566,-10.075256738912469,-10.806166620018145,-11.537076501122684,-12.267986382226113,-13.05571093375206,-13.853462235374847,-14.651213536996485,-15.448964838617053,-16.246716140236494,-17.044467441854835,-17.842218743472039,-18.639970045088152,-19.437721346703139,-20.235472648317046,-21.088350958140708,-21.947355070061846,-22.806359181981804,-23.6653632939005,-24.524367405818044,-25.383371517734357,-26.242375629649494,-27.101379741563349,-27.960383853476067,-28.819387965387524,-29.733439849500087,-30.650389532483903,-31.567339215466486,-32.484288898447815,-33.40123858142794,-34.318188264406828,-35.235137947384487,-36.152087630360839,-37.069037313336,-37.985986996309919,0.18274419466368447,0.18274419466368447,0.18274419466368447,0.18274419466368447,0.18274419466368447,0.18274419466368447,0.18274419466368447,0.18274419466368447,0.18274419466368447,0.18274419466368447,0.18274419466368447,0.18274419466368447
DP 372,168.34148981688526,0.0032954377975104527,-111.78991860607259,-108.92384740884143,-106.05777621160742,-103.19170501437098,-100.32563381713196,-97.459562619890221,-94.593491422646082,-91.727420225399186,-88.861349028149775,-85.99527783089772,-83.133625729975719,-80.355937294777064,-77.578248859575837,-74.800560424371909,-72.022871989165523,-69.245183553956537,-66.467495118744964,-63.689806683530811,-60.912118248314037,-58.1344298130947,-55.374709714430814,-52.7767063431856,-50.178702971937817,-47.580699600687517,-44.9826962294348,-42.384692858179491,-39.786689486921674,-37.188686115661348,-34.5906827443985,-31.992679373133143,-29.4332768247418,-27.0926147050597,-24.751952585375069,-22.411290465687845,-20.070628345998102,-17.72996622630578,-15.389304106610867,-13.048641986913415,-10.707979867213393,-8.3673177475108247,-6.09100606370165,-4.0720991647273586,-2.0531922657505532,-0.034285366771218913,1.9846215322106207,4.0035284311950035,6.0224353301818985,8.0413422291713186,10.06024912816326,12.079156027157707,14.005476260388587,15.65403299574994,17.302589731113805,18.951146466480232,20.59970320184917,22.248259937220656,23.896816672594674,25.54537340797123,27.193930143350268,28.842486878731918,30.370357001105624,31.616620273342964,32.862883545582854,34.109146817825277,35.355410090070279,36.601673362317825,37.847936634567859,39.094199906820492,40.34046317907562,41.586726451333348,42.686746027715216,43.515166219419257,44.343586411125855,45.172006602835047,46.00042679454674,46.828846986261063,47.657267177977886,48.48568736969731,49.31410756141927,50.142527753143767,50.803554072461033,51.213485627586941,51.623417182715443,52.033348737846509,52.4432802929801,52.853211848116338,53.263143403255185,53.67307495839659,54.083006513540532,54.492938068687195,54.719946730914565,54.723379126208911,54.726811521505823,54.730243916805328,54.733676312107519,54.737108707412325,54.740541102719689,54.743973498029717,54.7474058933423,54.750838288657569,53.79949592468639,53.418271772880061,53.037047621076432,52.655823469275468,52.274599317477112,51.893375165681462,51.512151013888491,51.130926862098136,50.553946349238196,49.816798176744641,49.079650004253715,48.34250183176561,47.6053536592801,46.868205486797329,46.1310573143173,45.393909141839977,44.656760969365322,43.919612796893375,42.988555191194649,41.928221575246027,40.867887959300241,39.8075543433571,38.747220727416774,37.686887111479194,36.626553495544385,35.566219879612312,34.505886263683045,33.445552647756514,32.197331374307858,30.847937091516513,29.498542808728043,28.149148525942397,26.799754243159558,25.450359960379565,24.100965677602364,22.751571394828058,21.402177112056531,20.052782829287874,18.524348996836164,16.919180906823915,15.314012816814509,13.708844726808078,12.103676636804474,10.4985085468038,8.8933404568060119,7.2881723668110778,5.6830042768190792,4.0778361868299644,2.3037861328234541,0.47343996242009095,-1.3569062079803322,-3.18725237837781,-5.017598548772308,-6.8479447191639169,-8.6782908895524891,-10.508637059938152,-12.338983230320913,-14.169329400700651,-16.158478684650142,-18.187330623274974,-20.216182561896719,-22.245034500515352,-24.27388643913087,-26.302738377743225,-28.331590316352521,-30.360442254958695,-32.389294193561696,-34.418146132161681,-36.597568177704566,-38.80356309295054,-41.009558008193409,-43.2155529234334,-45.421547838670179,-47.627542753904024,-49.833537669134763,-52.039532584362433,-54.245527499587126,-56.451522414808757,-58.802530729082683,-61.169653166232422,-63.536775603378928,-65.903898040522009,-68.271020477661892,-70.638142914798337,-73.005265351931556,-75.372387789061392,-77.739510226188,-80.10663266331126,-82.617830400525676,-85.136612481761276,-87.6553945629936,-90.17417664422247,-92.692958725448023,-95.211740806670178,-97.730522887889052,-100.2493049691044,-102.76808705031654,-105.28686913152509,0.50100445209084354,0.50100445209084354,0.50100445209084354,0.50100445209084354,0.50100445209084354,0.50100445209084354,0.50100445209084354,0.50100445209084354,0.50100445209084354,0.50100445209084354,0.50100445209084354,0.50100445209084354
DP 373,72.6188241616018,0.0027278919281135175,-48.979634864348725,-47.898926742013295,-46.818218619676273,-45.737510497337759,-44.656802374997646,-43.576094252655992,-42.49538613031271,-41.414678007967964,-40.333969885621627,-39.25326176327372,-38.1736821333019,-37.115544071838464,-36.057406010373512,-34.99926794890694,-33.941129887438834,-32.88299182596915,-31.824853764497895,-30.766715703025074,-29.708577641550669,-28.650439580074693,-27.596987251829471,-26.585706965577195,-25.574426679323366,-24.563146393067996,-23.551866106811058,-22.540585820552558,-21.529305534292487,-20.51802524803086,-19.506744961767662,-18.495464675502927,-17.494560720878166,-16.552456632746761,-15.610352544613741,-14.668248456479125,-13.72614436834292,-12.784040280205115,-11.8419361920657,-10.899832103924695,-9.9577280157820987,-9.0156239276378916,-8.0915639922657974,-7.2396815207681469,-6.3877990492688976,-5.535916577768039,-4.6840341062655915,-3.8321516347615314,-2.9802691632558731,-2.1283866917486112,-1.276504220239751,-0.42462174872928893,0.39987796743955684,1.1422283822762631,1.8845787971145971,2.626929211954562,3.3692796267961564,4.1116300416393825,4.8539804564842326,5.5963308713307152,6.3386812861788178,7.0810317010285591,7.7853060944902532,8.400734938463911,9.0161637824392145,9.631592626416186,10.247021470394813,10.862450314375103,11.477879158357048,12.093308002340645,12.708736846325911,13.324165690312828,13.889833863132257,14.363088017081287,14.836342171032017,15.309596324984442,15.782850478938535,16.256104632894338,16.729358786851858,17.202612940811029,17.675867094771906,18.14912124873447,18.560286232479569,18.878315993707538,19.196345754937234,19.51437551616867,19.832405277401833,20.150435038636736,20.46846479987336,20.786494561111745,21.104524322351796,21.422554083593614,21.665855924224626,21.817822070021386,21.969788215819928,22.12175436162023,22.273720507422308,22.425686653226176,22.577652799031803,22.72961894483921,22.881585090648397,23.033551236459324,23.052477024087494,23.029653779555659,23.006830535025678,22.984007290497505,22.961184045971148,22.938360801446631,22.915537556923947,22.892714312403065,22.770038272355475,22.565662774471686,22.361287276589813,22.156911778709819,21.952536280831676,21.748160782955424,21.543785285081061,21.339409787208567,21.135034289337955,20.930658791469217,20.614341137471637,20.223393615900029,19.832446094330326,19.441498572762555,19.050551051196727,18.659603529632825,18.268656008070877,17.877708486510866,17.486760964952779,17.095813443396633,16.581305417358713,16.000263015198527,15.419220613040334,14.838178210884136,14.257135808729933,13.676093406577719,13.095051004427495,12.514008602279283,11.932966200133052,11.351923797988828,10.636203984659529,9.86276300762256,9.0893220305876277,8.31588105355481,7.542440076524036,6.7689990994953613,5.99555812246875,5.2221171454441926,4.4486761684217342,3.6752351914013373,2.7564492213200156,1.7892130884595547,0.82197695560121609,-0.14525917725499496,-1.1124953101090598,-2.079731442961029,-3.0469675758108283,-4.01420370865851,-4.9814398415040939,-5.9486759743475073,-7.0714509655757523,-8.2331125091160278,-9.39477405265406,-10.556435596189806,-11.718097139723284,-12.879758683254453,-14.041420226783362,-15.203081770310007,-16.364743313834364,-17.526404857356468,-18.853688726479064,-20.210201906569193,-21.566715086657048,-22.92322826674274,-24.279741446826158,-25.636254626907377,-26.992767806986372,-28.349280987063146,-29.705794167137672,-31.06230734721,-32.594066595359678,-34.145299469347783,-35.696532343333423,-37.247765217316612,-38.79899809129742,-40.350230965275649,-41.901463839251441,-43.452696713224789,-45.003929587195749,-46.555162461164144,-48.291481210441518,-50.037543163107472,-51.783605115770946,-53.52966706843182,-55.275729021090221,-57.02179097374615,-58.767852926399613,-60.513914879050333,-62.259976831698729,-64.006038784344412,0.36243967566379737,0.36243967566379737,0.36243967566379737,0.36243967566379737,0.36243967566379737,0.36243967566379737,0.36243967566379737,0.36243967566379737,0.36243967566379737,0.36243967566379737,0.36243967566379737,0.36243967566379737
DP 374,96.510150832492471,0.0021818541533800621,-47.935985927193947,-46.821874609611086,-45.707763292026691,-44.593651974440789,-43.479540656853395,-42.365429339264551,-41.251318021674187,-40.137206704082367,-39.023095386489032,-37.908984068894213,-36.796178901356342,-35.7081908318477,-34.620202762337563,-33.532214692825924,-32.444226623312865,-31.356238553798271,-30.268250484282245,-29.180262414764691,-28.092274345245674,-27.004286275725132,-25.921691062987385,-24.887632071048031,-23.85357307910725,-22.819514087165018,-21.785455095221309,-20.751396103276175,-19.717337111329549,-18.6832781193815,-17.649219127431977,-16.615160135481005,-15.59294204003921,-14.637823104304303,-13.682704168567913,-12.727585232830014,-11.772466297090654,-10.817347361349787,-9.86222842560744,-8.9071094898636058,-7.9519905541182885,-6.9968716183714825,-6.0621046791300719,-5.2087466877665012,-4.3553886964014641,-3.5020307050349433,-2.6486727136669552,-1.7953147222974835,-0.94195673092653953,-0.0885987395541159,0.76475925181977833,1.6181172431951487,2.4410408537227566,3.1726601710223012,3.9042794883233349,4.635898805625863,5.3675181229298818,6.0991374402353937,6.8307567575424013,7.5623760748509,8.2939953921608733,9.025614709472368,9.7156641807090427,10.308715707253777,10.901767233800031,11.494818760347796,12.08787028689707,12.680921813447839,13.273973340000124,13.867024866553914,14.460076393109231,15.053127919666052,15.592967314169742,16.03398274066215,16.47499816715608,16.916013593651538,17.357029020148531,17.798044446647047,18.239059873147095,18.680075299648681,19.121090726151788,19.562106152656398,19.938274211544798,20.217169686640741,20.496065161738251,20.77496063683731,21.053856111937943,21.332751587040111,21.611647062143835,21.890542537249139,22.169438012355965,22.448333487464346,22.651192200416265,22.761115495819553,22.871038791224425,22.980962086630871,23.0908853820389,23.200808677448514,23.310731972859713,23.420655268272508,23.530578563686877,23.640501859102837,23.538091347331076,23.47514215674169,23.412192966153928,23.349243775567778,23.286294584983278,23.223345394400372,23.160396203819083,23.0974470132394,22.938675704861907,22.701502835150986,22.464329965441724,22.227157095734132,21.989984226028174,21.752811356323875,21.515638486621235,21.278465616920275,21.041292747220943,20.804119877523284,20.462850079606984,20.052180689646988,19.641511299688702,19.230841909732096,18.820172519777209,18.409503129824031,17.998833739872538,17.588164349922742,17.17749495997467,16.766825570028264,16.244865115687457,15.662977085228976,15.081089054772253,14.499201024317257,13.917312993864003,13.335424963412523,12.753536932962772,12.171648902514793,11.589760872068529,11.007872841624033,10.308443916215479,9.558638337581371,8.8088327589490341,8.0590271803185356,7.30922160168981,6.5594160230629086,5.8096104444378032,5.0598048658144821,4.3099992871929906,3.56019370857329,2.6872836175830122,1.7733371376701628,0.85939065775915424,-0.054555822150013478,-0.96850230205731913,-1.8824487819628113,-2.7963952618664161,-3.7103417417681914,-4.6242882216681451,-5.5382347015662239,-6.580391191504714,-7.6546016987744627,-8.7288122060422744,-9.8030227133081222,-10.877233220572002,-11.9514437278339,-13.025654235093853,-14.099864742351821,-15.174075249607844,-16.248285756861907,-17.455913017249337,-18.687085894155906,-19.918258771060522,-21.149431647963265,-22.380604524864051,-23.611777401762943,-24.842950278659906,-26.074123155554947,-27.305296032448094,-28.536468909339305,-29.906350623027091,-31.291645886461634,-32.676941149894077,-34.062236413324413,-35.447531676752689,-36.8328269401788,-38.21812220360286,-39.603417467024713,-40.988712730444604,-42.374007993862307,-43.904200244122045,-45.442020093250669,-46.979839942377211,-48.517659791501572,-50.055479640623766,-51.593299489743906,-53.131119338861843,-54.66893918797755,-56.206759037091224,-57.74457888620266,0.31479430046890683,0.31479430046890683,0.31479430046890683,0.31479430046890683,0.31479430046890683,0.31479430046890683,0.31479430046890683,0.31479430046890683,0.31479430046890683,0.31479430046890683,0.31479430046890683,0.31479430046890683
DP 375,175.91326156778123,0.0028808700607614894,-101.13598624104181,-98.523159513100708,-95.910332785157308,-93.2975060572116,-90.684679329263489,-88.071852601313253,-85.459025873360687,-82.846199145405819,-80.233372417448635,-77.620545689489248,-75.011843129906381,-72.4815005491732,-69.9511579684376,-67.42081538769979,-64.89047280695965,-62.360130226217372,-59.829787645472678,-57.299445064725816,-54.769102483976624,-52.238759903225187,-49.72516323987675,-47.362281416027095,-44.999399592175209,-42.636517768321106,-40.273635944464836,-37.910754120606313,-35.547872296745624,-33.184990472882731,-30.8221086490176,-28.459226825150314,-26.13224355613945,-24.00868769345519,-21.885131830768646,-19.761575968079875,-17.638020105388858,-15.514464242695579,-13.390908380000058,-11.267352517302268,-9.1437966546022516,-7.0202407918999938,-4.9563502697858013,-3.1311239298628255,-1.30589758993765,0.51932874998974521,2.3445550899193348,4.1697814298511515,5.9950077697851745,7.82023410972141,9.6454604496598488,11.470686789600505,13.210385986286056,14.693500519538889,16.176615052793966,17.659729586051249,19.142844119310755,20.625958652572496,22.109073185836447,23.592187719102597,25.075302252370996,26.558416785641576,27.930552003280894,29.043731113641098,30.156910224003564,31.270089334368219,32.383268444735144,33.496447555104247,34.609626665475638,35.722805775849189,36.83598488622502,37.949163996603055,38.928565131488419,39.659517841915921,40.390470552345704,41.121423262777675,41.852375973211913,42.5833286836484,43.314281394087118,44.045234104528106,44.776186814971254,45.507139525416726,46.085878959122766,46.436294880862583,46.7867108026046,47.137126724348924,47.4875426460955,47.837958567844332,48.188374489595432,48.538790411348842,48.889206333104418,49.239622254862326,49.424808072074832,49.408042513110765,49.391276954148935,49.374511395189451,49.357745836232269,49.340980277277339,49.324214718324669,49.307449159374357,49.290683600426284,49.273918041480528,48.361353828917743,47.999680603668168,47.638007378420944,47.276334153176045,46.914660927933454,46.552987702693223,46.191314477455279,45.829641252219666,45.293846284077304,44.615585079331844,43.937323874588685,43.259062669847943,42.580801465109516,41.902540260373485,41.224279055639826,40.54601785090852,39.867756646179565,39.189495441453026,38.340258775447673,37.3770357751163,36.413812774787409,35.450589774460859,34.487366774136767,33.524143773815048,32.560920773495795,31.597697773178893,30.634474772864461,29.671251772552388,28.543924280883733,27.328230445964135,26.112536611047108,24.896842776132473,23.681148941220293,22.465455106310618,21.249761271403372,20.034067436498628,18.818373601596303,17.602679766696479,16.232190938276915,14.795358785586879,13.358526632899322,11.921694480214374,10.484862327531893,9.0480301748519754,7.6111980221745874,6.1743658694996846,4.7375337168273495,3.3007015641575292,1.7194173733626053,0.089980682687881439,-1.5394560079842736,-3.1688926986538566,-4.7983293893208332,-6.4277660799852887,-8.0572027706470966,-9.6866394613063473,-11.316076151963077,-12.945512842617168,-14.709291688263317,-16.506657659930351,-18.304023631594717,-20.101389603256347,-21.89875557491527,-23.696121546571444,-25.493487518224914,-27.290853489875662,-29.088219461523686,-30.885585433169013,-32.80898452026441,-34.75462614688584,-36.700267773504585,-38.645909400120765,-40.591551026734223,-42.537192653345031,-44.482834279953153,-46.428475906558646,-48.374117533161453,-50.319759159761617,-52.385666044678594,-54.464936999142587,-56.54420795360371,-58.623478908061941,-60.702749862517237,-62.782020816969691,-64.861291771419275,-66.94056272586586,-69.019833680309659,-71.099104634750532,-73.297109881205543,-75.501365482281628,-77.705621083354856,-79.909876684425086,-82.114132285492417,-84.318387886556849,-86.522643487618282,-88.726899088676731,-90.931154689732224,-93.135410290784648,0.43744781176631381,0.43744781176631381,0.43744781176631381,0.43744781176631381,0.43744781176631381,0.43744781176631381,0.43744781176631381,0.43744781176631381,0.43744781176631381,0.43744781176631381,0.43744781176631381,0.43744781176631381
DP 376,175.18010065879793,0.0022572773612492859,-78.987457873392444,-76.948317845227933,-74.909177817061519,-72.870037788893356,-70.830897760723431,-68.791757732551631,-66.752617704378167,-64.713477676202885,-62.674337648025769,-60.63519761984697,-58.599268806302746,-56.624353677912687,-54.649438549520887,-52.67452342112734,-50.699608292731959,-48.724693164334788,-46.749778035935904,-44.774862907535194,-42.799947779132722,-40.825032650728424,-38.863159596972046,-37.0186664478202,-35.174173298666595,-33.329680149511312,-31.485187000354291,-29.640693851195518,-27.796200702035023,-25.951707552872818,-24.107214403708877,-22.262721254543205,-20.446190876807023,-18.788117965906167,-17.130045055003546,-15.471972144099166,-13.813899233193032,-12.155826322285124,-10.497753411375454,-8.8396805004640271,-7.1816075895508353,-5.5235346786358965,-3.9119524423077063,-2.486335101518665,-1.060717760727897,0.36489958006461076,1.7905169208588378,3.2161342616548114,4.6417516024525041,6.0673689432519406,7.4929862840531021,8.91860362485599,10.277556493907943,11.436513427212194,12.595470360518183,13.754427293825902,14.913384227135367,16.07234116044657,17.231298093759502,18.3902550270742,19.549211960390597,20.708168893708763,21.780583747820724,22.651063675414338,23.521543603009718,24.392023530606838,25.26250345820571,26.13298338580633,27.00346331340868,27.873943241012775,28.744423168618624,29.614903096226232,30.381009880742297,30.953278009371189,31.525546138001772,32.097814266634188,32.670082395268295,33.242350523904214,33.814618652541888,34.386886781181325,34.959154909822459,35.531423038465412,35.984866819111531,36.2600712698983,36.535275720686883,36.810480171477181,37.085684622269291,37.360889073063149,37.63609352385879,37.911297974656236,38.186502425455394,38.461706876256343,38.60784277940968,38.596225524382376,38.584608269356835,38.572991014333091,38.561373759311152,38.549756504291025,38.538139249272646,38.526521994256065,38.514904739241288,38.503287484228331,37.794404672653535,37.513174489349808,37.231944306047936,36.950714122747904,36.669483939449648,36.388253756153233,36.107023572858637,35.825793389565831,35.408347780331013,34.879450845275024,34.350553910220846,33.821656975168565,33.292760040118061,32.7638631050695,32.234966170022737,31.70606923497785,31.177172299934792,30.648275364893617,29.985511775074023,29.233501639858172,28.481491504644172,27.729481369432072,26.977471234221849,26.2254610990135,25.473450963807068,24.721440828602514,23.969430693399868,23.217420558199073,22.336806751195908,21.386942943099726,20.43707913500549,19.487215326913187,18.537351518822813,17.58748771073439,16.637623902647885,15.687760094563345,14.737896286480707,13.788032478400018,12.716742205609913,11.593409969833527,10.470077734059069,9.3467454982866478,8.22341326251618,7.1000810267477039,5.9767487909812171,4.8534165552166764,3.730084319454146,2.6067520836935905,1.3699893592409618,0.0954150423455842,-1.1791592745477801,-2.4537335914391294,-3.7283079083284387,-5.0028822252157692,-6.2774565421010289,-7.5520308589842795,-8.8266051758655557,-10.101179492744764,-11.481357668637648,-12.887938057009539,-14.294518445379326,-15.701098833746975,-17.10767922211248,-18.514259610475843,-19.920839998837085,-21.327420387196192,-22.734000775553159,-24.140581163908063,-25.646335959504626,-27.169593223918021,-28.692850488329253,-30.216107752738495,-31.739365017145605,-33.262622281550655,-34.785879545953549,-36.30913681035441,-37.832394074753196,-39.3556513391499,-40.973629403570222,-42.602132996117206,-44.23063658866193,-45.8591401812043,-47.487643773744558,-49.116147366282426,-50.744650958818056,-52.373154551351384,-54.001658143882516,-55.630161736411388,-57.352238406291782,-59.079240905993686,-60.80624340569333,-62.533245905390743,-64.260248405085747,-65.98725090477852,-67.714253404468977,-69.441255904157146,-71.168258403842984,-72.895260903526491,0.34280759109001685,0.34280759109001685,0.34280759109001685,0.34280759109001685,0.34280759109001685,0.34280759109001685,0.34280759109001685,0.34280759109001685,0.34280759109001685,0.34280759109001685,0.34280759109001685,0.34280759109001685
DP 377,177.70913400000731,0.0039271981670872709,-138.95889267198714,-135.36256601720359,-131.76623936241683,-128.16991270762708,-124.57358605283422,-120.97725939803823,-117.38093274323913,-113.78460608843689,-110.18827943363154,-106.59195277882306,-103.00133367010052,-99.519159016045833,-96.036984361988218,-92.554809707927461,-89.072635053863664,-85.590460399796711,-82.108285745726633,-78.626111091653584,-75.143936437577281,-71.66176178349798,-68.202755624764677,-64.95226811409735,-61.701780603427054,-58.451293092753723,-55.200805582077386,-51.950318071398058,-48.699830560715718,-45.449343050030308,-42.198855539341956,-38.948368028650549,-35.747519921551508,-32.827964896158576,-29.908409870762558,-26.988854845363459,-24.069299819961333,-21.149744794556117,-18.230189769147831,-15.3106347437365,-12.391079718322091,-9.4715246929046053,-6.6344167857007426,-4.1271012478779028,-1.6197857100520607,0.88752982777680689,3.3948453656086692,5.9021609034435691,8.4094764412814662,10.916791979122406,13.424107516966334,15.931423054813271,18.320661170599834,20.355662555855243,22.390663941113683,24.425665326375132,26.460666711639632,28.49566809690716,30.530669482177732,32.565670867451281,34.600672252727861,36.6356736380075,38.517620066660264,40.042432235271889,41.567244403886562,43.092056572504262,44.616868741124996,46.141680909748814,47.66649307837563,49.191305247005495,50.716117415638386,52.240929584274312,53.581473687708254,54.579800693681115,55.57812769965701,56.576454705635953,57.574781711617959,58.573108717603034,59.571435723591136,60.569762729582315,61.568089735576557,62.566416741573853,63.3553770736145,63.830282447306843,64.305187821002335,64.78009319470074,65.254998568402314,65.729903942106972,66.204809315814686,66.6797146895255,67.154620063239392,67.6295254369564,67.877513851985427,67.848154551167326,67.818795250352338,67.78943594954049,67.760076648731783,67.730717347926145,67.701358047123634,67.671998746324292,67.64263944552799,67.613280144734929,66.343066400912761,65.840851869656746,65.338637338403913,64.836422807154293,64.334208275907855,63.831993744664544,63.329779213424423,62.827564682187436,62.087084655949553,61.151656039038848,60.216227422131418,59.280798805227128,58.3453701883261,57.40994157142827,56.474512954533679,55.539084337642379,54.603655720754261,53.668227103869327,52.4993168423682,51.174748472954121,49.850180103543323,48.525611734135794,47.201043364731554,45.876474995330575,44.551906625932943,43.227338256538538,41.902769887147478,40.578201517759652,39.030032166193479,37.361459034212331,35.6928859022346,34.0243127702602,32.35573963828913,30.687166506321454,29.018593374357096,27.350020242396145,25.681447110438487,24.012873978484262,22.133886374654331,20.164717588465514,18.195548802280054,16.226380016098126,14.25721122991958,12.288042443744535,10.318873657572921,8.3497048714047022,6.3805360852399851,4.4113672990786954,2.246338704650233,0.016021039077803341,-2.2142966264911257,-4.4446142920565475,-6.6749319576184218,-8.90524962317686,-11.135567288731691,-13.365884954283027,-15.596202619830942,-17.826520285375246,-20.238516100699577,-22.695933600023704,-25.153351099344214,-27.61076859866095,-30.068186097974035,-32.525603597283343,-34.983021096588963,-37.44043859589091,-39.897856095189113,-42.355273594483691,-44.982703840659561,-47.640138226850084,-50.297572613036792,-52.955006999220132,-55.612441385399684,-58.26987577157567,-60.927310157747961,-63.584744543916692,-66.242178930081764,-68.89961331624329,-71.718921369938471,-74.5562170867462,-77.393512803550124,-80.23080852035001,-83.068104237146031,-85.905399953938087,-88.742695670726164,-91.57999138751029,-94.41728710429058,-97.254582821066847,-100.25144903295849,-103.25671527962223,-106.26198152628199,-109.26724777293751,-112.2725140195892,-115.27778026623675,-118.2830465128804,-121.28831275951987,-124.29357900615545,-127.29884525278686,0.59610272517523644,0.59610272517523644,0.59610272517523644,0.59610272517523644,0.59610272517523644,0.59610272517523644,0.59610272517523644,0.59610272517523644,0.59610272517523644,0.59610272517523644,0.59610272517523644,0.59610272517523644
DP 378,273.18130181409924,0.0024011748989164407,-116.21418350473733,-112.96344073892344,-109.71269797310748,-106.46195520728982,-103.21121244147018,-99.96046967564854,-96.709726909825136,-93.458984143999785,-90.2082413781726,-86.957498612343457,-83.71337288346534,-80.594972107606438,-77.47657133174566,-74.358170555882978,-71.23976978001842,-68.1213690041519,-65.002968228283677,-61.884567452413492,-58.76616667654141,-55.647765900667451,-52.555777836560189,-49.701506674943538,-46.847235513325153,-43.99296435170492,-41.13869319008284,-38.284422028458955,-35.43015086683323,-32.575879705205708,-29.721608543576366,-26.867337381945205,-24.068183593228675,-21.581365057564017,-19.094546521897506,-16.607727986229136,-14.12090945055893,-11.634090914886874,-9.1472723792129571,-6.6604538435371854,-4.1736353078595734,-1.6868167721801248,0.71173992290959653,2.7572450843089515,4.8027502457101114,6.8482554071130917,8.8937605685178678,10.939265729924482,12.984770891332893,15.030276052743131,17.075781214155175,19.121286375569039,21.046041309183504,22.608540993997146,24.171040678812592,25.733540363629849,27.296040048448933,28.858539733269847,30.421039418092583,31.983539102917106,33.546038787743463,35.108538472571595,36.522853773010773,37.591399673784494,38.659945574560055,39.728491475337442,40.797037376116627,41.865583276897638,42.934129177680482,44.002675078465117,45.071220979251578,46.139766880039829,47.040802854584761,47.630744442308185,48.2206860300335,48.810627617760581,49.400569205489489,49.990510793220281,50.580452380952856,51.170393968687243,51.760335556423449,52.350277144161538,52.762898254413443,52.909534458286743,53.0561706621619,53.202806866038877,53.349443069917655,53.496079273798308,53.642715477680831,53.789351681565165,53.935987885451318,54.082624089339333,54.05151115532459,53.803145541403723,53.554779927484788,53.306414313567629,53.058048699652417,52.809683085738989,52.561317471827479,52.31295185791776,52.064586244009924,51.816220630103992,50.220601584311659,49.632026445643,49.043451306976259,48.454876168311394,47.866301029648419,47.277725890987313,46.689150752328061,46.100575613670706,45.355612579576807,44.482693125215164,43.609773670855354,42.736854216497505,41.863934762141547,40.991015307787485,40.118095853435349,39.245176399085096,38.372256944736783,37.499337490390367,36.487568410778017,35.383230726944788,34.278893043113577,33.1745553592842,32.070217675456853,30.965879991631354,29.861542307807866,28.757204623986283,27.652866940166671,26.548529256348957,25.324575170090416,24.036210512316558,22.747845854544682,21.459481196774785,20.171116539006846,18.882751881240868,17.594387223476843,16.30602256571483,15.017657907954755,13.729293250196662,12.340449158936138,10.908540757339354,9.4766323557445347,8.0447239541518112,6.612815552561055,5.1809071509723585,3.7489987493856853,2.3170903478009954,0.88518194621837087,-0.54672645536224218,-2.0614662458905513,-3.6038175433111119,-5.1461688407296151,-6.6885201381460684,-8.2308714355604327,-9.7732227329727888,-11.315574030383015,-12.857925327791206,-14.40027662519738,-15.942627922601428,-17.552541182767495,-19.179345731878243,-20.806150280986827,-22.432954830093273,-24.059759379197537,-25.686563928299606,-27.313368477399489,-28.940173026497238,-30.566977575592805,-32.193782124686244,-33.876106370571222,-35.568228827393511,-37.26035128421362,-38.952473741031675,-40.644596197847569,-42.336718654661347,-44.028841111473007,-45.720963568282492,-47.413086025089925,-49.105208481895232,-50.844132854850542,-52.588257932240225,-54.332383009627719,-56.076508087012812,-57.820633164395694,-59.564758241776218,-61.308883319154518,-63.053008396530352,-64.797133473904069,-66.541258551275419,-68.327612722499481,-70.116189897771477,-71.904767073041086,-73.693344248308421,-75.481921423573269,-77.270498598835957,-79.059075774096328,-80.847652949354156,-82.636230124609739,-84.424807299862948,0.34794739261758262,0.34794739261758262,0.34794739261758262,0.34794739261758262,0.34794739261758262,0.34794739261758262,0.34794739261758262,0.34794739261758262,0.34794739261758262,0.34794739261758262,0.34794739261758262,0.34794739261758262
DP 379,150.07598443529966,0.0033636120448539398,-104.23229383798683,-101.61273073654209,-98.9931676350948,-96.373604533644865,-93.754041432192324,-91.134478330737124,-88.514915229279367,-85.895352127818924,-83.275789026355909,-80.6562259248903,-78.0404668987172,-75.4969860222898,-72.953505145859808,-70.410024269427183,-67.866543392992071,-65.323062516554231,-62.77958164011384,-60.236100763670876,-57.692619887225227,-55.149139010777091,-52.62117978856373,-50.232916921619577,-47.844654054672944,-45.456391187723717,-43.068128320771955,-40.6798654538177,-38.291602586860876,-35.903339719901517,-33.515076852939643,-31.126813985975225,-28.772072006366848,-26.607283834089817,-24.442495661810234,-22.277707489528048,-20.112919317243296,-17.948131144955941,-15.783342972666025,-13.618554800373484,-11.453766628078391,-9.2889784557807165,-7.1804795836987623,-5.2971405727652634,-3.4138015618292363,-1.5304625508906557,0.35287646005045531,2.2362154709941282,4.1195544819403374,6.0028934928890987,7.8862325038403975,9.7695715147942384,11.571170772356924,13.127547679274073,14.683924586193783,16.240301493116029,17.796678400040868,19.353055306968262,20.909432213898185,22.465809120830691,24.022186027765716,25.57856293470336,27.027204144634926,28.224457818493782,29.421711492355225,30.618965166219251,31.816218840085813,33.013472513955,34.210726187826737,35.407979861701023,36.605233535577895,37.802487209457354,38.867486641976377,39.686867483147282,40.506248324320786,41.325629165496878,42.145010006675534,42.964390847856833,43.783771689040719,44.6031525302272,45.422533371416236,46.241914212607853,46.907664452504335,47.3429651601087,47.778265867715689,48.213566575325316,48.648867282937516,49.084167990552409,49.519468698169874,49.954769405789989,50.39007011341269,50.825370821038035,51.089987840443989,51.145987877964828,51.201987915488374,51.257987953014478,51.313987990543289,51.369988028074737,51.425988065608827,51.481988103145682,51.537988140685052,51.593988178227164,50.84812014357788,50.5385722311781,50.229024318781121,49.919476406386806,49.6099284939951,49.300380581606227,48.990832669219962,48.681284756836369,48.181929863775338,47.527275088191217,46.8726203126099,46.217965537031318,45.563310761455476,44.908655985882405,44.25400121031204,43.599346434744454,42.944691659179611,42.29003688361751,41.443207358682976,40.468258306728913,39.493309254777692,38.518360202829264,37.543411150883614,36.56846209894077,35.593513047000769,34.618563995063518,33.643614943129123,32.668665891197485,31.503054197402658,30.234775231574435,28.966496265749136,27.698217299926672,26.429938334107106,25.161659368290408,23.893380402476573,22.625101436665634,21.356822470857566,20.088543505052364,18.633930525318515,17.099456965939659,15.564983406563663,14.030509847190688,12.496036287820619,10.961562728453519,9.4270891690893635,7.8926156097281117,6.3581420503698558,4.8236684910145309,3.1087167680333607,1.3336033826407954,-0.44151000274877245,-2.2166233881353388,-3.9917367735188689,-5.7668501588994543,-7.5419635442769533,-9.31707692965147,-11.092190315023046,-12.867303700391538,-14.8167327038216,-16.809742671332735,-18.802752638840747,-20.795762606345562,-22.788772573847204,-24.781782541345631,-26.774792508840893,-28.767802476332978,-30.760812443821873,-32.753822411307709,-34.916352671052927,-37.108800161580248,-39.301247652104358,-41.493695142625526,-43.686142633143483,-45.878590123658327,-48.071037614170095,-50.263485104678729,-52.455932595184258,-54.6483800856867,-57.007668180025092,-59.385495871452505,-61.7633235628766,-64.141151254297228,-66.518978945714565,-68.896806637128378,-71.27463432853898,-73.652462019946043,-76.030289711349823,-78.408117402750207,-80.954141777670017,-83.509020283105528,-86.063898788537713,-88.618777293966232,-91.173655799391511,-93.7285343048133,-96.283412810231667,-98.8382913156464,-101.39316982105784,-103.94804832646568,0.51124927702384892,0.51124927702384892,0.51124927702384892,0.51124927702384892,0.51124927702384892,0.51124927702384892,0.51124927702384892,0.51124927702384892,0.51124927702384892,0.51124927702384892,0.51124927702384892,0.51124927702384892
DP 380,60.79009449399031,0.005524555094187221,-88.276863115514175,-86.392568736783716,-84.508274358050471,-82.623979979314541,-80.739685600575925,-78.855391221834537,-76.971096843090493,-75.086802464343691,-73.202508085594118,-71.318213706841945,-69.435778459854959,-67.5886670679156,-65.741555675973473,-63.894444284028651,-62.047332892081023,-60.200221500130695,-58.353110108177589,-56.505998716221711,-54.658887324263119,-52.811775932301764,-50.972407864052741,-49.202730441149612,-47.433053018243768,-45.66337559533514,-43.893698172423761,-42.124020749509576,-40.354343326592648,-38.584665903672921,-36.814988480750465,-35.045311057825259,-33.292849826049675,-31.637948095671476,-29.983046365290441,-28.328144634906579,-26.673242904519881,-25.018341174130335,-23.363439443737931,-21.7085377133427,-20.053635982944641,-18.398734252543743,-16.773941176615097,-15.269584141543419,-13.765227106468872,-12.26087007139145,-10.756513036311175,-9.2521560012280144,-7.7477989661419935,-6.2434419310531011,-4.7390848959613461,-3.2347278608667254,-1.7763913591502527,-0.45611819754663696,0.86415496405990977,2.1844281256693878,3.5047012872818097,4.824974448897156,6.1452476105154394,7.465520772136653,8.7857939337607842,10.106067095387882,11.361799537054763,12.466934423616534,13.572069310181304,14.677204196749086,15.782339083319869,16.887473969893652,17.992608856470454,19.097743743050248,20.202878629633052,21.30801351621886,22.327967973040259,23.189727902759188,24.051487832481211,24.913247762206311,25.775007691934515,26.636767621665772,27.498527551400134,28.360287481137579,29.222047410878087,30.083807340621725,30.838110892936019,31.4312273398709,32.024343786808991,32.617460233750236,33.210576680694636,33.803693127642255,34.396809574593014,34.989926021546914,35.583042468504047,36.176158915464313,36.638379608769391,36.940613853726425,37.24284809868675,37.545082343650321,37.84731658861714,38.14955083358727,38.45178507856069,38.754019323537371,39.056253568517292,39.3584878135005,39.489983978853267,39.482135009818393,39.4742860407869,39.46643707175879,39.458588102734026,39.4507391337127,39.44289016469471,39.4350411956801,39.247682739488013,38.913449799697474,38.579216859910396,38.244983920126884,37.910750980346805,37.576518040570264,37.242285100797204,36.908052161027669,36.5738192212616,36.239586281499051,35.701392421060092,35.027221400391767,34.353050379727051,33.6788793590659,33.004708338408456,32.330537317754583,31.65636629710437,30.982195276457752,30.308024255814733,29.633853235175383,28.731536142397374,27.706367846978598,26.681199551563598,25.656031256152318,24.630862960744807,23.60569466534103,22.580526369941,21.555358074544746,20.530189779152192,19.505021483763429,18.227994520861653,16.843023877941476,15.458053235025149,14.073082592112796,12.688111949204295,11.303141306299747,9.9181706633991027,8.5332000205023171,7.1482293776094874,5.7632587347205559,4.1032575528249193,2.3515760584294623,0.59989456403802954,-1.1517869303493866,-2.9034684247327465,-4.65514991911214,-6.4068314134874376,-8.1585129078587215,-9.910194402226038,-11.661875896589262,-13.710943682077735,-15.834361554012856,-17.9577794259437,-20.081197297870204,-22.204615169792376,-24.328033041710167,-26.4514509136237,-28.574868785532882,-30.6982866574377,-32.82170452933822,-35.264525529915112,-37.763715340302113,-40.262905150684787,-42.762094961063433,-45.2612847714377,-47.760474581807813,-50.259664392173647,-52.7588542025353,-55.258044012892682,-57.757233823245933,-60.596555650588712,-63.47367349645112,-66.350791342308781,-69.227909188161789,-72.105027034010192,-74.982144879853735,-77.859262725692759,-80.736380571526837,-83.613498417356482,-86.490616263181252,-89.728398414802143,-92.985166486772329,-96.241934558737725,-99.498702630698261,-102.75547070265398,-106.01223877460504,-109.26900684655121,-112.52577491849243,-115.782542990429,-119.03931106236064,0.68223838029847517,0.68223838029847517,0.68223838029847517,0.68223838029847517,0.68223838029847517,0.68223838029847517,0.68223838029847517,0.68223838029847517,0.68223838029847517,0.68223838029847517,0.68223838029847517,0.68223838029847517
DP 381,92.433248503315738,0.0016198973984565873,-34.470946331492982,-33.676028708431289,-32.881111085368595,-32.08619346230472,-31.291275839239809,-30.496358216173824,-29.701440593106714,-28.906522970038594,-28.111605346969363,-27.316687723899058,-26.522684508767291,-25.746055217350676,-24.969425925933006,-24.192796634514238,-23.416167343094433,-22.639538051673537,-21.862908760251536,-21.086279468828469,-20.309650177404329,-19.53302088597912,-18.760170116820778,-18.021326405225576,-17.282482693629291,-16.54363898203195,-15.804795270433567,-15.065951558834117,-14.327107847233613,-13.588264135632039,-12.849420424029409,-12.110576712425726,-11.380040900770894,-10.696583712349307,-10.013126523926651,-9.3296693355029081,-8.6462121470780779,-7.9627549586521686,-7.2792977702251642,-6.5958405817970842,-5.9123833933679206,-5.2289262049376743,-4.5597769025999568,-3.9478598208378819,-3.3359427390747376,-2.72402565731051,-2.1121085755452103,-1.50019149377883,-0.888274412011376,-0.27635733024284237,0.33555975152676382,0.9474768332974477,1.5379459908538688,2.0640705648490112,2.5901951388452451,3.1163197128425639,3.6424442868409779,4.1685688608404785,4.694693434841068,5.2208180088427456,5.74694258284551,6.27306715684937,6.7698076359622741,7.1979840697351385,7.6261605035091069,8.0543369372841731,8.48251337106035,8.9106898048376131,9.3388662386159975,9.7670426723954815,10.19521910617606,10.623395539957745,11.013827860431361,11.334162951151988,11.654498041873735,11.974833132596594,12.295168223320582,12.615503314045675,12.9358384047719,13.256173495499226,13.57650858622768,13.896843676957243,14.170997039903483,14.375876719882839,14.580756399863326,14.785636079844942,14.990515759827705,15.195395439811595,15.400275119796644,15.605154799782825,15.810034479770136,16.014914159758586,16.165401613544915,16.249408537254329,16.333415460964897,16.41742238467662,16.501429308389497,16.585436232103564,16.669443155818772,16.753450079535131,16.837457003252656,16.921463926971345,16.862812069704198,16.822549707135455,16.7822873445679,16.742024982001531,16.701762619436341,16.661500256872326,16.621237894309527,16.580975531747907,16.471468577065675,16.305305766085255,16.139142955106013,15.972980144128014,15.806817333151207,15.640654522175623,15.474491711201242,15.308328900228092,15.142166089256145,14.976003278285434,14.734196870536319,14.441960206611819,14.149723542688575,13.857486878766583,13.565250214845841,13.273013550926343,12.9807768870081,12.688540223091088,12.39630355917533,12.10406689526083,11.730495758839721,11.313127954477173,10.895760150115924,10.478392345755948,10.06102454139725,9.64365673703983,9.226288932683687,8.8089211283288318,8.3915533239752484,7.9741855196229423,7.4704215903102984,6.9296292920331206,6.38883699375724,5.8480446954827219,5.3072523972095,4.7664600989376193,4.2256678006670612,3.6848755023978157,3.1440832041299034,2.6032909058633193,1.9715109959440957,1.3094007354389019,0.64729047493506431,-0.014819785567420352,-0.67693004606853613,-1.3390403065683192,-2.0011505670667149,-2.6632608275637644,-3.3253710880594789,-3.9874813485538096,-4.7448370736352743,-5.5260052902034795,-6.3071735067702583,-7.088341723335585,-7.8695099398994746,-8.6506781564619057,-9.4318463730229,-10.213014589582453,-10.994182806140554,-11.775351022697235,-12.65606635284594,-13.554349927665411,-14.45263350248346,-15.350917077300126,-16.249200652115348,-17.147484226929183,-18.045767801741597,-18.944051376552597,-19.842334951362183,-20.740618526170369,-21.742749830673954,-22.756420862456061,-23.770091894236614,-24.783762926015587,-25.797433957793071,-26.811104989568939,-27.824776021343325,-28.838447053116095,-29.852118084887341,-30.865789116657048,-31.988171178560318,-33.116275955259574,-34.244380731957271,-35.372485508653327,-36.500590285347847,-37.628695062040791,-38.756799838732128,-39.88490461542186,-41.013009392110035,-42.141114168796605,0.23141670832671907,0.23141670832671907,0.23141670832671907,0.23141670832671907,0.23141670832671907,0.23141670832671907,0.23141670832671907,0.23141670832671907,0.23141670832671907,0.23141670832671907,0.23141670832671907,0.23141670832671907
DP 382,182.10933027938304,0.0012330154400542448,-44.4613670799264,-43.30576858415867,-42.150170088390055,-40.994571592620431,-39.83897309684982,-38.683374601078221,-37.527776105305669,-36.3721776095321,-35.216579113757589,-34.060980617982082,-32.907240568725605,-31.788811354678149,-30.670382140629684,-29.551952926580249,-28.433523712529876,-27.315094498478505,-26.196665284426143,-25.078236070372814,-23.95980685631854,-22.841377642263261,-21.730485910705518,-20.687432234089329,-19.644378557472159,-18.60132488085409,-17.558271204235041,-16.515217527615068,-15.472163850994134,-14.42911017437226,-13.386056497749443,-12.343002821125683,-11.316078945840076,-10.380558294553156,-9.4450376432652767,-8.5095169919764366,-7.5739963406866293,-6.6384756893958565,-5.7029550381041245,-4.7674343868114208,-3.8319137355177553,-2.8963930842231291,-1.987616711991872,-1.1858187199732177,-0.38402072795362024,0.41777726406692883,1.2195752560884183,2.0213732481108626,2.8231712401342519,3.6249692321585929,4.4267672241838758,5.2285652162101064,5.9921441115379865,6.6410642717577453,7.2899844319784508,7.9389045922001156,8.5878247524227316,9.2367449126462873,9.8856650728708058,10.534585233096271,11.183505393322697,11.832425553550062,12.431933957452456,12.916146317232096,13.400358677012679,13.884571036794236,14.368783396576733,14.852995756360182,15.337208116144593,15.821420475929955,16.305632835716278,16.789845195503545,17.214748193377925,17.529503631696361,17.844259070015752,18.159014508336103,18.473769946657416,18.788525384979689,19.103280823302924,19.418036261627122,19.732791699952283,20.0475471382784,20.295145213395291,20.442005656744552,20.588866100094783,20.735726543446,20.882586986798156,21.029447430151297,21.1763078735054,21.323168316860475,21.47002876021654,21.616889203573542,21.691240152559256,21.676966863156657,21.662693573755053,21.648420284354437,21.634146994954779,21.61987370555611,21.605600416158428,21.591327126761705,21.577053837365995,21.562780547971247,21.143799261463275,20.9790611203002,20.814322979138133,20.649584837977031,20.484846696816945,20.320108555657821,20.155370414499725,19.990632273342626,19.750424101307068,19.448466425182705,19.146508749059354,18.844551072937008,18.542593396815676,18.240635720695376,17.938678044576061,17.636720368457777,17.334762692340497,17.032805016224223,16.657260255061406,16.232656277941739,15.80805230082311,15.383448323705503,14.95884434658894,14.534240369473398,14.109636392358906,13.685032415245425,13.26042843813301,12.835824461021598,12.34112630121632,11.808684100668396,11.276241900121519,10.743799699575709,10.211357499030951,9.6789152984872455,9.14647309794459,8.6140308974030066,8.081588696862454,7.5491464963229671,6.9511253238032173,6.3249977706798326,5.6988702175575012,5.0727426644362863,4.4466151113161274,3.8204875581970597,3.1943600050790772,2.5682324519621571,1.9421048988463359,1.3159773457315898,0.62918127877964347,-0.0778383907131086,-0.784858060204762,-1.491877729695317,-2.1988973991847578,-2.9059170686731188,-3.6129367381603488,-4.3199564076464867,-5.0269760771315486,-5.7339957466154772,-6.49693429926345,-7.2738532333924582,-8.0507721675203268,-8.8276911016470336,-9.6046100357725823,-10.381528969896946,-11.158447904020166,-11.935366838142212,-12.712285772263094,-13.489204706382843,-14.318129914143395,-15.156233277922109,-15.994336641699643,-16.832440005476112,-17.670543369251391,-18.508646733025554,-19.346750096798573,-20.184853460570444,-21.022956824341197,-21.861060188110809,-22.74841114012392,-23.641234563601497,-24.534057987077894,-25.426881410553,-26.319704834026926,-27.212528257499553,-28.105351680971,-28.998175104441149,-29.890998527910103,-30.783821951377821,-31.725010302252709,-32.668744656833738,-33.612479011413555,-34.556213365992065,-35.499947720569352,-36.443682075145375,-37.387416429720133,-38.331150784293591,-39.274885138865812,-40.218619493436734,0.186958979961109,0.186958979961109,0.186958979961109,0.186958979961109,0.186958979961109,0.186958979961109,0.186958979961109,0.186958979961109,0.186958979961109,0.186958979961109,0.186958979961109,0.186958979961109
DP 383,190.7989527901818,0.0014817612088007912,-55.375632424506286,-53.9245805352765,-52.473528646045544,-51.022476756813361,-49.571424867580056,-48.120372978345529,-46.669321089109843,-45.218269199872935,-43.767217310634862,-42.31616542139561,-40.867507340094939,-39.464332062185228,-38.06115678427431,-36.657981506362276,-35.254806228449034,-33.851630950534606,-32.448455672619048,-31.045280394702282,-29.642105116784347,-28.238929838865232,-26.845448025034059,-25.539208304246834,-24.23296858345849,-22.926728862668977,-21.620489141878341,-20.314249421086565,-19.008009700293648,-17.701769979499574,-16.395530258704397,-15.089290537908058,-13.803743922546959,-12.635459541956594,-11.467175161365079,-10.298890780772398,-9.1306064001785661,-7.962322019583568,-6.7940376389874091,-5.625753258390084,-4.4574688777916087,-3.2891844971919704,-2.1550945426544326,-1.1577839084249584,-0.16047327419435031,0.83683736003740317,1.8341479942702879,2.8314586285043228,3.8287692627394931,4.8260798969758074,5.8233905312132572,6.8207011654518457,7.7693527074272577,8.5720251328778616,9.3746975583296237,10.177369983782516,10.980042409236566,11.782714834691758,12.585387260148092,13.388059685605564,14.190732111064184,14.993404536523967,15.733488393613428,16.327529792852449,16.921571192092646,17.515612591333966,18.109653990576458,18.703695389820084,19.297736789064846,19.891778188310756,20.485819587557845,21.079860986806064,21.599220341290209,21.979882452909273,22.360544564529494,22.74120667615087,23.1218687877734,23.502530899397073,23.883193011021916,24.263855122647893,24.644517234275035,25.025179345903339,25.321840813825972,25.492499331223172,25.663157848621594,25.833816366021143,26.00447488342186,26.175133400823739,26.345791918226794,26.516450435631025,26.687108953036397,26.857767470442933,26.938404448646736,26.909013210276104,26.879621971906641,26.85023073353835,26.820839495171235,26.791448256805307,26.762057018440544,26.732665780076971,26.70327454171461,26.673883303353382,26.122504152561827,25.907830389659225,25.693156626757794,25.478482863857554,25.263809100958529,25.049135338060683,24.834461575164074,24.619787812268573,24.313006351286472,23.930862463478547,23.548718575671824,23.166574687866337,22.784430800062076,22.402286912259012,22.020143024457173,21.637999136656529,21.25585524885712,20.87371136105892,20.402623171471141,19.872237379500245,19.341851587530584,18.81146579556215,18.28108000359498,17.750694211629007,17.220308419664303,16.689922627700824,16.159536835738617,15.629151043777606,15.014925347423842,14.355553867987307,13.696182388552058,13.036810909118046,12.377439429685326,11.718067950253864,11.05869647082366,10.399324991394735,9.7399535119670553,9.08058203254066,8.3436501258281854,7.5734767268620153,6.8033033278971029,6.0331299289335307,5.2629565299712366,4.4927831310102455,3.722609732050552,2.9524363330921375,2.1822629341350388,1.4120895351792291,0.57101885108714578,-0.29368515489022923,-1.1583891608662877,-2.0230931668410266,-2.8877971728144289,-3.75250117878654,-4.6172051847572906,-5.4819091907267348,-6.34661319669488,-7.2113172026616743,-8.140558966099098,-9.0859359314274677,-10.031312896754473,-10.976689862080063,-11.922066827404281,-12.867443792727091,-13.812820758048494,-14.75819772336853,-15.703574688687139,-16.648951654004406,-17.653623376457229,-18.66875953894677,-19.6838957014349,-20.699031863921743,-21.714168026407158,-22.729304188891248,-23.744440351373932,-24.759576513855297,-25.774712676335266,-26.789848838813906,-27.860528393114553,-28.937380018731247,-30.014231644346491,-31.091083269960222,-32.167934895572508,-33.244786521183272,-34.32163814679258,-35.398489772400346,-36.475341398006726,-37.552193023611579,-38.683182272372427,-39.817021408367374,-40.950860544360822,-42.08469968035272,-43.21853881634312,-44.352377952332041,-45.486217088319457,-46.620056224305287,-47.75389536028964,-48.887734496272472,0.2240935112747732,0.2240935112747732,0.2240935112747732,0.2240935112747732,0.2240935112747732,0.2240935112747732,0.2240935112747732,0.2240935112747732,0.2240935112747732,0.2240935112747732,0.2240935112747732,0.2240935112747732
DP 384,102.44737254264614,0.0022264061892552445,-51.160187348186838,-49.958253221226343,-48.756319094264235,-47.554384967300585,-46.352450840335479,-45.150516713368731,-43.948582586400434,-42.74664845943061,-41.544714332459264,-40.342780205486321,-39.142294153695765,-37.969321804149182,-36.796349454601064,-35.623377105051382,-34.450404755500166,-33.277432405947359,-32.104460056393059,-30.931487706837181,-29.758515357279759,-28.585543007720773,-27.418540173771063,-26.305263544566408,-25.191986915360189,-24.078710286152475,-22.96543365694324,-21.852157027732478,-20.738880398520184,-19.625603769306384,-18.512327140091067,-17.399050510874215,-16.298855119007492,-15.272787563105988,-14.246720007202942,-13.220652451298346,-12.194584895392184,-11.168517339484483,-10.142449783575211,-9.1163822276644,-8.0903146717520329,-7.0642471158381177,-6.0606004958840289,-5.1466386794054833,-4.2326768629253966,-3.3187150464437662,-2.4047532299606065,-1.4907914134758966,-0.5768295969896523,0.33713221949813671,1.2510940359874607,2.1650558524783245,3.0456067606384285,3.8259236805829491,4.6062406005290191,5.3865575204766492,6.1668744404258344,6.9471913603765776,7.7275082803288671,8.50782520028272,9.288142120238124,10.068459040195089,10.80333405397467,11.432176163659161,12.06101827334524,12.68986038303289,13.3187024927221,13.947544602412888,14.576386712105259,15.20522882179918,15.834070931494672,16.462913041191737,17.033879130572551,17.497359619213885,17.96084010785685,18.424320596501392,18.8878010851475,19.351281573795223,19.814762062444522,20.278242551095428,20.741723039747896,21.205203528401984,21.598555392268498,21.886712661787531,22.174869931308152,22.4630272008304,22.751184470354261,23.039341739879749,23.327499009406861,23.615656278935536,23.903813548465866,24.191970817997806,24.39842575326476,24.505020563846372,24.611615374429633,24.718210185014541,24.824804995601067,24.931399806189262,25.037994616779102,25.144589427370565,25.2511842379637,25.357779048558488,25.216449080335209,25.138597782250631,25.060746484167773,24.982895186086605,24.905043888007079,24.827192589929226,24.749341291853071,24.671489993778586,24.492181612703355,24.229861147378706,23.967540682055755,23.705220216734514,23.442899751414988,23.180579286097188,22.918258820781109,22.655938355466748,22.393617890154108,22.131297424843179,21.759647270594048,21.315108934720222,20.870570598848186,20.426032262977866,19.981493927109334,19.53695559124256,19.092417255377541,18.64787891951428,18.203340583652793,17.758802247793042,17.198358914253536,16.575503511886456,15.95264810952118,15.329792707157726,14.706937304796057,14.084081902436195,13.461226500078121,12.838371097721875,12.2155156953674,11.592660293014751,10.848425751031906,10.052169529038709,9.2559133070473418,8.4596570850578825,7.6634008630702546,6.8671446410845114,6.0708884191006289,5.2746321971185886,4.4783759751384338,3.6821197531601348,2.759786254829411,1.7954254087835881,0.83106456273966711,-0.13329628330235058,-1.0976571293424451,-2.0620179753806678,-3.0263788214169409,-3.9907396674513205,-4.9551005134838277,-5.9194613595143872,-7.0141230221274462,-8.14136142841046,-9.268599834691484,-10.395838240970466,-11.523076647247429,-12.650315053522354,-13.777553459795245,-14.904791866066123,-16.032030272334957,-17.1592686786018,-18.421202656592762,-19.7069079391924,-20.992613221790027,-22.278318504385748,-23.564023786979444,-24.849729069571143,-26.135434352160871,-27.42113963474862,-28.706844917334411,-29.992550199918252,-31.417571386709955,-32.858073581558656,-34.298575776405166,-35.739077971249529,-37.179580166091732,-38.620082360931725,-40.060584555769594,-41.501086750605218,-42.941588945438767,-44.382091140270113,-45.967647785690858,-47.560840319112707,-49.154032852532509,-50.747225385949982,-52.340417919365272,-53.933610452778431,-55.52680298618931,-57.119995519597936,-58.71318805300443,-60.306380586408586,0.32516278177618324,0.32516278177618324,0.32516278177618324,0.32516278177618324,0.32516278177618324,0.32516278177618324,0.32516278177618324,0.32516278177618324,0.32516278177618324,0.32516278177618324,0.32516278177618324,0.32516278177618324
DP 385,88.786061648897089,0.0018630012190309565,-38.496436802843313,-37.615165679962494,-36.733894557080468,-35.852623434197241,-34.971352311312756,-34.090081188427092,-33.208810065540192,-32.327538942652104,-31.446267819762781,-30.564996696872257,-29.684721764914936,-28.823374649035735,-27.962027533155283,-27.10068041727363,-26.239333301390754,-25.377986185506661,-24.51663906962138,-23.65529195373486,-22.793944837847139,-21.932597721958178,-21.075370870109619,-20.255226784088858,-19.435082698066882,-18.61493861204373,-17.794794526019388,-16.97465043999383,-16.154506353967086,-15.334362267939145,-14.514218181910003,-13.694074095879666,-12.883001196741372,-12.123332261613177,-11.363663326483763,-10.603994391353124,-9.8443254562212523,-9.0846565210881653,-8.3249875859538456,-7.565318650818309,-6.8056497156815459,-6.045980780543557,-5.3019607387528209,-4.6205370099340888,-3.9391132811141469,-3.2576895522929843,-2.5762658234706097,-1.8948420946470121,-1.2134183658222015,-0.53199463699617056,0.1494290918310722,0.83085282065953225,1.4887648847620567,2.0761410657408339,2.6635172467208394,3.2508934277020796,3.8382696086845525,4.4256457896682528,5.0130219706531909,5.60039815163936,6.1877743326267574,6.775150513615392,7.3302292509496141,7.8099460144234163,8.2896627778984655,8.7693795413747555,9.2490963048522978,9.7288130683310943,10.208529831811136,10.688246595292416,11.167963358774953,11.647680122258732,12.085778003274243,12.446582550025145,12.8073870967773,13.168191643530735,13.528996190285426,13.889800737041387,14.250605283798617,14.611409830557113,14.972214377316863,15.333018924077898,15.6427187617425,15.875760328138632,16.108801894536054,16.341843460934779,16.574885027334769,16.807926593736077,17.040968160138672,17.274009726542552,17.507051292947715,17.740092859354178,17.912701077098419,18.011445043755412,18.11018901041372,18.208932977073353,18.307676943734307,18.40642091039658,18.505164877060146,18.603908843725044,18.70265281039125,18.801396777058791,18.750935322888402,18.711001685731226,18.671068048575378,18.631134411420877,18.591200774267733,18.551267137115932,18.51133349996546,18.471399862816362,18.353829542673775,18.17273696584013,17.99164438900787,17.810551812176993,17.629459235347483,17.448366658519376,17.267274081692619,17.086181504867259,16.905088928043284,16.723996351220691,16.457673541965328,16.134529235074652,15.811384928185365,15.488240621297521,15.165096314411088,14.841952007526071,14.518807700642471,14.195663393760299,13.872519086879544,13.549374780000194,13.134122538376648,12.669272377095636,12.204422215816111,11.739572054538014,11.27472189326137,10.809871731986179,10.345021570712435,9.8801714094401465,9.4153212481693043,8.9504710868999169,8.3872883617022183,7.7819614493658795,7.1766345370310223,6.571307624697706,5.9659807123658739,5.3606538000355615,4.7553268877067572,4.1499999753794459,3.5446730630536547,2.9393461507293717,2.2299583217098395,1.4858822089961023,0.7418060962839077,-0.0022700164267448844,-0.74634612913583953,-1.490422241843415,-2.2344983545494133,-2.9785744672538743,-3.722650579956821,-4.4667266926581872,-5.3202153098234923,-6.2010583458305151,-7.0819013818359249,-7.9627444178396791,-8.8435874538417849,-9.7244304898422378,-10.605273525841051,-11.486116561838219,-12.366959597833734,-13.247802633827632,-14.243432057100479,-15.259319178098819,-16.275206299095544,-17.291093420090672,-18.306980541084158,-19.322867662076074,-20.338754783066371,-21.354641904055047,-22.370529025042124,-23.386416146027596,-24.522396553302276,-25.671721920315846,-26.821047287327684,-27.970372654337719,-29.119698021346025,-30.269023388352533,-31.41834875535729,-32.567674122360238,-33.71699948936147,-34.866324856360912,-36.141596251792215,-37.423497638674426,-38.70539902555484,-39.987300412433413,-41.269201799310217,-42.551103186185237,-43.833004573058417,-45.114905959929743,-46.396807346799328,-47.678708733667115,0.2634856127271587,0.2634856127271587,0.2634856127271587,0.2634856127271587,0.2634856127271587,0.2634856127271587,0.2634856127271587,0.2634856127271587,0.2634856127271587,0.2634856127271587,0.2634856127271587,0.2634856127271587
DP 386,196.498942662074,0.0024249590434349882,-92.674336199466637,-90.233325725550273,-87.792315251632,-85.351304777711746,-82.910294303789655,-80.469283829865532,-78.0282733559395,-75.587262882011629,-73.146252408081708,-70.7052419341499,-68.268324577358825,-65.909177220058979,-63.550029862757285,-61.190882505453629,-58.831735148148077,-56.472587790840535,-54.113440433531139,-51.754293076219817,-49.395145718906591,-47.035998361591368,-44.693408330550717,-42.499835801023615,-40.306263271494664,-38.112690741963853,-35.919118212431165,-33.725545682896644,-31.531973153360244,-29.338400623821933,-27.144828094281785,-24.951255564739775,-22.792972789960427,-20.834667515944439,-18.876362241926525,-16.918056967906725,-14.959751693885035,-13.001446419861439,-11.043141145835936,-9.0848358718085347,-7.1265305977792348,-5.1682253237480431,-3.2681058999194019,-1.6007326268169726,0.066640646287315045,1.734013919393478,3.4013871925014936,5.06876046561139,6.7361337387231464,8.4035070118367745,10.070880284952258,11.738253558069616,13.323057164776793,14.660148650404848,15.997240136034774,17.334331621666554,18.671423107300225,20.008514592935754,21.345606078573187,22.682697564212486,24.019789049853649,25.356880535496682,26.588117246694956,27.57235531520665,28.556593383720209,29.540831452235633,30.525069520752943,31.509307589272098,32.4935456577932,33.477783726316119,34.462021794840943,35.446259863367636,36.304675622312068,36.929417979770022,37.554160337229895,38.178902694691608,38.803645052155225,39.428387409620754,40.053129767088173,40.677872124557481,41.302614482028659,41.927356839501712,42.411191740202447,42.683662126048375,42.956132511896215,43.228602897745944,43.50107328359762,43.773543669451122,44.046014055306614,44.31848444116396,44.590954827023225,44.863425212884373,44.985615487238,44.924126913149124,44.862638339062173,44.801149764977175,44.73966119089409,44.678172616812915,44.616684042733674,44.555195468656393,44.493706894581,44.432218320507509,43.478572379228744,43.109411135907173,42.740249892587585,42.371088649269943,42.001927405954262,41.6327661626405,41.263604919328714,40.894443676018881,40.373211519209882,39.727555092454196,39.081898665700464,38.4362422389487,37.790585812198955,37.144929385451178,36.499272958705383,35.853616531961592,35.207960105219755,34.562303678479942,33.7707132372136,32.881831153948248,31.992949070684926,31.10406698742359,30.215184904164325,29.326302820907035,28.437420737651806,27.5485386543986,26.659656571147412,25.770774487898226,24.745258512825309,23.646168455259044,22.547078397694907,21.447988340132842,20.348898282572787,19.249808225014853,18.150718167458948,17.051628109905163,15.952538052353425,14.853447994803757,13.628872076528374,12.350514385598862,11.072156694671417,9.7937990037461553,8.5154413128229685,7.2370836219019274,5.9587259309830047,4.6803682400661613,3.4020105491514765,2.123652858238898,0.731475562360351,-0.69864303628945412,-2.1287616349371072,-3.5588802335826073,-4.9889988322259216,-6.4191174308671322,-7.8492360295061179,-9.2793546281429578,-10.709473226777691,-12.1395918254102,-13.672485252543725,-15.231073601102478,-16.789661949658989,-18.348250298213205,-19.90683864676517,-21.465426995314814,-23.02401534386221,-24.582603692407325,-26.141192040950138,-27.699780389490726,-29.352043179327385,-31.020837794594637,-32.689632409859605,-34.3584270251224,-36.027221640382919,-37.6960162556412,-39.364810870897273,-41.033605486151146,-42.702400101402738,-44.371194716652163,-46.127109550257437,-47.892705323090873,-49.658301095922,-51.423896868750582,-53.1894926415769,-54.955088414400628,-56.720684187222055,-58.486279960040967,-60.2518757328576,-62.017471505671722,-63.867556132322804,-65.72208838138377,-67.576620630442292,-69.431152879498285,-71.285685128551876,-73.140217377603022,-74.994749626651625,-76.849281875697756,-78.703814124741513,-80.558346373782669,0.36599855078843418,0.36599855078843418,0.36599855078843418,0.36599855078843418,0.36599855078843418,0.36599855078843418,0.36599855078843418,0.36599855078843418,0.36599855078843418,0.36599855078843418,0.36599855078843418,0.36599855078843418
DP 387,195.26464863415325,0.0038531913484644428,-146.55556592393535,-142.69962281736807,-138.8436797107978,-134.98773660422421,-131.13179349764772,-127.27585039106808,-123.41990728448528,-119.56396417789971,-115.70802107131072,-111.85207796471883,-108.00257773391596,-104.27549336115301,-100.54840898838702,-96.821324615618,-93.094240242845942,-89.367155870070832,-85.640071497292581,-81.912987124511375,-78.185902751727085,-74.4588183789398,-70.75780338948266,-67.291415314146093,-63.825027238806555,-60.35863916346419,-56.892251088118755,-53.425863012770371,-49.959474937418975,-46.493086862064679,-43.026698786707385,-39.560310711347164,-36.149504487807164,-33.053665593724972,-29.957826699639767,-26.861987805551571,-23.766148911460348,-20.670310017366091,-17.574471123268825,-14.478632229168515,-11.382793335065221,-8.2869544409589029,-5.2828041304424733,-2.6454124875711926,-0.00802084469696166,2.629370798180247,5.2667624410604006,7.904154083943542,10.541545726829634,13.17893736971871,15.816329012610735,18.453720655505723,20.960922742083014,23.077551237414237,25.194179732748424,27.310808228085619,29.427436723425739,31.544065218768893,33.660693714114984,35.7773222094641,37.893950704816149,40.010579200171165,41.960184227475914,43.520061251282137,45.079938275091379,46.639815298903642,48.199692322718825,49.75956934653702,51.319446370358222,52.879323394182357,54.439200418009506,55.999077441839638,57.3602596440223,58.352431811448483,59.344603978877586,60.336776146309717,61.328948313744895,62.321120481183044,63.313292648624184,64.305464816068337,65.2976369835155,66.289809150965581,67.059255370173659,67.494607403920185,67.929959437669837,68.365311471422473,68.800663505178221,69.236015538936911,69.671367572698628,70.106719606463457,70.542071640231228,70.977423674002026,71.1749867355434,71.08191383632267,70.988840937105138,70.895768037890633,70.8026951386791,70.7096222394707,70.616549340265323,70.523476441063053,70.430403541863811,70.337330642667666,68.839644973563892,68.2591843644034,67.67872375524604,67.09826314609181,66.517802536940607,65.937341927792588,65.356881318647666,64.776420709505814,63.954763565218812,62.935759656132596,61.916755747049535,60.897751837969686,59.878747928892928,58.859744019819331,57.840740110748925,56.821736201681638,55.802732292617542,54.783728383556571,53.5329496200327,52.127650635586008,50.722351651142581,49.317052666702295,47.911753682265314,46.506454697831444,45.101155713400871,43.695856728973489,42.290557744549304,40.885258760128373,39.262639539058746,37.522998568807786,35.783357598560237,34.043716628315877,32.304075658074844,30.564434687837068,28.8247937176026,27.085152747371449,25.345511777143546,23.605870806918936,21.666329203562256,19.641112526198217,17.615895848837479,15.590679171480202,13.565462494126228,11.540245816775665,9.5150291394284547,7.48981246208457,5.4645957847441107,3.439379107406999,1.2325427151696828,-1.0348358709569856,-3.3022144570802316,-5.5695930432000562,-7.8369716293164062,-10.104350215429408,-12.371728801538865,-14.63910738764493,-16.906485973747628,-19.17386455984682,-21.605525683656282,-24.078259382916098,-26.55099308217239,-29.023726781424983,-31.496460480674024,-33.969194179919391,-36.441927879161135,-38.9146615783993,-41.387395277633772,-43.8601289768647,-46.482857328290478,-49.132056992182022,-51.781256656069907,-54.430456319954374,-57.079655983835224,-59.728855647712521,-62.378055311586309,-65.027254975456515,-67.676454639323225,-70.325654303186369,-73.114571394058714,-75.919014110848124,-78.723456827633584,-81.52789954441522,-84.332342261193133,-87.136784977967068,-89.941227694737265,-92.745670411503383,-95.550113128265934,-98.354555845024549,-101.29464436716948,-104.24187349184882,-107.18910261652438,-110.13633174119589,-113.08356086586353,-116.0307899905274,-118.97801911518721,-121.92524823984289,-124.87247736449497,-127.81970648914287,0.58182665819073531,0.58182665819073531,0.58182665819073531,0.58182665819073531,0.58182665819073531,0.58182665819073531,0.58182665819073531,0.58182665819073531,0.58182665819073531,0.58182665819073531,0.58182665819073531,0.58182665819073531
DP 388,90.609355029743327,0.005550162321832865,-116.39471293349521,-113.72029920910427,-111.04588548470969,-108.37147176031134,-105.69705803590945,-103.02264431150378,-100.34823058709451,-97.673816862681576,-94.999403138264924,-92.324989413844634,-89.65362541431152,-87.040206764234242,-84.426788114153211,-81.813369464068572,-79.199950813980351,-76.58653216388845,-73.973113513792867,-71.359694863693633,-68.746276213590676,-66.132857563484166,-63.532046541136928,-61.044705360347521,-58.557364179554646,-56.070022998758169,-53.582681817958061,-51.095340637154344,-48.607999456347038,-46.120658275536144,-43.63331709472169,-41.145975913903591,-38.686374757183337,-36.383968818391409,-34.081562879595808,-31.7791569407965,-29.476751001993517,-27.174345063186877,-24.871939124376507,-22.56953318556247,-20.267127246744792,-17.964721307923412,-15.710129785884867,-13.646798190736705,-11.583466595584897,-9.5201350004294252,-7.4568034052702936,-5.3934718101075063,-3.3301402149410664,-1.2668086197709585,0.79652297540279271,2.8598545705802048,4.8514306453274569,6.6277374457999727,8.4040442462761913,10.180351046756105,11.956657847239738,13.732964647727055,15.5092714482181,17.285578248712824,19.061885049211234,20.838191849713386,22.516059770692504,23.964233095874878,25.412406421060954,26.860579746250792,28.308753071444382,29.756926396641713,31.205099721842814,32.653273047047669,34.10144637225622,35.549619697468579,36.8711486159258,37.957477358800929,39.0438061016799,40.130134844562654,41.216463587449212,42.302792330339564,43.389121073233738,44.475449816131729,45.561778559033442,46.648107301939071,47.579200689732062,48.277437376585496,48.975674063442753,49.673910750303932,50.372147437168955,51.070384124037837,51.768620810910591,52.466857497787238,53.165094184667723,53.8633308715521,54.378368113757688,54.669491075514728,54.960614037275704,55.251736999040645,55.542859960809494,55.833982922582322,56.125105884359087,56.416228846139788,56.707351807924383,56.998474769713035,56.8231616890703,56.694811071484423,56.566460453902572,56.43810983632477,56.30975921875099,56.181408601181289,56.053057983615631,55.924707366053987,55.562070398416544,55.00774057252066,54.453410746628968,53.899080920741412,53.344751094857962,52.790421268978676,52.236091443103476,51.681761617232468,51.127431791365559,50.573101965502808,49.7622024909864,48.780252542147046,47.798302593312016,46.816352644481206,45.834402695654695,44.852452746832348,43.870502798014336,42.8885528492005,41.906602900390965,40.924652951585657,39.666126952165477,38.258671365129743,36.851215778098428,35.443760191071419,34.036304604048766,32.628849017030518,31.221393430016537,29.813937843006997,28.406482256001777,26.999026669000912,25.297043224073292,23.468828583028316,21.640613941987755,19.812399300951828,17.984184659920341,16.155970018893417,14.327755377871009,12.499540736853069,10.671326095839689,8.8431114548308081,6.7039572408244457,4.4611525837657862,2.2183479267117385,-0.024456730337690073,-2.267261387382455,-4.5100660444226719,-6.7528707014581615,-8.9956753584890574,-11.238480015515396,-13.481284672537027,-16.0503022966445,-18.700877016780289,-21.351451736911244,-24.002026457037239,-26.652601177158303,-29.303175897274425,-31.95375061738563,-34.604325337491915,-37.254900057593261,-39.905474777689761,-42.897647360058791,-45.95010571673987,-49.002564073416032,-52.05502243008749,-55.107480786754017,-58.159939143415848,-61.21239750007279,-64.264855856724949,-67.317314213372256,-70.369772570014874,-73.779107432416822,-77.228098987946765,-80.677090543471536,-84.126082098990864,-87.575073654505147,-91.024065210014044,-94.473056765517626,-97.922048321015836,-101.37103987650883,-104.82003143199657,-108.64295797431298,-112.48556902591282,-116.32818007750735,-120.17079112909627,-124.01340218067982,-127.85601323225814,-131.69862428383087,-135.5412353353982,-139.38384638696022,-143.22645743851672,0.78903512435460521,0.78903512435460521,0.78903512435460521,0.78903512435460521,0.78903512435460521,0.78903512435460521,0.78903512435460521,0.78903512435460521,0.78903512435460521,0.78903512435460521,0.78903512435460521,0.78903512435460521
DP 389,203.21922127800323,0.0026339555783550139,-103.24466088667134,-100.50904630844545,-97.773431730217411,-95.037817151987412,-92.302202573755267,-89.566587995520976,-86.830973417284625,-84.095358839046128,-81.359744260805513,-78.624129682562739,-75.893189257492821,-73.251058626366984,-70.608927995239014,-67.966797364109,-65.324666732976851,-62.682536101842594,-60.040405470706325,-57.398274839567918,-54.756144208427507,-52.114013577284851,-49.490767555052159,-47.037484798031173,-44.584202041008169,-42.130919283983118,-39.67763652695605,-37.224353769926992,-34.771071012895874,-32.317788255862716,-29.86450549882754,-27.411222741790347,-24.998115660163826,-22.812673270857385,-20.627230881548865,-18.441788492238302,-16.256346102925679,-14.070903713610988,-11.885461324294218,-9.700018934975386,-7.5145765456545037,-5.3291341563315529,-3.2097618310575657,-1.3546728845102289,0.50041606203912359,2.3555050085905154,4.2105939551439144,6.065682901699363,7.9207718482568321,9.7758607948163245,11.630949741377851,13.48603868794139,15.247673711113896,16.728943430745705,18.210213150379555,19.691482870015417,21.172752589653321,22.654022309293275,24.135292028935254,25.616561748579262,27.097831468225269,28.579101187873373,29.941030936551734,31.024496052885159,32.107961169220637,33.191426285558137,34.27489140189769,35.358356518239283,36.441821634582908,37.525286750928579,38.6087518672763,39.692216983626032,40.634468346163864,41.314461780839466,41.994455215517064,42.674448650196744,43.3544420848785,44.034435519562287,44.71442895424812,45.394422388936022,46.074415823625927,46.754409258317949,47.2770617377219,47.563699066167771,47.8503363946157,48.136973723065722,48.423611051517796,48.710248379971972,48.996885708428167,49.283523036886422,49.570160365346759,49.856797693809149,49.976572289501696,49.892400040228075,49.808227790956579,49.724055541687108,49.63988329241981,49.555711043154545,49.471538793891348,49.3873665446303,49.303194295371291,49.219022046114368,48.117714495256116,47.694025282940977,47.270336070627927,46.846646858316944,46.4229576460081,45.99926843370141,45.575579221396794,45.1518900090943,44.561512503160841,43.834750801417151,43.107989099675628,42.38122739793625,41.654465696199054,40.927703994463926,40.200942292731028,39.47418059100027,38.747418889271664,38.020657187545204,37.135091919960665,36.143655106747971,35.152218293537494,34.16078148032917,33.169344667123092,32.177907853919173,31.186471040717475,30.195034227517962,29.203597414320651,28.212160601125504,27.073200354718857,25.854802268257085,24.636404181797605,23.418006095340321,22.199608008885274,20.981209922432495,19.762811835981942,18.544413749533678,17.326015663087613,16.107617576643804,14.754871312834627,13.344544991082852,11.934218669333289,10.523892347586109,9.1135660258411786,7.7032397040985687,6.2929133823582495,4.8825870606201951,3.4722607388844757,2.0619344171510376,0.53084343135466572,-1.0405039644393304,-2.6118513602309932,-4.1831987560203272,-5.7545461518072818,-7.3258935475919627,-8.8972409433742214,-10.468588339154175,-12.039935734931838,-13.611283130707085,-15.290649540787937,-16.997021980705931,-18.703394420621532,-20.409766860534614,-22.116139300445262,-23.822511740353391,-25.528884180259084,-27.235256620162325,-28.94162906006305,-30.648001499961381,-32.45190848711978,-34.27302853780369,-36.094148588485105,-37.915268639164225,-39.736388689840823,-41.557508740515075,-43.37862879118687,-45.199748841856255,-47.020868892523268,-48.841988943187808,-50.753049911179268,-52.674105259019562,-54.595160606857235,-56.516215954692292,-58.437271302524778,-60.358326650354535,-62.2793819981818,-64.200437346006254,-66.12149269382833,-68.0425480416476,-70.05030446019191,-72.062624955624315,-74.074945451054,-76.087265946481111,-78.099586441905487,-80.111906937327277,-82.124227432746366,-84.136547928162713,-86.148868423576488,-88.161188918987492,0.39648856088580148,0.39648856088580148,0.39648856088580148,0.39648856088580148,0.39648856088580148,0.39648856088580148,0.39648856088580148,0.39648856088580148,0.39648856088580148,0.39648856088580148,0.39648856088580148,0.39648856088580148
DP 390,60.366212888657493,0.0018901000873889789,-30.066924231362787,-29.425987052578822,-28.785049873793916,-28.144112695008115,-27.503175516221383,-26.862238337433716,-26.221301158645154,-25.580363979855637,-24.939426801065217,-24.29848962227387,-23.658183648561572,-23.0298706906937,-22.40155773282487,-21.773244774955103,-21.144931817084419,-20.5166188592128,-19.888305901340249,-19.259992943466749,-18.631679985592328,-18.003367027716962,-17.377682827784525,-16.7756576978208,-16.173632567856114,-15.571607437890501,-14.969582307923943,-14.367557177956444,-13.765532047988017,-13.16350691801863,-12.56148178804832,-11.959456658077057,-11.363278223660075,-10.800231432481565,-10.237184641302106,-9.6741378501216833,-9.1110910589402927,-8.54804426775794,-7.98499747657462,-7.4219506853903319,-6.8589038942050964,-6.2958571030188857,-5.7430357583674914,-5.2311166831210736,-4.7191976078736886,-4.2072785326253284,-3.69535945737599,-3.1834403821256734,-2.6715213068743831,-2.1596022316221157,-1.6476831563688759,-1.135764081114659,-0.63948003875578685,-0.19010168622385504,0.259276666309075,0.70865501884300219,1.1580333713779292,1.6074117239138566,2.0567900764507776,2.5061684289887038,2.9555467815276195,3.40492513406754,3.8323725231041119,4.2086468002395794,4.5849210773760687,4.961195354513583,5.3374696316521222,5.7137439087916784,6.0900181859322622,6.4662924630738665,6.842566740216494,7.2188410173601456,7.5661587103287147,7.8596991078228511,8.15323950531804,8.4467799028142885,8.7403203003115681,9.0338606978099136,9.3274010953093,9.6209414928097488,9.9144818903112437,10.208022287813776,10.465020626868689,10.667205014749234,10.869389402630881,11.071573790513602,11.273758178397399,11.475942566282272,11.678126954168247,11.880311342055286,12.08249572994341,12.284680117832618,12.442335623946555,12.545566005904844,12.64879638786425,12.752026769824763,12.855257151786398,12.958487533749141,13.061717915713007,13.164948297677979,13.268178679644061,13.371409061611274,13.417264044957639,13.414959762400688,13.412655479844895,13.410351197290252,13.408046914736733,13.405742632184406,13.403438349633205,13.401134067083163,13.337710216717051,13.224278396845303,13.11084657697476,12.99741475710538,12.883982937237217,12.770551117370234,12.657119297504444,12.543687477639844,12.430255657776442,12.31682383791423,12.133915452334024,11.904688261771483,11.675461071210171,11.446233880650087,11.217006690091251,10.987779499533639,10.758552308977274,10.529325118422136,10.300097927868226,10.070870737315566,9.7638958455885,9.4150556764876061,9.0662155073880015,8.7173753382896617,8.3685351691925955,8.01969500009682,7.67085483100231,7.32201466190909,6.9731744928171278,6.62433432372645,6.1896309332225528,5.718127569983575,5.2466242067458992,4.7751208435095913,4.3036174802745917,3.832114117040943,3.3606107538086203,2.8891073905776192,2.4176040273479655,1.9461006641196381,1.3807995151627188,0.78423125551167072,0.18766299586199389,-0.40890526378631215,-1.0054735234332353,-1.6020417830788054,-2.1986100427229767,-2.7951783023657826,-3.3917465620072331,-3.9883148216472892,-4.6863378118640764,-5.4097256834284861,-6.1331135549914348,-6.8565014265529021,-7.57988929811289,-8.3032771696713947,-9.0266650412284211,-9.75005291278397,-10.473440784338038,-11.196828655890641,-12.029211825982424,-12.880830672565594,-13.732449519147291,-14.584068365727601,-15.435687212306446,-16.287306058883853,-17.1389249054598,-17.990543752034302,-18.842162598607384,-19.693781445179038,-20.66149286883849,-21.642104686975461,-22.622716505110862,-23.603328323244625,-24.583940141376807,-25.564551959507344,-26.54516377763635,-27.525775595763669,-28.506387413889438,-29.486999232013616,-30.59072553668911,-31.700932776122858,-32.811140015555011,-33.921347254985449,-35.031554494414252,-36.14176173384147,-37.251968973267005,-38.362176212690805,-39.472383452113085,-40.582590691533589,0.23265814800198278,0.23265814800198278,0.23265814800198278,0.23265814800198278,0.23265814800198278,0.23265814800198278,0.23265814800198278,0.23265814800198278,0.23265814800198278,0.23265814800198278,0.23265814800198278,0.23265814800198278
DP 391,256.06378460180048,0.0059179941187492971,-274.07349364221182,-266.50034082063377,-258.92718799905128,-251.35403517746406,-243.78088235587185,-236.20772953427513,-228.63457671267386,-221.06142389106773,-213.48827106945686,-205.91511824784155,-198.35677835289988,-191.07988686515219,-183.80299537739972,-176.5261038896426,-169.24921240188095,-161.97232091411462,-154.69542942634354,-147.41853793856788,-140.1416464507875,-132.86475496300255,-125.64716483477882,-118.96329254791256,-112.27942026104171,-105.59554797416629,-98.911675687286532,-92.227803400402124,-85.54393111351331,-78.860058826619877,-72.17618653972194,-65.492314252819625,-58.932770885660673,-53.077765898260871,-47.222760910856572,-41.367755923447561,-35.51275093603406,-29.657745948615915,-23.802740961193209,-17.947735973765884,-12.092730986333981,-6.237725998897516,-0.58310822450881628,4.2699512272134585,9.1230106789402026,13.976070130671486,18.829129582407209,23.682189034147488,28.535248485892247,33.388307937641521,38.241367389395279,43.094426841153549,47.671116362128778,51.418685641581241,55.166254921038174,58.913824200499675,62.661393479965611,66.408962759436179,70.1565320389112,73.904101318390715,77.651670597874713,81.399239877363215,84.804367833078729,87.410452546621457,90.016537260168576,92.622621973720356,95.228706687276642,97.834791400837346,100.44087611440257,103.04696082797243,105.65304554154677,108.25913025512561,110.47382928029744,111.96165860003589,113.44948791977889,114.93731723952646,116.42514655927847,117.91297587903516,119.40080519879623,120.88863451856183,122.37646383833214,123.86429315810683,124.93268953522637,125.37192658700532,125.81116363878877,126.25040069057667,126.68963774236934,127.12887479416634,127.56811184596819,128.00734889777442,128.44658594958531,128.88582300140052,128.89891934831826,128.39116810492706,127.88341686154041,127.37566561815835,126.86791437478101,126.36016313140824,125.85241188804012,125.34466064467655,124.83690940131758,124.32915815796328,120.73698515360438,119.40166463609295,118.06634411858617,116.73102360108416,115.39570308358674,114.06038256609396,112.72506204860589,111.38974153112244,109.66804546402263,107.63021730709636,105.59238915017487,103.55456099325808,101.51673283634594,99.478904679438756,97.441076522536108,95.403248365638291,93.365420208745178,91.327592051856854,88.940999234990628,86.321891150518056,83.70278306605033,81.08367498158745,78.464566897129444,75.845458812676213,73.226350728227843,70.607242643784247,67.988134559345468,65.36902647491155,62.444137954169513,59.354593982678921,56.26505001119331,53.1755060397126,50.085962068236768,46.996418096765922,43.906874125299922,40.817330153838945,37.727786182382822,34.638242210931629,31.286985055187333,27.823560688755251,24.360136322328096,20.896711955906124,17.433287589489076,13.96986322307715,10.50643885667024,7.0430144902682885,3.5795901238714571,0.11616575747963379,-3.5673689545458909,-7.3242765557955538,-11.081184157040102,-14.838091758279541,-18.594999359513796,-22.351906960743026,-26.108814561966991,-29.865722163185843,-33.622629764399754,-37.379537365608314,-41.319878819174022,-45.306080903126393,-49.2922829870735,-53.278485071015112,-57.264687154951382,-61.2508892388822,-65.237091322807629,-69.223293406727592,-73.209495490642283,-77.195697574551573,-81.336037078309047,-85.503579017243837,-89.671120956173212,-93.838662895097471,-98.006204834016245,-102.17374677293002,-106.34128871183825,-110.50883065074116,-114.67637258963903,-118.84391452853154,-123.14427191826631,-127.4593879751886,-131.77450403210506,-136.08962008901588,-140.40473614592108,-144.71985220282031,-149.03496825971402,-153.35008431660194,-157.66520037348414,-161.98031643036069,-166.41727630864708,-170.86065023193262,-175.30402415521243,-179.74739807848627,-184.19077200175445,-188.6341459250167,-193.07751984827314,-197.52089377152356,-201.96426769476824,-206.407641618007,0.86655333502312637,0.86655333502312637,0.86655333502312637,0.86655333502312637,0.86655333502312637,0.86655333502312637,0.86655333502312637,0.86655333502312637,0.86655333502312637,0.86655333502312637,0.86655333502312637,0.86655333502312637
DP 392,61.434632317452916,0.0014362783778873798,-23.106042373885618,-22.611853261553787,-22.117664149221248,-21.623475036888017,-21.129285924554036,-20.635096812219366,-20.140907699883972,-19.64671858754787,-19.152529475211043,-18.658340362873524,-18.164640376186508,-17.680233869338718,-17.195827362490217,-16.711420855640995,-16.227014348791059,-15.742607841940387,-15.258201335088994,-14.773794828236881,-14.289388321384054,-13.804981814530496,-13.322611521450302,-12.858567344802459,-12.394523168153929,-11.930478991504668,-11.466434814854667,-11.00239063820395,-10.538346461552512,-10.07430228490035,-9.6102581082474465,-9.14621393159383,-8.68669693843779,-8.25283427038293,-7.8189716023273244,-7.3851089342709724,-6.9512462662138788,-6.5173835981560391,-6.0835209300974551,-5.6496582620381242,-5.2157955939780507,-4.7819329259172312,-4.3559848383251163,-3.9616954466595122,-3.5674060549931554,-3.1731166633260486,-2.7788272716581885,-2.3845378799895744,-1.9902484883202125,-1.5959590966500972,-1.2016697049792322,-0.807380313307615,-0.42518377730294793,-0.079266265514772241,0.26665124627417136,0.61256875806388411,0.95848626985436614,1.3044037816456167,1.6503212934376352,1.9962388052304232,2.3421563170239761,2.6880738288183008,3.0170397944982335,3.3064514849600255,3.5958631754226005,3.8852748658859655,4.1746865563501183,4.4640982468150572,4.7535099372807794,5.04292162774729,5.3323333182145927,5.62174500868268,5.888795194468547,6.1143162676602962,6.3398373408528537,6.5653584140462291,6.7908794872403941,7.0164005604353816,7.2419216336311623,7.4674427068277565,7.6929637800251562,7.9184848532233758,8.1158117652671429,8.2708467693403929,8.4258817734144849,8.580916777489394,8.735951781565138,8.89098678564173,9.0460217897191235,9.2010567937973669,9.3560917978764255,9.5111268019563244,9.6318401509685767,9.7106040895350088,9.789368028102297,9.8681319666704344,9.94689590523943,10.025659843809287,10.104423782379996,10.183187720951555,10.261951659523975,10.340715598097246,10.3738706207372,10.371379688474837,10.368888756213352,10.366397823952736,10.363906891693022,10.361415959434188,10.358925027176234,10.356434094919164,10.306935534342088,10.218975379098071,10.131015223854977,10.0430550686128,9.9550949133715179,9.86713475813117,9.779174602891727,9.6912144476532021,9.603254292415583,9.5152941371788842,9.373959398897906,9.1970407644140426,9.0201221299311243,8.8432034954491439,8.6662848609681244,8.4893662264880447,8.3124475920089171,8.135528957530731,7.958610323053489,7.7816916885771983,7.545108212714676,7.276396646936055,7.007685081158435,6.7389735153817947,6.4702619496061224,6.2015503838314316,5.9328388180577223,5.6641272522849988,5.3954156865132461,5.1267041207424784,4.7921675605009737,4.4294191772933331,4.0666707940867006,3.7039224108811069,3.3411740276765247,2.978425644472968,2.61567726127043,2.2529288780689032,1.8901804948684096,1.5274321116689318,1.0928439366895457,0.63430825906521615,0.17577258144193497,-0.28276309618029632,-0.74129877380146825,-1.1998344514216057,-1.6583701290406703,-2.1169058066586905,-2.5754414842756752,-3.0339771618915869,-3.5701530030462876,-4.1257398024162981,-4.6813266017852,-5.2369134011529654,-5.7925002005196049,-6.3480869998850968,-6.9036737992494741,-7.4592605986127136,-8.014847397974826,-8.57043419733582,-9.20937532577012,-9.86302696860001,-10.516678611428771,-11.170330254256463,-11.823981897083035,-12.477633539908506,-13.131285182732855,-13.784936825556121,-14.438588468378276,-15.092240111199349,-15.834628739720069,-16.586877965265916,-17.339127190810554,-18.09137641635397,-18.843625641896143,-19.595874867437082,-20.348124092976835,-21.100373318515324,-21.852622544052611,-22.604871769588659,-23.451195478323278,-24.302471411650671,-25.153747344976846,-26.005023278301731,-26.856299211625359,-27.707575144947789,-28.55885107826893,-29.410127011588767,-30.261402944907417,-31.112678878224745,0.17822686734081011,0.17822686734081011,0.17822686734081011,0.17822686734081011,0.17822686734081011,0.17822686734081011,0.17822686734081011,0.17822686734081011,0.17822686734081011,0.17822686734081011,0.17822686734081011,0.17822686734081011
DP 393,162.43318602883818,0.0057310011081106761,-189.03881484326163,-184.22220094173503,-179.40558704020367,-174.58897313866802,-169.77235923712777,-164.95574533558303,-160.13913143403374,-155.32251753248005,-150.50590363092178,-145.68928972935916,-140.87996336407247,-136.20910156578458,-131.53823976749223,-126.86737796919525,-122.19651617089382,-117.52565437258798,-112.85479257427767,-108.18393077596288,-103.51306897764347,-98.842207179319686,-94.201011719914618,-89.826816114928008,-85.45262050993712,-81.078424904941784,-76.704229299942213,-72.330033694938223,-67.955838089929784,-63.581642484917104,-59.207446879899976,-54.83325127487857,-50.52289573831883,-46.574304612578864,-42.62571348683452,-38.677122361085672,-34.728531235332454,-30.779940109574753,-26.8313489838126,-22.882757858045995,-18.934166732274974,-14.98557560649952,-11.143656399600566,-7.7284299096220233,-4.313203419639132,-0.897976929651854,2.5172495603397684,5.9324760503357972,9.34770254033618,12.762929030340956,16.178155520350074,19.593382010363584,22.8546732672397,25.654153004616767,28.453632741998209,31.253112479384047,34.052592216774258,36.852071954168885,39.651551691567917,42.451031428971312,45.250511166379141,48.049990903791311,50.6481040776251,52.776354005828821,54.904603934036857,57.032853862249333,59.161103790466271,61.289353718687622,63.417603646913378,65.545853575143482,67.674103503378063,69.802353431617078,71.685578188458649,73.113749581231644,74.541920974009145,75.970092366791,77.398263759577318,78.826435152368148,80.254606545163384,81.682777937963053,83.11094933076717,84.5391207235757,85.685508377049345,86.40921376286434,87.1329191486839,87.8566245345078,88.580329920336325,89.304035306169339,90.027740692006788,90.751446077848669,91.475151463695155,92.1988568495461,92.613008949363262,92.648811641931118,92.684614334503507,92.7204170270804,92.7562197196618,92.792022412247817,92.827825104838325,92.863627797433423,92.899430490033055,92.935233182637191,91.405787244397928,90.786847092855652,90.167906941317852,89.548966789784757,88.93002663825628,88.311086486732364,87.692146335213152,87.073206183698488,86.118924899678248,84.890267835076372,83.661610770479143,82.432953705886689,81.204296641298853,79.975639576715736,78.746982512137365,77.518325447563612,76.2896683829946,75.0610113184303,73.497857879778792,71.71170158889133,69.925545298008558,68.139389007130575,66.3532327162575,64.56707642538916,62.780920134525665,60.99476384366686,59.208607552812978,57.422451261963751,55.309739683049848,53.021185892646294,50.7326321022477,48.444078311854,46.155524521465232,43.866970731081366,41.5784169407024,39.289863150328344,37.001309359959237,34.712755569595018,32.110505603119663,29.373809123479649,26.637112643844549,23.90041616421459,21.163719684589584,18.427023204969675,15.690326725354792,12.953630245744849,10.216933766140038,7.4802372865402171,4.4451210785150463,1.3105278667476068,-1.8240653450147213,-4.9586585567719306,-8.09325176852395,-11.227844980270957,-14.362438192012691,-17.49703140374934,-20.631624615480955,-23.766217827207303,-27.183858244649329,-30.6722638077661,-34.160669370877528,-37.649074933983492,-41.1374804970841,-44.625886060179191,-48.114291623268905,-51.6026971863532,-55.091102749432039,-58.579508312505574,-62.338508602559308,-66.145263912307385,-69.952019222049969,-73.758774531787466,-77.565529841519478,-81.372285151246416,-85.179040460967826,-88.985795770684021,-92.792551080394958,-96.599306390100608,-100.66853118935479,-104.76692202177126,-108.86531285418224,-112.96370368658718,-117.0620945189866,-121.16048535138013,-125.25887618376795,-129.35726701614988,-133.45565784852613,-137.55404868089673,-141.91447298302418,-146.28869112752778,-150.66290927202553,-155.03712741651736,-159.41134556100349,-163.78556370548378,-168.15978184995811,-172.53399999442655,-176.90821813888917,-181.28243628334579,0.87168507259409678,0.87168507259409678,0.87168507259409678,0.87168507259409678,0.87168507259409678,0.87168507259409678,0.87168507259409678,0.87168507259409678,0.87168507259409678,0.87168507259409678,0.87168507259409678,0.87168507259409678
DP 394,248.60249757741136,0.0024464485096130383,-110.99556694171216,-107.94540848547919,-104.89525002924428,-101.84509157300742,-98.79493311676859,-95.744774660527838,-92.69461620428514,-89.6444577480404,-86.594299291793774,-83.544140835545193,-80.4998425948907,-77.566889558399822,-74.633936521907145,-71.700983485412507,-68.76803044891588,-65.8350774124174,-62.902124375916905,-59.969171339414565,-57.036218302910278,-54.10326526640403,-51.193801889874578,-48.495747673434849,-45.797693456993322,-43.099639240549905,-40.401585024104655,-37.703530807657494,-35.00547659120847,-32.307422374757572,-29.609368158304832,-26.911313941850203,-24.262609787273092,-21.893559093113506,-19.524508398952,-17.155457704788596,-14.786407010623293,-12.417356316456097,-10.048305622286989,-7.6792549281159781,-5.3102042339430735,-2.9411535397682691,-0.65186640305486121,1.318362734117102,3.2885918712909192,5.2588210084666134,7.2290501456441554,9.1992792828235839,11.169508420004856,13.139737557188022,15.10996669437302,17.080195831559898,18.940025916153751,20.468654668929325,21.997283421706765,23.525912174486066,25.054540927267233,26.583169680050307,28.111798432835208,29.640427185622016,31.169055938410651,32.697684691201175,34.088944420933892,35.159671020059633,36.230397619187251,37.301124218316716,38.371850817448085,39.4425774165813,40.513304015716379,41.584030614853368,42.654757213992191,43.725483813132946,44.638447556088614,45.2584188769904,45.878390197894156,46.498361518799712,47.118332839707172,47.738304160616522,48.358275481527762,48.978246802440921,49.598218123355856,50.218189444272753,50.6681768553607,50.863184384921716,51.058191914484532,51.253199444049258,51.448206973615953,51.64321450318446,51.838222032754892,52.033229562327207,52.228237091901384,52.423244621477558,52.44452318235831,52.253462687918123,52.062402193479869,51.871341699043519,51.680281204609066,51.489220710176546,51.2981602157459,51.107099721317226,50.916039226890433,50.724978732465509,49.302920968178071,48.772309319459879,48.241697670743591,47.711086022029207,47.180474373316862,46.649862724606407,46.119251075897893,45.588639427191268,44.898404199591354,44.07756511874252,43.256726037895525,42.435886957050585,41.615047876207548,40.794208795366508,39.973369714527429,39.152530633690311,38.331691552855204,37.510852472022037,36.54486792496526,35.482117447200558,34.419366969437888,33.356616491677158,32.293866013918482,31.231115536161745,30.168365058407094,29.105614580654372,28.042864102903717,26.980113625155003,25.789107522643569,24.529038834044794,23.2689701454481,22.008901456853419,20.74883276826079,19.48876407967018,18.228695391081608,16.968626702495111,15.708558013910627,14.448489325328202,13.077728230305292,11.659525664160993,10.24132309801872,8.8231205318786063,7.40491796574053,5.9867153996045825,4.5685128334707166,3.150310267338909,1.7321077012092276,0.31390513508162587,-1.1982306491125918,-2.7416786898199392,-4.2851267305251692,-5.8285747712282774,-7.3720228119292228,-8.9154708526281,-10.458918893324768,-12.002366934019351,-13.545814974711835,-15.089263015402134,-16.711746073083656,-18.353988818823147,-19.996231564560421,-21.63847431029545,-23.280717056028248,-24.922959801758779,-26.565202547487068,-28.207445293213119,-29.849688038936929,-31.49193078465855,-33.201245864051131,-34.922397983473843,-36.643550102894309,-38.364702222312665,-40.085854341728719,-41.807006461142677,-43.5281585805544,-45.249310699963949,-46.970462819371285,-48.69161493877651,-50.471118145491076,-52.257105419173641,-54.043092692853868,-55.82907996653168,-57.615067240207189,-59.401054513880226,-61.187041787550974,-62.973029061219215,-64.759016334885246,-66.545003608548811,-68.384907306671664,-70.227649247790211,-72.07039118890637,-73.913133130020057,-75.755875071131413,-77.598617012240325,-79.441358953346821,-81.284100894450816,-83.12684283555248,-84.969584776651573,0.35980404658444254,0.35980404658444254,0.35980404658444254,0.35980404658444254,0.35980404658444254,0.35980404658444254,0.35980404658444254,0.35980404658444254,0.35980404658444254,0.35980404658444254,0.35980404658444254,0.35980404658444254
DP 395,170.29023738840394,0.00113315096087792,-38.786800335160706,-37.790394211371542,-36.793988087581482,-35.797581963790577,-34.801175839998713,-33.804769716205996,-32.808363592412363,-31.81195746861788,-30.815551344822442,-29.819145221026115,-28.824284802426547,-27.858793074788252,-26.893301347149087,-25.927809619509027,-24.962317891868079,-23.996826164226245,-23.031334436583496,-22.065842708939872,-21.100350981295357,-20.134859253649942,-19.175650420375643,-18.27298823031856,-17.370326040260611,-16.4676638502018,-15.565001660142121,-14.662339470081577,-13.759677280020165,-12.857015089957876,-11.954352899894744,-11.05169070983075,-10.162518210952268,-9.3497881455087253,-8.5370580800643214,-7.7243280146190116,-6.9115979491728181,-6.0988678837257471,-5.2861378182777932,-4.4734077528289564,-3.6606776873792395,-2.847947621928645,-2.0576883337925862,-1.357313216904426,-0.65693810001540054,0.043437016874495547,0.7438121337652539,1.4441872506568854,2.144562367549383,2.8449374844427524,3.5453126013369842,4.24568771823208,4.91376286889436,5.48493689963939,6.0561109303852927,6.6272849611320623,7.1984589918797059,7.7696330226282315,8.3408070533776186,8.9119810841278824,9.48315511487901,10.054329145631018,10.583449977363676,11.014445021829358,11.445440066295912,11.876435110763349,12.30743015523165,12.738425199700842,13.169420244170897,13.600415288641843,14.031410333113641,14.462405377586336,14.842510442889234,15.128104172534194,15.413697902180058,15.699291631826783,15.98488536147438,16.270479091122862,16.556072820772243,16.841666550422488,17.127260280073621,17.412854009725645,17.640288119074516,17.780481423634928,17.920674728196225,18.0608680327584,18.201061337321462,18.341254641885435,18.481447946450285,18.621641251016023,18.761834555582631,18.902027860150167,18.978775351743945,18.977976628149257,18.977177904555457,18.976379180962557,18.975580457370544,18.974781733779455,18.973983010189247,18.973184286599956,18.972385563011553,18.971586839424067,18.636285784778106,18.502324855907371,18.368363927037542,18.234402998168637,18.100442069300641,17.966481140433562,17.832520211567392,17.698559282702131,17.496971771258686,17.240052257312822,16.983132743367882,16.726213229423895,16.469293715480806,16.212374201538669,15.955454687597454,15.698535173657165,15.441615659717801,15.184696145779389,14.86093983116738,14.492624596521649,14.124309361876838,13.755994127232977,13.38767889259007,13.019363657948112,12.6510484233071,12.282733188667031,11.914417954027932,11.546102719389763,11.113185131665192,10.645480722078188,10.17777631249219,9.7100719029071385,9.2423674933230675,8.7746630837399664,8.30695867415784,7.83925426457669,7.3715498549965055,6.9038454454172946,6.3747429337706487,5.8193259134798989,5.263908893190119,4.7084918729013534,4.1530748526135666,3.5976578323267918,3.0422408120410083,2.4868237917562039,1.9314067714724088,1.3759897511896058,0.76281864299847446,0.130395444306159,-0.50202775438514513,-1.134450953075437,-1.7668741517647029,-2.3992973504529784,-3.03172054914021,-3.6641437478264351,-4.29656694651167,-4.9289901451958613,-5.6155663205424347,-6.3156813798802194,-7.0157964392169614,-7.715911498552626,-8.4160265578872231,-9.1161416172207232,-9.8162566765531754,-10.516371735884549,-11.216486795214847,-11.9166018545441,-12.667922605659482,-13.428280224739677,-14.188637843818805,-14.94899546289691,-15.709353081973948,-16.469710701049966,-17.230068320124907,-17.990425939198818,-18.750783558271678,-19.511141177343493,-20.320698222725955,-21.135722387741282,-21.950746552755483,-22.765770717768532,-23.580794882780467,-24.395819047791257,-25.210843212800913,-26.025867377809369,-26.840891542816767,-27.655915707823002,-28.519742292462123,-29.386137911067014,-30.252533529670789,-31.118929148273349,-31.985324766874793,-32.85172038547509,-33.718116004074247,-34.584511622672196,-35.450907241269022,-36.31730285986464,0.1722297144983547,0.1722297144983547,0.1722297144983547,0.1722297144983547,0.1722297144983547,0.1722297144983547,0.1722297144983547,0.1722297144983547,0.1722297144983547,0.1722297144983547,0.1722297144983547,0.1722297144983547
DP 396,195.34398050085531,0.0019119792480040854,-72.744258236764082,-70.830186649571388,-68.916115062377145,-67.002043475181338,-65.087971887984025,-63.173900300785178,-61.259828713584788,-59.345757126382907,-57.431685539179455,-55.517613951974468,-53.606741307433012,-51.756649178269008,-49.906557049103533,-48.0564649199365,-46.206372790767958,-44.356280661597914,-42.506188532426343,-40.656096403253279,-38.806004274078695,-36.955912144902591,-35.118763604951617,-33.3981085914899,-31.677453578026721,-29.956798564562078,-28.236143551095953,-26.515488537628364,-24.794833524159305,-23.074178510688739,-21.353523497216752,-19.632868483743284,-17.939809092567234,-16.403126633341188,-14.866444174113637,-13.329761714884608,-11.793079255654076,-10.256396796422035,-8.7197143371884973,-7.1830318779534732,-5.6463494187169418,-4.1096669594789175,-2.6185053616464189,-1.3094293607931864,-0.00035335993848977225,1.3087226409176853,2.6177986417753214,3.9268746426344379,5.2359506434950234,6.5450266443570859,7.8541026452206193,9.1631786460856084,10.407621267343917,11.458161306080534,12.508701344818608,13.559241383558158,14.609781422299207,15.660321461041725,16.710861499785711,17.761401538531196,18.811941577278144,19.862481616026585,20.830106090165749,21.604257648005454,22.378409205846641,23.152560763689305,23.926712321533444,24.700863879379092,25.475015437226176,26.249166995074788,27.023318552924842,27.797470110776406,28.472988562702685,28.965328582781364,29.457668602861514,29.950008622943155,30.442348643026271,30.93468866311089,31.427028683197008,31.919368703284611,32.411708723373671,32.904048743464251,33.285833033640422,33.501781116471413,33.717729199303918,33.933677282137864,34.149625364973375,34.365573447810377,34.581521530648871,34.797469613488857,35.013417696330364,35.229365779173349,35.327289400620991,35.280958423508146,35.234627446396814,35.188296469287,35.141965492178755,35.095634515072,35.049303537966757,35.002972560863043,34.95664158376082,34.910310606660147,34.166587016473372,33.878363318544551,33.590139620617293,33.301915922691563,33.013692224767368,32.7254685268447,32.437244828923617,32.149021131004019,31.741099812022828,31.235242018720093,30.729384225418933,30.223526432119368,29.717668638821333,29.211810845524898,28.70595305223,28.200095258936692,27.694237465644907,27.188379672354738,26.567509865996371,25.869963572409716,25.172417278824661,24.474870985241179,23.777324691659345,23.079778398079039,22.382232104500368,21.68468581092327,20.987139517347803,20.28959322377391,19.484218047892892,18.62077959813352,17.757341148375797,16.8939026986197,16.030464248865215,15.167025799112386,14.303587349361173,13.44014889961162,12.576710449863677,11.713272000117378,10.750657463775786,9.74553721634333,8.7404169689125162,7.73529672148342,6.7301764740559609,5.7250562266301932,4.7199359792060944,3.7148157317836437,2.7096954843628915,1.7045752369437999,0.609358399896928,-0.5158917691646514,-1.6411419382245351,-2.7663921072827176,-3.8916422763391783,-5.0168924453939736,-6.14214261444702,-7.2673927834983765,-8.3926429525480675,-9.51789312159601,-10.724630118775933,-11.951739785767936,-13.178849452758163,-14.405959119746589,-15.633068786733222,-16.860178453718049,-18.087288120701075,-19.314397787682307,-20.541507454661737,-21.768617121639398,-23.070118466304958,-24.384748581337384,-25.699378696368008,-27.014008811396955,-28.328638926424041,-29.64326904144944,-30.957899156473065,-32.272529271494967,-33.587159386515054,-34.901789501533436,-36.28570725136445,-37.677324354968292,-39.068941458570251,-40.460558562170284,-41.852175665768463,-43.243792769364667,-44.635409872958974,-46.027026976551383,-47.418644080141945,-48.810261183730489,-50.269141932201038,-51.731563541752742,-53.193985151302613,-54.656406760850459,-56.118828370396379,-57.5812499799403,-59.043671589482365,-60.506093199022438,-61.968514808560535,-63.430936418096685,0.28869789440614685,0.28869789440614685,0.28869789440614685,0.28869789440614685,0.28869789440614685,0.28869789440614685,0.28869789440614685,0.28869789440614685,0.28869789440614685,0.28869789440614685,0.28869789440614685,0.28869789440614685
DP 397,100.85029122469579,0.0032424346749407489,-73.626868833409631,-71.902001764516825,-70.177134695621774,-68.452267626724463,-66.727400557824865,-65.0025334889231,-63.277666420018974,-61.552799351112746,-59.827932282204223,-58.103065213293455,-56.380261403752215,-54.696659912321032,-53.0130584208875,-51.329456929451823,-49.645855438013832,-47.962253946573661,-46.278652455131223,-44.595050963686539,-42.9114494722396,-41.227847980790429,-39.552754628447133,-37.954235332278508,-36.355716036107729,-34.757196739934749,-33.158677443759558,-31.560158147582182,-29.961638851402583,-28.363119555220795,-26.7646002590368,-25.166080962850625,-23.586216428733756,-22.112063388540552,-20.6379103483451,-19.163757308147378,-17.689604267947416,-16.215451227745213,-14.741298187540746,-13.267145147334039,-11.792992107125096,-10.318839066913885,-8.87668329881175,-7.5625181313695657,-6.2483529639251616,-4.9341877964785139,-3.6200226290296516,-2.3058574615785434,-0.99169229412521365,0.32247287333035279,1.6366380407881427,2.9508032082481579,4.2172430181409393,5.3405049508977944,6.463766883656902,7.5870288164182593,8.710290749181878,9.8335526819477455,10.956814614715871,12.080076547486245,13.203338480258855,14.326600413033752,15.384876389890945,16.291515910203497,17.19815543051833,18.104794950835434,19.011434471154821,19.918073991476469,20.824713511800411,21.731353032126616,22.637992552455113,23.544632072785873,24.368392894281016,25.038233893988657,25.7080748936986,26.377915893410847,27.047756893125396,27.717597892842253,28.387438892561441,29.057279892282864,29.727120892006656,30.396961891732726,30.966225040711159,31.384619036875158,31.803013033041488,32.221407029210148,32.639801025381175,33.058195021554511,33.47658901773017,33.894983013908231,34.313377010088566,34.731771006271288,35.032785240944378,35.190332857125647,35.347880473309289,35.505428089495318,35.662975705683728,35.820523321874539,35.978070938067731,36.135618554263282,36.293166170461248,36.450713786661559,36.259642029089221,36.151703300945769,36.043764572804719,35.935825844666141,35.827887116529965,35.719948388396254,35.61200966026496,35.5040709321361,35.249794854816791,34.875785704157089,34.501776553499866,34.127767402845123,33.753758252192817,33.379749101543105,33.005739950895837,32.631730800251006,32.25772164960874,31.883712498968936,31.351668259261075,30.714264803891478,30.076861348524424,29.439457893159961,28.802054437798024,28.1646509824386,27.527247527081812,26.88984407172752,26.252440616375811,25.615037161026653,24.809711454898487,23.913963633390537,23.018215811885245,22.122467990382514,21.226720168882412,20.33097234738494,19.435224525890082,18.539476704397853,17.64372888290821,16.747981061421196,15.67597667178072,14.528430777923443,13.380884884068823,12.23333899021697,11.08579309636778,9.93824720252132,8.7907013086775709,7.643155414836488,6.4956095209981433,5.3480636271624995,4.0170276792579624,2.6248260675024797,1.2326244557497568,-0.15957715600020236,-1.5517787677473693,-2.9439803794918169,-4.3361819912334356,-5.7283836029723032,-7.1205852147084512,-8.5127868264417721,-10.095024023904616,-11.724772363099744,-13.354520702291973,-14.984269041481239,-16.614017380667576,-18.243765719850924,-19.873514059031361,-21.50326239820885,-23.133010737383398,-24.762759076555017,-26.589309305888808,-28.450591469010266,-30.311873632128798,-32.17315579524454,-34.034437958357344,-35.895720121467292,-37.757002284574362,-39.618284447678533,-41.479566610779841,-43.340848773878342,-45.405972321057462,-47.493747051726629,-49.581521782392649,-51.669296513055542,-53.757071243715288,-55.8448459743719,-57.932620705025315,-60.0203954356755,-62.108170166322715,-64.1959448969667,-66.496149046085392,-68.807535804500475,-71.118922562912431,-73.43030932132109,-75.741696079726566,-78.053082838128915,-80.364469596527954,-82.675856354923724,-84.98724311331631,-87.298629871705643,0.47211277575065291,0.47211277575065291,0.47211277575065291,0.47211277575065291,0.47211277575065291,0.47211277575065291,0.47211277575065291,0.47211277575065291,0.47211277575065291,0.47211277575065291,0.47211277575065291,0.47211277575065291
DP 398,101.22116592145187,0.0018242815401685428,-41.539489096024056,-40.565692966926079,-39.59189683782688,-38.618100708726381,-37.644304579624645,-36.670508450521623,-35.696712321417344,-34.722916192311821,-33.749120063205041,-32.775323934096988,-31.802694628841746,-30.852235197394332,-29.901775765945697,-28.951316334495743,-28.000856903044571,-27.05039747159211,-26.099938040138419,-25.149478608683435,-24.199019177227182,-23.248559745769679,-22.302911455709982,-21.400563892998157,-20.498216330285082,-19.595868767570796,-18.693521204855248,-17.791173642138471,-16.888826079420436,-15.986478516701162,-15.084130953980663,-14.181783391258929,-13.289982585539022,-12.457947400767274,-11.625912215994253,-10.793877031219965,-9.961841846444413,-9.1298066616675939,-8.2977714768895083,-7.4657362921101473,-6.6337011073295287,-5.8016659225476443,-4.9877193724372111,-4.246128215899895,-3.5045370593613274,-2.7629459028214995,-2.0213547462804233,-1.279763589738083,-0.53817243319448971,0.20341872335036321,0.94500987989646756,1.6866010364438282,2.4012193500930752,3.0349181152395923,3.6686168803873724,4.3023156455364227,4.9360144106867478,5.569713175838344,6.2034119409912032,6.8371107061453307,7.4708094713007247,8.1045082364573968,8.7014884305458633,9.21279051268669,9.72409259482878,10.235394676972161,10.746696759116833,11.257998841262774,11.76930092341,12.280603005558506,12.791905087708297,13.303207169859384,13.767696055502457,14.145244883385885,14.522793711270618,14.900342539156641,15.277891367043971,15.655440194932599,16.03298902282252,16.410537850713741,16.788086678606252,17.16563550650007,17.48639314389111,17.721962653530436,17.95753216317112,18.193101672813103,18.4286711824564,18.664240692101025,18.89981020174697,19.135379711394233,19.370949221042789,19.606518730692681,19.775837267177664,19.864181000429703,19.952524733683081,20.040868466937805,20.129212200193891,20.217555933451305,20.305899666710086,20.394243399970183,20.482587133231625,20.570930866494422,20.461511453463011,20.400074658453292,20.338637863444976,20.277201068438007,20.215764273432402,20.154327478428183,20.092890683425342,20.03145388842384,19.887497813633782,19.676024546318477,19.464551279004581,19.253078011692057,19.041604744380962,18.830131477071269,18.618658209762984,18.407184942456091,18.195711675150594,17.984238407846519,17.683693972437865,17.323767355104231,16.963840737772038,16.603914120441289,16.243987503111981,15.884060885784095,15.524134268457676,15.164207651132671,14.804281033809112,14.444354416486986,13.989834127696961,13.484377409482097,12.978920691268698,12.473463973056768,11.968007254846315,11.462550536637339,10.957093818429824,10.451637100223804,9.94618038201924,9.4407236638161525,8.8360315353722712,8.1888082704170255,7.5415850054632871,6.8943617405110951,6.2471384755603987,5.5999152106112495,4.9526919456636174,4.3054686807174933,3.6582454157729103,3.0110221508298443,2.2605439035160453,1.4756460274399519,0.69074815136541634,-0.094149724707565691,-0.87904760077897537,-1.6639454768488531,-2.4488433529171396,-3.2337412289838747,-4.0186391050490808,-4.8035369811126936,-5.6953204952104723,-6.6138266816871658,-7.5323328681622383,-8.45083905463563,-9.3693452411073661,-10.287851427577438,-11.206357614045872,-12.124863800512623,-13.043369986977728,-13.961876173441198,-14.991027831915744,-16.039706392314997,-17.088384952712598,-18.137063513108647,-19.185742073503029,-20.234420633895823,-21.283099194286962,-22.331777754676516,-23.380456315064414,-24.429134875450757,-25.592378677656381,-26.768353154380037,-27.944327631101931,-29.120302107822024,-30.296276584540408,-31.472251061256944,-32.648225537971761,-33.824200014684735,-35.000174491396024,-36.176148968105473,-37.471491288436,-38.773117314513854,-40.074743340589883,-41.376369366664107,-42.677995392736477,-43.979621418807135,-45.281247444875923,-46.582873470942857,-47.884499497008065,-49.186125523071333,0.2658151752618087,0.2658151752618087,0.2658151752618087,0.2658151752618087,0.2658151752618087,0.2658151752618087,0.2658151752618087,0.2658151752618087,0.2658151752618087,0.2658151752618087,0.2658151752618087,0.2658151752618087
DP 399,71.1248824574722,0.0017285805085493558,-30.606587689408261,-29.933856062750408,-29.261124436091631,-28.588392809431831,-27.915661182771064,-27.242929556109338,-26.570197929446646,-25.897466302782973,-25.224734676118324,-24.552003049452715,-23.879968768189375,-23.221184181415616,-22.562399594640929,-21.903615007865227,-21.244830421088569,-20.586045834310944,-19.927261247532325,-19.268476660752714,-18.609692073972127,-17.950907487190566,-17.295019665195163,-16.66520300009028,-16.035386334984434,-15.405569669877618,-14.77575300476982,-14.145936339661052,-13.5161196745513,-12.886303009440589,-12.256486344328886,-11.626669679216212,-11.003270612798868,-10.416238343394662,-9.8292060739894627,-9.2421738045832544,-8.6551415351760674,-8.0681092657678679,-7.4810769963586772,-6.8940447269484766,-6.30701245753728,-5.7199801881250947,-5.1441161480288455,-4.6129255530188988,-4.0817349580079529,-3.5505443629960016,-3.01935376798305,-2.4881631729690943,-1.9569725779541383,-1.4257819829381795,-0.89459138792122028,-0.36340079290326,0.1508250556039343,0.61415602316323359,1.0774869907235527,1.54081795828489,2.0041489258472507,2.4674798934106303,2.9308108609750283,3.3941418285404463,3.8574727961068787,4.3208037636743395,4.7605199461066139,5.1451340331809465,5.5297481202563192,5.9143622073327329,6.298976294410183,6.6835903814886812,7.068204468568215,7.4528185556487756,7.8374326427303806,8.2220467298130249,8.57575883009302,8.8720806917666977,9.1684025534414335,9.4647244151172352,9.761046276794092,10.057368138472011,10.353690000150996,10.650011861831038,10.946333723512144,11.242655585194298,11.500363223580543,11.700148614554033,11.899934005528603,12.099719396504261,12.299504787480997,12.499290178458828,12.699075569437728,12.898860960417727,13.098646351398811,13.29843174238097,13.451669545227666,13.54801487374267,13.644360202258774,13.740705530776005,13.837050859294344,13.933396187813777,14.029741516334346,14.126086844856031,14.222432173378802,14.31877750190271,14.33516165097798,14.322446038735137,14.309730426493442,14.297014814252861,14.284299202013447,14.271583589775181,14.258867977538049,14.246152365302059,14.171022482972717,14.044825307024084,13.918628131076636,13.792430955130357,13.666233779185275,13.540036603241358,13.413839427298628,13.287642251357088,13.161445075416708,13.035247899477509,12.838953781277267,12.595927263959487,12.352900746642932,12.109874229327584,11.866847712013447,11.62382119470054,11.380794677388845,11.137768160078368,10.894741642769114,10.651715125461065,10.331174989970068,9.9688956251969181,9.6066162604250227,9.2443368956543761,8.8820575308849978,8.5197781661168648,8.1574988013499876,7.7952194365843681,7.4329400718200027,7.0706607070568825,6.6237467081710024,6.1405592946972467,5.6573718812247735,5.1741844677536317,4.690997054283776,4.2078096408152348,3.724622227347997,3.2414348138820506,2.7582474004174187,2.275059986954088,1.7003857900216774,1.0952148456068211,0.490043901193302,-0.11512704321887954,-0.72029798762971131,-1.3254689320392241,-1.9306398764473707,-2.5358108208541861,-3.140981765259685,-3.7461527096638174,-4.4493686895406892,-5.1770970867031085,-5.9048254838641165,-6.6325538810236768,-7.36028227818182,-8.08801067533851,-8.815739072493777,-9.5434674696476058,-10.271195866800008,-10.998924263951,-11.831178265077103,-12.681879123361986,-13.532579981645453,-14.38328083992756,-15.233981698208218,-16.084682556487518,-16.935383414765386,-17.786084273041872,-18.636785131316955,-19.487485989590652,-20.448887111527121,-21.422589425372987,-22.396291739217329,-23.369994053060097,-24.343696366901362,-25.317398680741007,-26.291100994579153,-27.2648033084157,-28.238505622250784,-29.212207936084241,-30.302891068530467,-31.399732250079047,-32.496573431626054,-33.593414613171454,-34.69025579471527,-35.78709697625758,-36.883938157798262,-37.980779339337275,-39.077620520874774,-40.174461702410625,0.22791289141422041,0.22791289141422041,0.22791289141422041,0.22791289141422041,0.22791289141422041,0.22791289141422041,0.22791289141422041,0.22791289141422041,0.22791289141422041,0.22791289141422041,0.22791289141422041,0.22791289141422041
DP 400,92.628094133042453,0.003242950741118549,-69.115933905657286,-67.521476341355637,-65.927018777051828,-64.33256121274573,-62.7381036484376,-61.143646084127241,-59.549188519814741,-57.9547309555001,-56.360273391183291,-54.765815826864319,-53.173194036424604,-51.615452296774109,-50.057710557121396,-48.499968817466517,-46.94222707780952,-45.384485338150355,-43.826743598489017,-42.269001858825533,-40.711260119159867,-39.153518379492063,-37.603362264924371,-36.121477493281851,-34.639592721637172,-33.157707949990375,-31.675823178341492,-30.19393840669046,-28.712053635037293,-27.230168863382,-25.748284091724621,-24.266399320065087,-22.80119232582587,-21.430493787920035,-20.059795250012041,-18.689096712101868,-17.318398174189539,-15.94769963627501,-14.577001098358298,-13.206302560439447,-11.835604022518407,-10.464905484595212,-9.1229261335388241,-7.89582488724823,-6.6687236409554886,-5.44162239466057,-4.2145211483635183,-2.98741990206429,-1.7603186557629094,-0.53321740945936891,0.69388383684632149,1.92098508315417,3.1050396124218667,4.159952363027986,5.2148651136362822,6.269777864246767,7.3246906148594322,8.37960336547428,9.4345161160913165,10.489428866710529,11.544341617331922,12.599254367955497,13.595201622114676,14.453560395563906,15.311919169015358,16.170277942469014,17.028636715924851,17.886995489382922,18.745354262843204,19.603713036305681,20.462071809770382,21.32043058323729,22.103059935406961,22.745046888577658,23.387033841750625,24.029020794925827,24.671007748103271,25.312994701282939,25.954981654464863,26.596968607649028,27.238955560835418,27.880942514024046,28.430288946818898,28.840672409892157,29.25105587296769,29.661439336045525,30.071822799125602,30.482206262207971,30.892589725292623,31.302973188379564,31.713356651468757,32.123740114560256,32.425035303282584,32.592998087512207,32.760960871744139,32.928923655978451,33.096886440215052,33.264849224454,33.432812008695215,33.6007747929388,33.7687375771847,33.936700361432926,33.8176579235071,33.736447920451923,33.655237917399106,33.574027914348683,33.492817911300627,33.411607908254943,33.330397905211626,33.249187902170689,33.02917086689979,32.695582056124529,32.361993245351705,32.028404434581311,31.694815623813323,31.361226813047814,31.027638002284728,30.694049191524069,30.360460380765861,30.026871570010055,29.541687487705719,28.955437502869405,28.369187518035588,27.7829375332043,27.196687548375486,26.61043756354918,26.024187578725371,25.437937593904042,24.851687609085246,24.265437624268937,23.516230802367755,22.679275621589447,21.842320440813662,21.005365260040456,20.16841007926979,19.331454898501693,18.494499717736151,17.6575445369732,16.820589356212775,15.983634175454911,14.973629962397714,13.889458957486367,12.80528795257762,11.721116947671597,10.636945942768183,9.5527749378674418,8.4686039329693585,7.3844329280739007,6.300261923181119,5.2160909182909876,3.9497207037676438,2.6226151231401906,1.2955095425154466,-0.0315960381065838,-1.3587016187258738,-2.6858071993424928,-4.012912779956336,-5.3400183605674805,-6.6671239411759471,-7.9942295217816479,-9.5120145037213142,-11.07747158890119,-12.642928674078236,-14.208385759252364,-15.773842844423605,-17.339299929591924,-18.90475701475739,-20.470214099919929,-22.035671185079604,-23.601128270236405,-25.36583654967734,-27.165709020281795,-28.965581490883356,-30.76545396148224,-32.56532643207818,-34.365198902671331,-36.165071373261632,-37.964943843849092,-39.764816314433808,-41.564688785015676,-43.572385361621052,-45.6031756882049,-47.63396601478572,-49.664756341363315,-51.695546667937947,-53.726336994509346,-55.757127321077732,-57.787917647642928,-59.818707974205083,-61.849498300764083,-64.097825806867917,-66.357604802618411,-68.617383798365708,-70.87716279410985,-73.136941789850852,-75.396720785588741,-77.6564997813234,-79.916278777054785,-82.176057772783054,-84.435836768508111,0.46351760055744096,0.46351760055744096,0.46351760055744096,0.46351760055744096,0.46351760055744096,0.46351760055744096,0.46351760055744096,0.46351760055744096,0.46351760055744096,0.46351760055744096,0.46351760055744096,0.46351760055744096
DP 401,261.07940487635824,0.0034011718936913463,-159.63026034398052,-155.20329342825468,-150.77632651252617,-146.34935959679493,-141.922392681061,-137.49542576532431,-133.06845884958494,-128.64149193384287,-124.21452501809833,-119.7875581023508,-115.36935350793053,-111.11763467524418,-106.86591584255514,-102.61419700986342,-98.362478177169038,-94.1107593444721,-89.859040511772321,-85.607321679069955,-81.355602846364775,-77.103884013657165,-72.887213392222876,-68.985979985089941,-65.084746577954391,-61.183513170816283,-57.28227976367554,-53.381046356532281,-49.479812949386343,-45.578579542237819,-41.677346135086772,-37.776112727933118,-33.9482604616072,-30.536239284059786,-27.124218106509755,-23.712196928957095,-20.300175751401817,-16.888154573843895,-13.476133396283332,-10.064112218720132,-6.6520910411543133,-3.2400698635858665,0.053905272633815129,2.8756906644992783,5.6974760563673046,8.5192614482379341,11.341046840111114,14.162832231986902,16.984617623865258,19.806403015746209,22.628188407629743,25.449973799515817,28.10933627998887,30.281423885231916,32.453511490477574,34.625599095725811,36.797686700976634,38.969774306230072,41.141861911486089,43.313949516744643,45.48603712200579,47.658124727269559,49.629528548757349,51.132662304375089,52.635796059995371,54.138929815618262,55.642063571243739,57.145197326871759,58.648331082502459,60.151464838135645,61.654598593771539,63.157732349409976,64.432239860463412,65.282149600116028,66.132059339771246,66.981969079429049,67.83187881908944,68.681788558752515,69.531698298418135,70.381608038086384,71.231517777757162,72.081427517430569,72.6872111013632,72.92679968289174,73.166388264422963,73.405976845956758,73.6455654274932,73.885154009032235,74.124742590573916,74.364331172118227,74.60391975366511,74.843508335214679,74.836046529347982,74.526629060734976,74.21721159212467,73.907794123516922,73.598376654911846,73.288959186309484,72.979541717709708,72.670124249112519,72.360706780518044,72.051289311926155,69.928736387618258,69.141597808528417,68.354459229441275,67.567320650356734,66.780182071274965,65.99304349219581,65.205904913119369,64.418766334045486,63.409608254607278,62.218794041124987,61.027979827645446,59.837165614168569,58.6463514006944,57.455537187222973,56.264722973754274,55.073908760288333,53.883094546825021,52.692280333364465,51.302036297158956,49.778835904058958,48.255635510961731,46.732435117867254,45.209234724775591,43.686034331686592,42.162833938600443,40.639633545517,39.1164331524364,37.593232759358465,35.89608789457273,34.105278092487275,32.314468290404669,30.523658488324831,28.732848686247831,26.942038884173627,25.151229082102187,23.360419280033625,21.5696094779678,19.778799675904818,17.839936701114048,15.837619867614391,13.835303034117558,11.832986200623688,9.8306693671326446,7.8283525336445434,5.82603570015931,3.8237188666769195,1.8214020331974696,-0.18091480027911339,-2.3070124438642745,-4.4743719174738912,-6.6417313910805822,-8.8090908646843324,-10.976450338285112,-13.143809811883028,-15.311169285477909,-17.478528759069889,-19.645888232658983,-21.813247706245058,-24.083107864023077,-26.378594403909311,-28.674080943792561,-30.969567483672648,-33.265054023549666,-35.560540563423579,-37.8560271032944,-40.151513643162083,-42.447000183026709,-44.742486722888323,-47.1235378051092,-49.519689463940807,-51.91584112276928,-54.311992781594924,-56.708144440417293,-59.104296099236841,-61.500447758053241,-63.896599416866614,-66.292751075677,-68.688902734484429,-71.158309377146523,-73.635856231807125,-76.113403086464444,-78.59094994111851,-81.068496795769235,-83.546043650416678,-86.023590505060923,-88.5011373597017,-90.97868421433941,-93.45623106897375,-96.000656767928731,-98.548603071473863,-101.09654937501563,-103.64449567855409,-106.19244198208914,-108.74038828562107,-111.28833458914947,-113.83628089267457,-116.38422719619631,-118.93217349971465,0.49652518826276087,0.49652518826276087,0.49652518826276087,0.49652518826276087,0.49652518826276087,0.49652518826276087,0.49652518826276087,0.49652518826276087,0.49652518826276087,0.49652518826276087,0.49652518826276087,0.49652518826276087
DP 402,192.11402212359084,0.0029668488485660453,-111.45747814478651,-108.53334948118417,-105.6092208175794,-102.68509215397236,-99.760963490362954,-96.836834826751144,-93.912706163136917,-90.988577499520346,-88.0644488359015,-85.140320172280155,-82.221033644741752,-79.393748618199311,-76.566463591654568,-73.739178565107352,-70.911893538557933,-68.084608512006128,-65.257323485451948,-62.430038458895424,-59.602753432336513,-56.775468405775321,-53.967786786277365,-51.336537683316486,-48.70528858035334,-46.074039477387956,-43.442790374420241,-40.811541271450231,-38.180292168477969,-35.5490430655034,-32.917793962526588,-30.286544859547444,-27.697129387572364,-25.344773794089146,-22.992418200603641,-20.640062607115794,-18.287707013625617,-15.935351420133141,-13.58299582663833,-11.230640233141175,-8.8782846396417145,-6.5259290461399377,-4.2426652985954743,-2.2357722002237193,-0.22887910184969107,1.7780139965266317,3.7849070949052224,5.79180019328611,7.79869329166927,9.8055863900547315,11.812479488442449,13.819372586832461,15.728009526469245,17.341874274912321,18.95573902335768,20.569603771805347,22.183468520255289,23.797333268707519,25.411198017162057,27.02506276561887,28.638927514077945,30.252792262539351,31.7403708133034,32.933276595787994,34.126182378274926,35.319088160764139,36.511993943255654,37.704899725749463,38.897805508245582,40.090711290743954,41.2836170732447,42.476522855747724,43.518874792236893,44.281622663105907,45.044370533977265,45.80711840485089,46.569866275726852,47.332614146605138,48.095362017485755,48.858109888368645,49.620857759253823,50.383605630141354,50.977184966947355,51.317007505114937,51.656830043284813,51.996652581457028,52.336475119631565,52.676297657808405,53.016120195987639,53.355942734169226,53.695765272353093,54.03558781053929,54.194318465572891,54.1317107929591,54.069103120347691,54.006495447738637,53.943887775131941,53.8812801025276,53.81867242992552,53.756064757325944,53.693457084728635,53.63084941213372,52.51236216320045,52.077488094413404,51.642614025628795,51.207739956846531,50.772865888066647,50.337991819289151,49.903117750514092,49.468243681741392,48.848555612487615,48.077652912133985,47.306750211782763,46.535847511434,45.764944811087609,44.994042110743685,44.223139410402148,43.452236710063147,42.681334009726527,41.910431309392351,40.961320240724156,39.893400785749023,38.825481330776405,37.757561875806218,36.689642420838567,35.621722965873353,34.553803510910626,33.485884055950393,32.417964600992633,31.350045146037335,30.114406970080005,28.788456274659346,27.462505579241245,26.136554883825653,24.810604188412576,23.484653493002078,22.158702797594049,20.832752102188611,19.506801406785655,18.18085071138524,16.700004371912385,15.152771570519013,13.605538769128184,12.058305967740038,10.51107316635442,8.9638403649714427,7.4166075635910467,5.8693747622132122,4.3221419608380174,2.7749091594654014,1.0863420058567865,-0.64933837971016961,-2.3850187652744888,-4.1206991508361677,-5.8563795363951749,-7.592059921951595,-9.3277403075052927,-11.063420693056381,-12.799101078604858,-14.534781464150642,-16.398877884353798,-18.295079830476006,-20.191281776595481,-22.087483722712157,-23.983685668826062,-25.879887614937115,-27.776089561045421,-29.672291507150909,-31.568493453253645,-33.464695399353637,-35.478663660210294,-37.513415521483729,-39.548167382754293,-41.582919244022335,-43.617671105287542,-45.652422966550056,-47.687174827809734,-49.721926689066784,-51.756678550321112,-53.791430411572712,-55.936315624788783,-58.093439033770352,-60.250562442749,-62.407685851724665,-64.564809260697444,-66.721932669667126,-68.879056078633937,-71.036179487597749,-73.193302896558592,-75.350426305516464,-77.61477186411652,-79.884761760566263,-82.154751657013,-84.42474155345667,-86.694731449897361,-88.964721346335025,-91.234711242769663,-93.504701139201188,-95.774691035629715,-98.044680932055158,0.44849055381279468,0.44849055381279468,0.44849055381279468,0.44849055381279468,0.44849055381279468,0.44849055381279468,0.44849055381279468,0.44849055381279468,0.44849055381279468,0.44849055381279468,0.44849055381279468,0.44849055381279468
DP 403,72.691231064017956,0.0039813451180995873,-71.53359867774715,-69.954956765173762,-68.376314852598128,-66.797672940020178,-65.21903102744,-63.640389114857491,-62.061747202272706,-60.48310528968571,-58.904463377096384,-57.325821464504713,-55.748828736789982,-54.20317083354395,-52.657512930295688,-51.1118550270451,-49.566197123792271,-48.020539220537067,-46.474881317279632,-44.929223414019887,-43.383565510757833,-41.837907607493484,-40.2990971008116,-38.821913810617836,-37.344730520421855,-35.867547230223536,-34.390363940022965,-32.913180649820092,-31.435997359614994,-29.958814069407552,-28.481630779197868,-27.004447488985903,-25.54242551246789,-24.166318602275602,-22.790211692081005,-21.414104781884056,-20.03799787168478,-18.661890961483163,-17.285784051279197,-15.909677141072933,-14.533570230864321,-13.157463320653374,-11.807720935138766,-10.563437894425206,-9.3191548537093247,-8.074871812991093,-6.83058877227053,-5.5863057315476192,-4.3420226908223754,-3.097739650094788,-1.8534566093648694,-0.6091735686326093,0.59509945771179273,1.679340928164663,2.7635823986199117,3.847823869077537,4.9320653395375471,6.0163068099999384,7.1005482804646984,8.1847897509318539,9.2690312214013613,10.353272691873267,11.381885833915661,12.28069735209481,13.179508870276395,14.078320388460391,14.977131906646814,15.875943424835656,16.774754943026906,17.673566461220588,18.572377979416707,19.471189497615246,20.297304648667506,20.988410297483505,21.67951594630199,22.370621595122941,23.061727243946372,23.752832892772272,24.443938541600637,25.135044190431483,25.826149839264779,26.51725548810056,27.117661309953721,27.58201524806125,28.04636918617134,28.510723124283896,28.975077062399034,29.439431000516691,29.903784938636861,30.368138876759545,30.832492814884795,31.296846753012538,31.652045295215583,31.873829394059292,32.095613492905578,32.317397591754428,32.539181690605886,32.760965789459945,32.982749888316576,33.204533987175822,33.426318086037654,33.648102184902058,33.675224070886053,33.641715522903,33.608206974922581,33.574698426944842,33.541189878969753,33.507681330997308,33.474172783027569,33.44066423506046,33.261324891464945,32.962666936148885,32.664008980835568,32.365351025525015,32.066693070217177,31.768035114912134,31.469377159609778,31.170719204310174,30.872061249013331,30.573403293719259,30.111275100408665,29.540164173181186,28.969053245956527,28.397942318734696,27.826831391515721,27.255720464299532,26.684609537086207,26.1134986098757,25.542387682668014,24.971276755463158,24.219742805143195,23.371055372556285,22.522367939972327,21.67368050739125,20.82499307481309,19.976305642237868,19.127618209665535,18.278930777096146,17.430243344529639,16.581555911966067,15.536230369542942,14.406628032440635,13.277025695341308,12.14742335824508,11.017821021151835,9.8882186840616413,8.7586163469744687,7.6290140098902928,6.4994116728091722,5.3698093357310741,4.0280101084871136,2.615475910239,1.202941711993986,-0.20959248624792212,-1.6221266844866971,-3.0346608827224122,-4.4471950809549545,-5.8597292791844078,-7.2722634774108,-8.6847976756340248,-10.32439425192403,-12.02075910550808,-13.717123959088848,-15.413488812666268,-17.109853666240394,-18.806218519811146,-20.502583373378613,-22.19894822694274,-23.895313080503545,-25.591677934061053,-27.52981240803733,-29.51061479765897,-31.491417187277339,-33.472219576892527,-35.453021966504409,-37.433824356113107,-39.414626745718458,-41.395429135320633,-43.376231524919518,-45.357033914515206,-47.593640603049593,-49.858672678013733,-52.123704752974291,-54.388736827931204,-56.653768902884707,-58.918800977834458,-61.183833052780706,-63.448865127723266,-65.713897202662281,-67.9789292775977,-70.514124626033777,-73.063541782144014,-75.6129589382506,-78.162376094353476,-80.711793250452658,-83.26121040654823,-85.810627562640136,-88.360044718728261,-90.909461874812777,-93.458879030893456,0.529170345806957,0.529170345806957,0.529170345806957,0.529170345806957,0.529170345806957,0.529170345806957,0.529170345806957,0.529170345806957,0.529170345806957,0.529170345806957,0.529170345806957,0.529170345806957
DP 404,121.10504331267167,0.0025664189057951797,-67.11597037263688,-65.491382076496478,-63.866793780354115,-62.242205484209912,-60.617617188063726,-58.993028891915635,-57.368440595765612,-55.743852299613764,-54.11926400346001,-52.4946757073043,-50.872206453312735,-49.289999401066837,-47.707792348819133,-46.125585296569461,-44.543378244317907,-42.961171192064448,-41.378964139809163,-39.796757087551953,-38.214550035292817,-36.632342983031769,-35.058834411105728,-33.563612984405054,-32.068391557702512,-30.573170130998115,-29.077948704291874,-27.582727277583743,-26.087505850873839,-24.592284424162003,-23.097062997448404,-21.601841570732915,-20.125568505543431,-18.756670683031491,-17.387772860517657,-16.018875038001941,-14.649977215484347,-13.281079392964857,-11.912181570443456,-10.543283747920176,-9.1743859253950166,-7.8054881028679732,-6.4687966190578878,-5.2609320122189143,-4.0530674053780844,-2.8452027985353796,-1.6373381916908234,-0.42947358484438675,0.77839102200390875,1.9862556288540736,3.1941202357060994,4.40198484255999,5.5623612617925042,6.5802713226944736,7.5981813835983312,8.6160914445040575,9.6340015054116765,10.651911566321168,11.669821627232544,12.687731688145794,13.705641749060931,14.723551809977945,15.677698713623489,16.483062405723985,17.288426097826388,18.093789789930653,18.899153482036855,19.704517174144925,20.5098808662549,21.315244558366764,22.120608250480529,22.925971942596171,23.651342130459451,24.228150792965305,24.804959455473067,25.381768117982713,25.95857678049428,26.535385443007762,27.112194105523166,27.689002768040467,28.265811430559687,28.842620093080843,29.324163666144457,29.66280735387161,30.001451041600706,30.340094729331728,30.678738417064665,31.017382104799569,31.356025792536396,31.694669480275174,32.033313168015852,32.371956855758526,32.601755207273023,32.698518083792393,32.795280960313725,32.892043836837004,32.98880671336228,33.085569589889516,33.182332466418707,33.279095342949894,33.375858219483042,33.472621096018159,33.161711441163504,33.017994549312164,32.874277657462827,32.730560765615543,32.586843873770235,32.443126981926923,32.299410090085644,32.15569319824634,31.88277073039929,31.5041323889648,31.125494047532349,30.74685570610195,30.368217364673583,29.9895790232473,29.610940681823045,29.232302340400814,28.853663998980661,28.475025657562508,27.960623435788978,27.355709821679692,26.750796207572542,26.145882593467448,25.540968979364465,24.936055365263584,24.33114175116479,23.726228137068063,23.121314522973485,22.516400908880961,21.771328495945561,20.950783922402085,20.130239348860766,19.309694775321582,18.489150201784565,17.668605628249697,16.848061054716961,16.027516481186417,15.206971907658,14.386427334131742,13.42305092333182,12.398458457148752,11.373865990967847,10.34927352478921,9.3246810586127449,8.3000885924385077,7.2754961262664786,6.2509036600966308,5.226311193929015,4.2017187277636046,3.0327253594886585,1.8155965373166834,0.5984677151469584,-0.61866110702051369,-1.8357899291857096,-3.0529187513486922,-4.2700475735093644,-5.4871763956678,-6.7043052178240146,-7.9214340399779291,-9.28402636811303,-10.682986291417174,-12.081946214718972,-13.480906138018371,-14.879866061315376,-16.278825984609977,-17.67778590790218,-19.076745831191978,-20.475705754479417,-21.874665677764487,-23.420637478165713,-24.992554185791985,-26.564470893415887,-28.136387601037519,-29.708304308656764,-31.280221016273661,-32.85213772388822,-34.424054431500473,-35.995971139110388,-37.56788784671798,-39.289154387964757,-41.027016923696095,-42.7648794594249,-44.502741995151133,-46.240604530874862,-47.978467066596004,-49.716329602314566,-51.454192138030542,-53.192054673744067,-54.929917209455006,-56.821508548852464,-58.72119240745711,-60.620876266059206,-62.520560124658651,-64.420243983255489,-66.319927841849776,-68.2196117004414,-70.119295559030363,-72.018979417616848,-73.918663276200562,0.38443203224120864,0.38443203224120864,0.38443203224120864,0.38443203224120864,0.38443203224120864,0.38443203224120864,0.38443203224120864,0.38443203224120864,0.38443203224120864,0.38443203224120864,0.38443203224120864,0.38443203224120864
DP 405,238.34482547282315,0.00200207578032988,-88.176337536177257,-85.772006076412254,-83.367674616645658,-80.963343156877571,-78.559011697107891,-76.154680237336493,-73.750348777563545,-71.346017317789034,-68.941685858012832,-66.537354398235152,-64.137527321744074,-61.823284379257508,-59.509041436769323,-57.194798494279546,-54.880555551788234,-52.566312609295352,-50.252069666800843,-47.937826724304784,-45.623583781807085,-43.309340839307829,-41.013185178433872,-38.879816761841482,-36.746448345247543,-34.6130799286521,-32.479711512055125,-30.346343095456579,-28.212974678856519,-26.079606262254938,-23.946237845651819,-21.812869429047144,-19.717607774043689,-17.838286836066107,-15.958965898086946,-14.079644960106231,-12.200324022123944,-10.321003084140111,-8.4416821461547062,-6.56236120816773,-4.6830402701792115,-2.8037193321891323,-0.98623044948201277,0.58392728985570941,2.1540850291949525,3.724242768535738,5.2944005078780378,6.8645582472218836,8.4347159865672552,10.004873725914171,11.5750314652626,13.145189204612564,14.629348388232144,15.855508653171073,17.081668918111546,18.307829183053553,19.53398944799709,20.760149712942166,21.986309977888773,23.212470242836929,24.438630507786606,25.664790772737817,26.783320028124912,27.650706022258412,28.518092016393449,29.385478010530019,30.252864004668151,31.120249998807779,31.987635992948988,32.855021987091696,33.722407981235953,34.589793975381767,35.332741548413466,35.844585835916227,36.356430123420523,36.868274410926375,37.380118698433776,37.891962985942762,38.403807273453225,38.91565156096528,39.427495848478856,39.939340135993959,40.316101889029163,40.490236648293383,40.664371407559173,40.838506166826541,41.012640926095429,41.186775685365895,41.360910444637859,41.53504520391143,41.709179963186585,41.883314722463261,41.918252754757404,41.783058530277025,41.647864305798258,41.512670081321026,41.377475856845358,41.242281632371316,41.1070874078988,40.971893183427895,40.836698958958536,40.701504734490726,39.609702181883527,39.200019486840681,38.790336791799433,38.38065409675977,37.970971401721677,37.5612887066852,37.151606011650323,36.741923316617012,36.201963765392776,35.555411820202288,34.908859875013341,34.262307929826036,33.615755984640394,32.969204039456322,32.322652094273849,31.676100149093049,31.029548203913834,30.382996258736242,29.616767038771297,28.770751083604054,27.924735128438488,27.078719173274528,26.232703218112224,25.386687262951565,24.540671307792561,23.694655352635188,22.848639397479491,22.002623442325422,21.049696085509062,20.039199496195675,19.028702906883996,18.018206317573984,17.007709728265649,15.997213138958994,14.986716549654,13.976219960350715,12.965723371049078,11.955226781749131,10.85137418977679,9.7075103066309225,8.5636464234867375,7.4197825403443218,6.2759186572035954,5.1320547740646081,3.9881908909273367,2.8443270077917537,1.7004631246579252,0.55659924152580431,-0.66748475053552725,-1.9183097899069348,-3.1691348292765968,-4.4199598686445132,-5.6707849080106563,-6.9216099473750914,-8.1724349867377182,-9.4232600260986139,-10.674085065457797,-11.924910104815179,-13.244142243316693,-14.580476964844078,-15.916811686369682,-17.253146407893407,-18.589481129415315,-19.925815850935347,-21.262150572453535,-22.598485293969862,-23.93482001548437,-25.271154736997062,-26.666346302465616,-28.071925024304456,-29.477503746141448,-30.883082467976713,-32.288661189810078,-33.694239911641716,-35.099818633471479,-36.505397355299507,-37.910976077125682,-39.316554798950087,-40.774018040486347,-42.237246773565815,-43.700475506643372,-45.16370423971896,-46.6269329727926,-48.090161705864304,-49.553390438934,-51.016619172001725,-52.479847905067579,-53.9430766381314,-55.454718064584085,-56.968908009216456,-58.4830979538469,-59.997287898475371,-61.511477843101822,-63.02566778772627,-64.539857732348679,-66.054047676969134,-67.5682376215876,-69.082427566204018,0.29617569164214042,0.29617569164214042,0.29617569164214042,0.29617569164214042,0.29617569164214042,0.29617569164214042,0.29617569164214042,0.29617569164214042,0.29617569164214042,0.29617569164214042,0.29617569164214042,0.29617569164214042
DP 406,250.14260579411771,0.001450927847629597,-66.113142282303642,-64.294268924729636,-62.475395567154479,-60.656522209578185,-58.837648852000811,-57.01877549442213,-55.199902136842375,-53.38102877926152,-51.562155421679392,-49.743282064096164,-47.927916266549396,-46.179194772800734,-44.43047327905105,-42.681751785300122,-40.9330302915481,-39.184308797794941,-37.435587304040673,-35.686865810285177,-33.938144316528579,-32.189422822770808,-30.45475738448069,-28.846597774010924,-27.238438163540028,-25.630278553068081,-24.022118942595,-22.41395933212079,-20.805799721645489,-19.197640111169079,-17.589480500691568,-15.981320890212942,-14.402679160176641,-12.991307279373196,-11.579935398568649,-10.168563517762955,-8.75719163695614,-7.3458197561482086,-5.9344478753391323,-4.5230759945289289,-3.1117041137176087,-1.7003322329051609,-0.33664204751942056,0.83631910268066856,2.0092802528818581,3.1822414030841566,4.3552025532875556,5.5281637034920657,6.7011248536976877,7.8740860039044014,9.047047154112235,10.220008304321164,11.327022298830489,12.236192332868105,13.145362366906827,14.05453240094665,14.96370243498759,15.872872469029632,16.782042503072791,17.691212537117046,18.60038257116242,19.509552605208889,20.336737042307071,20.972618524273454,21.608500006240963,22.244381488209569,22.880262970179292,23.516144452150144,24.152025934122076,24.787907416095127,25.4237888980693,26.059670380044572,26.601487821822154,26.968612362925104,27.335736904029162,27.702861445134339,28.069985986240585,28.437110527347976,28.804235068456489,29.171359609566139,29.538484150676865,29.905608691788728,30.171496047449835,30.28552523266216,30.399554417875578,30.51358360309013,30.627612788305814,30.741641973522597,30.855671158740542,30.969700343959563,31.083729529179713,31.197758714401015,31.208447171297127,31.092828122925,30.977209074553933,30.861590026184025,30.74597097781524,30.63035192944761,30.514732881081102,30.39911383271572,30.283494784351493,30.167875735988389,29.316742835876216,28.999413104189674,28.682083372504295,28.364753640820037,28.047423909136945,27.730094177454987,27.412764445774219,27.095434714094537,26.683415305235847,26.193920896829923,25.70442648842517,25.214932080021565,24.72543767161913,24.23594326321787,23.746448854817743,23.256954446418792,22.767460038021028,22.277965629624426,21.702501002428271,21.0697215416948,20.436942080962506,19.804162620231374,19.171383159501474,18.538603698772722,17.905824238045192,17.2730447773188,16.640265316593634,16.007485855869632,15.298863097143382,14.549400536598522,13.799937976054906,13.050475415512498,12.301012854971287,11.551550294431289,10.802087733892483,10.052625173354917,9.3031626128185412,8.55370005228337,7.7388934862980712,6.8960812436163552,6.0532690009358339,5.2104567582565968,4.3676445155785668,3.5248322729017993,2.6820200302262656,1.8392077875519481,0.99639554487889326,0.15358330220706945,-0.74457665358198644,-1.66118654461453,-2.5777964356458196,-3.4944063266758496,-4.4110162177045957,-5.3276261087321233,-6.2442359997583372,-7.1608458907833112,-8.0774557818070569,-8.9940656728295014,-9.9571524048714419,-10.931858896298857,-11.906565387724974,-12.881271879149736,-13.855978370573197,-14.830684861995296,-15.805391353416073,-16.780097844835531,-17.754804336253674,-18.72951082767047,-19.743578705620042,-20.764593148308421,-21.785607590995482,-22.806622033681283,-23.827636476365736,-24.84865091904895,-25.869665361730824,-26.8906798044114,-27.911694247090661,-28.932708689768663,-29.98789868882352,-31.046886330843233,-32.105873972861566,-33.16486161487849,-34.223849256894013,-35.282836898908123,-36.341824540920825,-37.400812182932029,-38.459799824941996,-39.518787466950421,-40.609306694969732,-41.7014857938731,-42.793664892775134,-43.885843991675657,-44.978023090574773,-46.070202189472504,-47.162381288368785,-48.254560387263517,-49.34673948615692,-50.438918585048853,0.21319922181548409,0.21319922181548409,0.21319922181548409,0.21319922181548409,0.21319922181548409,0.21319922181548409,0.21319922181548409,0.21319922181548409,0.21319922181548409,0.21319922181548409,0.21319922181548409,0.21319922181548409
DP 407,144.64553464017951,0.0043570524674041719,-131.13077326750118,-127.85624986639056,-124.58172646527667,-121.30720306415944,-118.03267966303881,-114.75815626191476,-111.48363286078741,-108.20910945965673,-104.93458605852248,-101.66006265738508,-98.390205628871968,-95.2090105624367,-92.027815495998013,-88.846620429555955,-85.665425363110586,-82.484230296661849,-79.303035230209787,-76.121840163754314,-72.940645097295544,-69.759450030833364,-66.597316237096209,-63.606735699615768,-60.616155162132038,-57.625574624645026,-54.634994087154773,-51.644413549661287,-48.6538330121645,-45.663252474664468,-42.672671937161155,-39.68209139965461,-36.732739051416758,-34.017015707024,-31.301292362627965,-28.585569018228515,-25.869845673825829,-23.154122329419778,-20.438398985010398,-17.722675640597668,-15.006952296181641,-12.29122895176228,-9.6448918507875216,-7.2761030028510412,-4.9073141549113,-2.5385253069682641,-0.16973645902197015,2.1990523889276261,4.56784123688049,6.936630084836648,9.3054189327960675,11.674207780758756,13.941957622605313,15.906586625951769,17.871215629301535,19.835844632654592,21.800473636010963,23.765102639370632,25.729731642733562,27.694360646099856,29.65898964946939,31.623618652842257,33.454624470989664,34.973837594334192,36.493050717682024,38.012263841033167,39.531476964387672,41.050690087745451,42.569903211106549,44.089116334471008,45.608329457838749,47.127542581209788,48.48207416220005,49.530764145638834,50.579454129080986,51.628144112526513,52.676834095975394,53.7255240794276,54.774214062883139,55.822904046341996,56.871594029804257,57.920284013269843,58.776808712471244,59.345080944338058,59.913353176208204,60.481625408081868,61.049897639958814,61.618169871839193,62.186442103722918,62.754714335610011,63.322986567500507,63.891258799394386,64.24495367095912,64.33638281719459,64.427811963433513,64.519241109675889,64.6106702559216,64.702099402170845,64.793528548423453,64.8849576946795,64.976386840938929,65.067815987201882,64.18673220342734,63.8160119870182,63.445291770612556,63.074571554210422,62.703851337811749,62.333131121416521,61.962410905024818,61.591690688636575,60.9795184114789,60.169790298710886,59.360062185946354,58.55033407318539,57.740605960427963,56.9308778476741,56.121149734923826,55.311421622177079,54.501693509433785,53.691965396694137,52.636122510310486,51.416199230978471,50.196275951650136,48.976352672325312,47.756429393004204,46.536506113686642,45.3165828343728,44.096659555062473,42.87673627575586,41.656812996452864,40.190934339626132,38.5926145952034,36.99429485078447,35.39597510636915,33.7976553619576,32.199335617549742,30.601015873145585,29.002696128745193,27.404376384348463,25.806056639955461,23.96550568187277,22.021137257909828,20.076768833950648,18.132400409995324,16.188031986043768,14.243663562096067,12.299295138152178,10.354926714212036,8.4105582902757643,6.4661898663432877,4.2853211368573136,2.0256159916130159,-0.23408915362740759,-2.4937942988639494,-4.7534994440965654,-7.01320458932537,-9.2729097345501881,-11.532614879771154,-13.7923200249883,-16.052025170201464,-18.541984382875128,-21.089509832900973,-23.637035282922781,-26.184560732940451,-28.732086182954017,-31.279611632963412,-33.827137082968761,-36.374662532969957,-38.922187982966996,-41.469713432960056,-44.242827173613428,-47.055753121191856,-49.868679068766177,-52.681605016336619,-55.494530963902946,-58.307456911465287,-61.120382859023564,-63.9333088065778,-66.746234754128153,-69.5591607016744,-72.595494663995652,-75.656654085378847,-78.717813506757764,-81.778972928132291,-84.8401323495025,-87.901291770868156,-90.962451192229565,-94.023610613586428,-97.0847700349391,-100.1459294562874,-103.43324733486917,-106.73247054033206,-110.03169374579055,-113.33091695124448,-116.63014015669391,-119.92936336213896,-123.22858656757957,-126.52780977301553,-129.82703297844711,-133.126256183874,0.66148003096278318,0.66148003096278318,0.66148003096278318,0.66148003096278318,0.66148003096278318,0.66148003096278318,0.66148003096278318,0.66148003096278318,0.66148003096278318,0.66148003096278318,0.66148003096278318,0.66148003096278318
DP 408,101.21415743851669,0.0044150349290197769,-100.5264883061229,-98.1699154621991,-95.8133426182723,-93.456769774342391,-91.100196930409467,-88.743624086473446,-86.387051242534312,-84.030478398592209,-81.673905554646993,-79.317332710698736,-76.963583010547239,-74.663473576289476,-72.363364142028587,-70.063254707764571,-67.763145273497614,-65.46303583922753,-63.162926404954476,-60.862816970678253,-58.562707536399039,-56.262598102116662,-53.97413143488793,-51.790450771660481,-49.606770108430048,-47.423089445196638,-45.239408781960108,-43.055728118720694,-40.872047455478246,-38.688366792232777,-36.504686128984353,-34.321005465732895,-32.162847595382871,-30.149320493127714,-28.135793390869473,-26.122266288608156,-24.108739186343815,-22.095212084076369,-20.081684981805871,-18.068157879532297,-16.05463077725566,-14.041103674975966,-12.071348574005373,-10.276683546980538,-8.482018519952657,-6.6873534929217371,-4.8926884658877841,-3.0980234388507744,-1.3033584118107351,0.49130661523235647,2.2859716422784784,4.0806366693276424,5.8100276143404574,7.3435938453154019,8.877160076293416,10.410726307274503,11.944292538258674,13.477858769245891,15.011425000236212,16.544991231229563,18.078557462226009,19.612123693225538,21.056832740738034,22.294204860568417,23.531576980401884,24.768949100238466,26.006321220078114,27.243693339920942,28.481065459766793,29.718437579615806,30.955809699467849,32.193181819323051,33.317267718616066,34.230961863153219,35.144656007693506,36.058350152236933,36.972044296783494,37.885738441333231,38.79943258588608,39.713126730442056,40.626820875001243,41.540515019563543,42.31677435938947,42.886878244473962,43.456982129561716,44.027086014652596,44.597189899746695,45.167293784844006,45.737397669944485,46.307501555048191,46.87760544015503,47.4477093252651,47.857487499738049,48.0713086602712,48.28512982080759,48.498950981347228,48.712772141890106,48.926593302436274,49.1404144629857,49.35423562353828,49.568056784094168,49.781877944653296,49.517153518861441,49.36849883120977,49.219844143561474,49.071189455916432,48.922534768274723,48.773880080636374,48.625225393001294,48.476570705369525,48.128215940716508,47.616466771966628,47.104717603220138,46.592968434477129,46.0812192657374,45.569470097001123,45.057720928268246,44.545971759538723,44.034222590812654,43.522473422089945,42.795165315341023,41.924147854085838,41.053130392834149,40.182112931585891,39.311095470341165,38.440078009099885,37.5690605478621,36.698043086627791,35.827025625396985,34.956008164169624,33.856065786244557,32.632852816513328,31.409639846785659,30.186426877061507,28.963213907340947,27.740000937623957,26.516787967910492,25.293574998200643,24.070362028494277,22.847149058791526,21.383774784489539,19.817470183141026,18.251165581796133,16.68486098045501,15.118556379117514,13.552251777783759,11.985947176453655,10.419642575127215,8.8533379738044946,7.287033372485455,5.4708367239340925,3.5713395769573477,1.6718424299843686,-0.22765471698484474,-2.1271518639502554,-4.0266490109119548,-5.9261461578698071,-7.8256433048239149,-9.725140451774303,-11.624637598720852,-13.782815531277606,-16.005666716590483,-18.228517901899419,-20.451369087204323,-22.674220272505213,-24.897071457802095,-27.119922643094959,-29.342773828383784,-31.565625013668647,-33.78847619894951,-36.279109979620792,-38.817002490200224,-41.35489500077567,-43.892787511347343,-46.430680021915,-48.968572532478788,-51.506465043038574,-54.04435755359453,-56.582250064146542,-59.120142574694675,-61.935305109325263,-64.781278336397392,-67.627251563465336,-70.47322479052886,-73.319198017588278,-76.165171244643275,-79.011144471694067,-81.857117698740382,-84.703090925782547,-87.549064152820435,-90.683932935655918,-93.8340096221384,-96.984086308616568,-100.13416299509025,-103.2842396815596,-106.43431636802471,-109.58439305448526,-112.73446974094135,-115.88454642739336,-119.03462311384067,0.64330386420280572,0.64330386420280572,0.64330386420280572,0.64330386420280572,0.64330386420280572,0.64330386420280572,0.64330386420280572,0.64330386420280572,0.64330386420280572,0.64330386420280572,0.64330386420280572,0.64330386420280572
DP 409,87.751291235697565,0.001157490123274846,-23.716066153027391,-23.174309230505,-22.632552307981868,-22.090795385457987,-21.54903846293335,-21.00728154040797,-20.465524617881847,-19.923767695354961,-19.382010772827314,-18.840253850298939,-18.299106351052533,-17.769538009385315,-17.239969667717357,-16.710401326048647,-16.180832984379194,-15.65126464270897,-15.121696301038021,-14.592127959366314,-14.06255961769385,-13.532991276020635,-13.005943829593805,-12.501584678669799,-11.997225527745051,-11.492866376819567,-10.98850722589334,-10.484148074966377,-9.97978892403867,-9.4754297731102231,-8.97107062218105,-8.4667114712511342,-7.9679042387758887,-7.5005582273986082,-7.0332122160205754,-6.56586620464178,-6.0985201932622379,-5.631174181881935,-5.1638281705008771,-4.6964821591190571,-4.2291361477364839,-3.7617901363531616,-3.3040272253912613,-2.8845971690223986,-2.4651671126527903,-2.0457370562824266,-1.6263069999113149,-1.2068769435394477,-0.78744688716683109,-0.36801683079345965,0.051413225580660422,0.47084328195553271,0.87586649141247952,1.2376686154111991,1.5994707394106789,1.9612728634109209,2.3230749874119248,2.6848771114136887,3.0466792354162164,3.4084813594195049,3.7702834834235524,4.1320856074283636,4.4740816109372394,4.7698625532461492,5.0656434955558307,5.3614244378662823,5.6572053801774986,5.9529863224894957,6.248767264802261,6.5445482071158052,6.8403291494301079,7.1361100917451887,7.4063466450736479,7.6291429289995216,7.8519392129261858,8.0747354968536253,8.2975317807818509,8.5203280647108635,8.7431243486406558,8.9659206325712333,9.1887169165026013,9.4115132004347348,9.6029096800669436,9.7472057112598858,9.8915017424536185,10.035797773648149,10.180093804843475,10.324389836039595,10.468685867236532,10.612981898434251,10.757277929632767,10.90157396083209,11.008696601666514,11.07038431790288,11.13207203414005,11.193759750378049,11.255447466616854,11.317135182856479,11.378822899096907,11.440510615338157,11.502198331580216,11.563886047823091,11.535428673016115,11.511708018389145,11.487987363763002,11.464266709137702,11.440546054513232,11.416825399889596,11.393104745266799,11.369384090644829,11.297785133684087,11.187012197441542,11.07623926119984,10.965466324958996,10.854693388719021,10.743920452479882,10.633147516241612,10.522374580004188,10.411601643767629,10.300828707531915,10.137421071540615,9.938922806528014,9.7404245415162833,9.541926276505432,9.3434280114954689,9.144929746486369,8.9464314814781609,8.7479332164708214,8.5494349514643648,8.3509366864587822,8.0954756542425,7.8093415344205832,7.5232074145995789,7.2370732947794743,6.95093917496027,6.6648050551419606,6.3786709353245534,6.0925368155080566,5.8064026956924515,5.5202685758777532,5.1732367878656138,4.80010497131483,4.4269731547649611,4.0538413382160483,3.6807095216680583,3.30757770512101,2.9344458885748916,2.5613140720296972,2.1881822554854504,1.8150504389421329,1.3773855293970154,0.91820877555144265,0.45903202170682361,-0.00014473213683891269,-0.45932148597953687,-0.91849823982129386,-1.3776749936620722,-1.8368517475019024,-2.2960285013407891,-2.7552052551787027,-3.2823162522563716,-3.8264116127976249,-4.3705069733378705,-4.9146023338770926,-5.4586976944152994,-6.0027930549524724,-6.5468884154886373,-7.0909837760237782,-7.6350791365578967,-8.1791744970910187,-8.7946158321076329,-9.422648426586969,-10.050681021065303,-10.678713615542655,-11.306746210018996,-11.934778804494355,-12.562811398968694,-13.190843993442058,-13.818876587914417,-14.446909182385792,-15.149645836854958,-15.860683727003554,-16.571721617151066,-17.28275950729746,-17.9937973974428,-18.704835287587,-19.415873177730127,-20.126911067872143,-20.837948958013072,-21.548986848152932,-22.338409208300643,-23.131957846763807,-23.925506485225885,-24.719055123686832,-25.512603762146632,-26.306152400605345,-27.099701039062939,-27.893249677519371,-28.686798315974716,-29.480346954428896,0.16320167732488319,0.16320167732488319,0.16320167732488319,0.16320167732488319,0.16320167732488319,0.16320167732488319,0.16320167732488319,0.16320167732488319,0.16320167732488319,0.16320167732488319,0.16320167732488319,0.16320167732488319
DP 410,275.74771070449862,0.0056303983568898744,-274.21823847269769,-266.5340671212694,-258.84989576983651,-251.16572441839949,-243.48155306695759,-235.7973817155117,-228.113210364061,-220.42903901260587,-212.74486766114637,-205.06069630968253,-197.39225830120449,-190.0227567838447,-182.6532552664805,-175.28375374911175,-167.91425223173874,-160.54475071436127,-153.17524919697948,-145.80574767959334,-138.43624616220251,-131.06674464480759,-123.76001556814714,-117.01824439149476,-110.276473214838,-103.53470203817712,-96.792930861511948,-90.051159684842517,-83.30938850816878,-76.56761733149078,-69.825846154808545,-63.08407497812204,-56.473204389665753,-50.60411204983577,-44.735019710001566,-38.865927370162936,-32.996835030320007,-27.127742690472758,-21.258650350621146,-15.389558010765223,-9.5204656709049669,-3.6513733310403875,2.0083028230502804,6.8303043368542049,11.652305850662344,16.474307364474758,21.296308878291391,26.118310392112306,30.940311905937456,35.762313419766883,40.584314933600481,45.406316447438392,49.942166983261,53.619553766056491,57.296940548856341,60.974327331660405,64.6517141144687,68.3291008972813,72.006487680098132,75.683874462919178,79.361261245744572,83.038648028574158,86.365372760872674,88.8738722314646,91.382371702060652,93.8908711726611,96.399370643265769,98.907870113874623,101.4163695844878,103.92486905510522,106.43336852572686,108.94186799635278,111.05462620144534,112.43242565452782,113.81022510761461,115.1880245607056,116.56582401380089,117.94362346690059,119.32142292000454,120.69922237311265,122.07702182622513,123.45482127934186,124.41446693701317,124.74687202038524,125.07927710376167,125.41168218714226,125.74408727052726,126.07649235391656,126.40889743731019,126.7413025207081,127.0737076041103,127.4061126875168,127.32019281987715,126.72297811413787,126.12576340840292,125.52854870267235,124.93133399694597,124.33411929122403,123.73690458550638,123.13968987979318,122.54247517408426,121.94526046837973,118.15626475072266,116.76010789447855,115.36395103823895,113.96779418200357,112.5716373257728,111.17548046954634,109.77932361332414,108.38316675710655,106.62059627461488,104.55822652809137,102.49585678157254,100.43348703505791,98.371117288547865,96.308747542042212,94.246377795541122,92.184008049044422,90.121638302552157,88.059268556064552,85.672372724022821,83.069121055834941,80.4658693876515,77.862617719472667,75.2593660512984,72.656114383128639,70.05286271496341,67.4496110468027,64.846359378646639,62.243107710494918,59.361006195164322,56.3287507071571,53.296495219154529,50.26423973115655,47.23198424316319,44.199728755174426,41.1674732671903,38.135217779210791,35.102962291235841,32.0707068032655,28.804859305198939,25.438897002896091,22.072934700597791,18.706972398304433,15.341010096015685,11.975047793731759,8.6090854914525714,5.2431231891780268,1.8771608869083189,-1.4888014153566802,-5.0467622323910089,-8.6687249740725321,-12.290687715749247,-15.912650457421153,-19.53461319908817,-23.156575940750507,-26.778538682407824,-30.400501424060394,-34.022464165708215,-37.644426907351104,-41.422499711805933,-45.239601876426192,-49.056704041041485,-52.873806205651647,-56.690908370256764,-60.508010534856759,-64.325112699451665,-68.14221486404152,-71.959317028626231,-75.776419193206067,-79.721384500785646,-83.68891531427785,-87.656446127765,-91.623976941247378,-95.591507754724589,-99.5590385681969,-103.52656938166415,-107.49410019512663,-111.46163100858392,-115.42916182203651,-119.50412610436894,-123.59102856710024,-127.67793102982621,-131.76483349254673,-135.85173595526203,-139.93863841797165,-144.02554088067612,-148.11244334337513,-152.19934580606886,-156.28624826875705,-160.46984508596162,-164.65853204178549,-168.84721899760424,-173.03590595341731,-177.22459290922487,-181.41327986502702,-185.60196682082378,-189.79065377661485,-193.9793407324006,-198.16802768818059,0.81458275911304157,0.81458275911304157,0.81458275911304157,0.81458275911304157,0.81458275911304157,0.81458275911304157,0.81458275911304157,0.81458275911304157,0.81458275911304157,0.81458275911304157,0.81458275911304157,0.81458275911304157
DP 411,171.48038740850924,0.0038547769756883394,-132.66482279464051,-129.25262965171009,-125.84043650877663,-122.4282433658402,-119.0160502229006,-115.60385707995796,-112.19166393701229,-108.77947079406371,-105.36727765111208,-101.95508450815731,-98.548204347300413,-95.242271850750683,-91.936339354198083,-88.6304068576422,-85.324474361083432,-82.018541864521637,-78.71260936795683,-75.406676871388925,-72.100744374818,-68.794811878244,-65.510469874030392,-62.420444341854633,-59.330418809675912,-56.240393277494256,-53.150367745309715,-50.060342213122155,-46.970316680931624,-43.880291148738181,-40.790265616541845,-37.700240084342504,-34.656556035778166,-31.875476648011254,-29.094397260241344,-26.313317872468435,-23.53223848469252,-20.7511590969136,-17.970079709131667,-15.18900032134675,-12.407920933558808,-9.626841545767892,-6.9229194420947007,-4.5276301214170225,-2.1323408007364058,0.26294851994717483,2.6582378406336908,5.0535271613231814,7.4488164820156095,9.8441058027110078,12.239395123409341,14.634684444110626,16.919130803371406,18.871044087485711,20.822957371602953,22.774870655723166,24.726783939846364,26.678697223972513,28.630610508101647,30.582523792233733,32.534437076368796,34.4863503605068,36.294054075865418,37.765263117859426,39.2364721598564,40.70768120185636,42.178890243859279,43.650099285865174,45.121308327874061,46.592517369885954,48.0637264119008,49.534935453918678,50.831775718338051,51.8047835439018,52.777791369468432,53.750799195038105,54.723807020610764,55.696814846186435,56.66982267176509,57.642830497346729,58.615838322931452,59.588846148519025,60.362764153259533,60.838042722161411,61.3133212910663,61.788599859974262,62.263878428885207,62.739156997799228,63.214435566716205,63.689714135636287,64.164992704559324,64.640271273485425,64.898591640153214,64.891736313569282,64.884880986988435,64.878025660410572,64.871170333835849,64.8643150072641,64.857459680695527,64.8506043541299,64.843749027567455,64.836893701008,63.67925557360882,63.2175705281509,62.755885482696037,62.294200437244314,61.832515391795681,61.370830346350225,60.909145300907767,60.447460255468393,59.755080892043473,58.873947667437946,57.992814442835531,57.111681218236356,56.230547993640293,55.349414769047456,54.468281544457724,53.58714831987119,52.706015095287789,51.824881870707586,50.71606342250584,49.455451238368518,48.1948390542344,46.934226870103529,45.673614685975878,44.413002501851444,43.152390317730237,41.891778133612256,40.631165949497536,39.370553765385985,37.890197016830193,36.291513076564506,34.692829136302173,33.094145196043165,31.4954612557874,29.896777315534969,28.298093375285823,26.699409435040035,25.100725494797494,23.502041554558289,21.694845996525252,19.798284797143612,17.901723597765244,16.005162398390379,14.108601199018818,12.212039999650687,10.315478800285929,8.4189176009245124,6.5223564015665305,4.6257952022119122,2.5334303966302825,0.37579525462634089,-1.7818398873741619,-3.9394750293712235,-6.0971101713647959,-8.2547453133549933,-10.412380455341641,-12.570015597324881,-14.727650739304721,-16.885285881281035,-19.226198511446682,-21.612932679110944,-23.999666846771607,-26.386401014428632,-28.773135182082,-31.159869349731729,-33.546603517377804,-35.933337685020234,-38.320071852659012,-40.706806020294209,-43.266553647913362,-45.856834986521882,-48.4471163251268,-51.037397663728292,-53.627679002326126,-56.217960340920392,-58.808241679511063,-61.39852301809826,-63.988804356681804,-66.579085695261867,-69.335361347873828,-72.110082556485878,-74.884803765094176,-77.659524973698424,-80.434246182299,-83.208967390895538,-85.98368859948836,-88.758409808077133,-91.533131016662168,-94.3078522252433,-97.247064600034548,-100.19493604124573,-103.14280748245315,-106.09067892365648,-109.03855036485595,-111.98642180605158,-114.9342932472431,-117.88216468843072,-120.83003612961437,-123.77790757079406,0.58579267517275979,0.58579267517275979,0.58579267517275979,0.58579267517275979,0.58579267517275979,0.58579267517275979,0.58579267517275979,0.58579267517275979,0.58579267517275979,0.58579267517275979,0.58579267517275979,0.58579267517275979
DP 412,88.872729154071877,0.0033619668870274282,-69.519692142082235,-67.9279440083167,-66.336195874549119,-64.744447740779208,-63.152699607007236,-61.560951473232961,-59.969203339456627,-58.377455205678011,-56.785707071897214,-55.193958938114164,-53.604011112019677,-52.048269472384433,-50.492527832746973,-48.936786193107345,-47.381044553465522,-45.825302913821496,-44.2695612741753,-42.713819634526878,-41.158077994876265,-39.602336355223443,-38.054039202684343,-36.572743137851873,-35.091447073017257,-33.610151008180452,-32.128854943341523,-30.647558878500412,-29.166262813657159,-27.684966748811721,-26.20367068396417,-24.722374619114419,-23.257468797194321,-21.885442051375122,-20.513415305553739,-19.141388559730135,-17.769361813904325,-16.397335068076302,-15.025308322246051,-13.653281576413629,-12.281254830578971,-10.909228084742102,-9.5654759351250433,-8.334823506674006,-7.1041710782208121,-5.8735186497654022,-4.642866221307802,-3.4122137928479961,-2.1815613643860026,-0.9509089359218047,0.27974349254458142,1.5103959210131663,2.6985709152756203,3.7593120009022938,4.8200530865311881,5.8807941721623109,6.9415352577956551,8.0022763434312267,9.0630174290690224,10.123758514709037,11.184499600351277,12.245240685995737,13.247633201890364,14.113876757039549,14.980120312190977,15.846363867344653,16.7126074225006,17.578850977658792,18.44509453281923,19.311338087981934,20.17758164314688,21.043825198314089,21.834888714812934,22.486330129174643,23.137771543538641,23.7892129579049,24.44065437227345,25.092095786644304,25.743537201017414,26.394978615392841,27.04642002977053,27.697861444150547,28.256992491137634,28.677655805706177,29.098319120277036,29.518982434850255,29.939645749425761,30.360309064003609,30.780972378583776,31.20163569316626,31.622299007751106,32.042962322338248,32.354477406477777,32.532586805213768,32.710696203952118,32.888805602692848,33.066915001435952,33.245024400181435,33.423133798929335,33.60124319767958,33.779352596432176,33.957461995187188,33.865689137814023,33.793357641681396,33.721026145551242,33.64869464942349,33.576363153298132,33.504031657175233,33.431700161054792,33.359368664936731,33.146847847549182,32.819624267142039,32.492400686737369,32.165177106335229,31.837953525935582,31.510729945538394,31.183506365143717,30.856282784751539,30.52905920436185,30.201835623974635,29.720727934850867,29.13702841567909,28.553328896509907,27.969629377343264,27.385929858179214,26.80223033901769,26.218530819858735,25.634831300702327,25.051131781548516,24.467432262397235,23.717452057487264,22.877933680695037,22.038415303905456,21.198896927118483,20.359378550334128,19.5198601735524,18.680341796773277,17.84082341999682,17.001305043222946,16.161786666451718,15.144770665287789,14.051681257714021,12.958591850142918,11.865502442574597,10.772413035008954,9.6793236274460615,8.5862342198858865,7.4931448123284081,6.4000554047736777,5.3069659972216607,4.0260598978473352,2.6825458675096572,1.3390318371747625,-0.0044821931573482011,-1.3479962234866476,-2.6915102538132047,-4.0350242841369122,-5.3785383144578507,-6.7220523447760483,-8.0655663750914037,-9.6065353780344171,-11.196870457095532,-12.787205536153717,-14.377540615208918,-15.967875694261151,-17.558210773310407,-19.148545852356676,-20.738880931399997,-22.329216010440337,-23.919551089477732,-25.717020613753196,-27.55104557878812,-29.38507054382006,-31.219095508849243,-33.053120473875424,-34.887145438898727,-36.721170403919075,-38.555195368936587,-40.3892203339512,-42.2232452989629,-44.273965894516543,-46.348766058167,-48.42356622181434,-50.49836638545834,-52.573166549099319,-54.647966712737009,-56.722766876371622,-58.797567040002889,-60.872367203631121,-62.94716736725605,-65.249216808716682,-67.5632289995234,-69.877241190326956,-72.1912533811272,-74.505265571924156,-76.819277762717959,-79.133289953508424,-81.447302144295548,-83.76131433507949,-86.0753265258601,0.47560572868975431,0.47560572868975431,0.47560572868975431,0.47560572868975431,0.47560572868975431,0.47560572868975431,0.47560572868975431,0.47560572868975431,0.47560572868975431,0.47560572868975431,0.47560572868975431,0.47560572868975431
DP 413,54.134362365946288,0.0012655963808607753,-18.788267510497246,-18.396068325025318,-18.00386913955284,-17.611669954079819,-17.219470768606239,-16.827271583132088,-16.435072397657422,-16.042873212182208,-15.650674026706431,-15.25847484123012,-14.866651708555841,-14.481973650221278,-14.097295591886157,-13.712617533550459,-13.327939475214222,-12.943261416877421,-12.55858335854006,-12.173905300202133,-11.789227241863664,-11.404549183524615,-11.021439104014682,-10.652440982179218,-10.283442860343193,-9.9144447385065977,-9.5454466166694267,-9.1764484948316962,-8.8074503729933742,-8.4384522511545086,-8.069454129315055,-7.700456007475049,-7.3349519000548611,-6.9892474278565926,-6.643542955657729,-6.2978384834582934,-5.9521340112582672,-5.6064295390576575,-5.2607250668564642,-4.9150205946546821,-4.56931612245232,-4.2236116502493743,-3.8840348831128804,-3.5689692258442411,-3.2539035685750073,-2.9388379113051766,-2.6237722540347526,-2.3087065967637312,-1.9936409394921135,-1.6785752822199003,-1.3635096249470939,-1.0484439676736903,-0.74277926779440084,-0.46531779553582797,-0.18785632327664384,0.089605148983152361,0.36706662124356232,0.64452809350458484,0.921989565766218,1.1994510380284653,1.4769125102913221,1.754373982554793,2.0185941737660946,2.2519175210293012,2.485240868293138,2.7185642155576066,2.9518875628227033,3.1852109100884336,3.4185342573547937,3.6518576046217839,3.8851809518894052,4.1185042991576575,4.3342648215642656,4.51740819492319,4.7005515682827674,4.8836949416429949,5.0668383150038734,5.249981688365402,5.4331250617275773,5.6162684350904133,5.7994118084538924,5.982555181818026,6.1434205102518193,6.27086824485135,6.3983159794515538,6.5257637140524265,6.6532114486539857,6.780659183256212,6.908106917859091,7.0355546524626638,7.1630023870669,7.2904501216718192,7.3905995127940765,7.4573836884863738,7.5241678641793648,7.5909520398730566,7.6577362155674438,7.724520391262522,7.7913045669582992,7.8580887426547781,7.92487291835195,7.9916570940498195,8.029329756916276,8.0310418639114616,8.0327539709073879,8.0344660779040336,8.0361781849014022,8.0378902918994921,8.0396023988983032,8.04131450589784,8.005113841244567,7.9378929845900457,7.8706721279362819,7.803451271283266,7.7362304146310041,7.669009557979491,7.6017887013287231,7.5345678446787119,7.4673469880294459,7.4001261313809286,7.2895525230135316,7.1500763972064227,7.0106002714000981,6.8711241455945524,6.7316480197897937,6.5921718939858085,6.4526957681826032,6.3132196423801767,6.1737435165785381,6.0342673907776758,5.845993470469681,5.63144310505254,5.4168927396362188,5.2023423742207058,4.9877920088060055,4.7732416433921205,4.5586912779790385,4.3441409125667843,4.1295905471553258,3.9150401817446854,3.6463008064676883,3.3543366551710676,3.0623725038752827,2.7704083525803593,2.4784442012862726,2.1864800499930426,1.8945158987006552,1.6025517474091096,1.3105875961184157,1.0186234448285698,0.66716541272843644,0.29587533723337145,-0.075414738260820055,-0.44670481375413817,-0.81799488924657426,-1.1892849647381487,-1.5605750402288316,-1.9318651157186464,-2.3031551912075945,-2.6744452666956553,-3.1103669554957754,-3.5624473112564821,-4.0145276670162566,-4.4666080227750751,-4.9186883785329538,-5.370768734289884,-5.8228490900458638,-6.2749294458008977,-6.727009801554992,-7.1790901573081376,-7.7008573436482042,-8.23492298090172,-8.7689886181542942,-9.3030542554059767,-9.8371198926567054,-10.371185529906533,-10.90525116715544,-11.439316804403417,-11.97338244165047,-12.507448078896612,-13.115931723739189,-13.73268481765686,-14.349437911573547,-14.966191005489149,-15.582944099403752,-16.199697193317323,-16.81645028722988,-17.433203381141368,-18.049956475051864,-18.666709568961323,-19.362512704466894,-20.062477154993765,-20.762441605519584,-21.462406056044337,-22.162370506568024,-22.862334957090685,-23.562299407612276,-24.262263858132766,-24.962228308652239,-25.662192759170605,0.14759972118874981,0.14759972118874981,0.14759972118874981,0.14759972118874981,0.14759972118874981,0.14759972118874981,0.14759972118874981,0.14759972118874981,0.14759972118874981,0.14759972118874981,0.14759972118874981,0.14759972118874981
DP 414,190.8362862639928,0.0034272237071747637,-128.09960312073142,-124.74279119771425,-121.38597927469428,-118.02916735167162,-114.67235542864624,-111.31554350561808,-107.95873158258721,-104.60191965955372,-101.24510773651735,-97.888295813478337,-94.537022195965363,-91.290977430485711,-88.044932665003557,-84.798887899518448,-81.55284313403078,-78.306798368540342,-75.060753603047175,-71.814708837551336,-68.568664072052755,-65.322619306551474,-62.099001564285018,-59.077229150995635,-56.055456737703537,-53.033684324408846,-50.011911911111511,-46.990139497811533,-43.968367084508927,-40.946594671203641,-37.9248222578958,-34.903049844585318,-31.929152559786655,-29.226550686728253,-26.523948813667168,-23.821346940603398,-21.118745067536956,-18.416143194467814,-15.713541321395999,-13.010939448321491,-10.308337575244302,-7.6057357021644378,-4.98224369580318,-2.6751948951206104,-0.36814609443541829,1.9389027062524233,4.2459515069428848,6.5530003076360019,8.8600491083317472,11.167097909030144,13.474146709731157,15.781195510434804,17.975671881706106,19.832426708467203,21.689181535230958,23.54593636199737,25.402691188766397,27.259446015538103,29.11620084231242,30.972955669089426,32.829710495869058,34.686465322651344,36.398424388628143,37.772520976759992,39.146617564894463,40.520714153031577,41.894810741171348,43.268907329313784,44.6430039174589,46.017100505606642,47.391197093757071,48.765293681910137,49.966621761344555,50.847089373060129,51.7275569847783,52.60802459649927,53.488492208222823,54.368959819949076,55.249427431678008,56.12989504340959,57.010362655143886,57.890830266880819,58.576977603959712,58.971639937190304,59.366302270423539,59.760964603659595,60.155626936898251,60.550289270139572,60.944951603383657,61.339613936630371,61.734276269879793,62.128938603131971,62.3153579581157,62.247253743341275,62.179149528569532,62.111045313800595,62.04294109903438,61.974836884270786,61.906732669510006,61.838628454752005,61.770524239996561,61.702420025243967,60.426639338848105,59.929947097037065,59.433254855228896,58.936562613423426,58.439870371620714,57.943178129820794,57.446485888023581,56.949793646229182,56.24004828784301,55.3559830816844,54.471917875528582,53.587852669375494,52.703787463225289,51.819722257077885,50.935657050933266,50.051591844791496,49.167526638652539,48.283461432516305,47.193669742061992,45.966723821136171,44.739777900213248,43.512831979293082,42.285886058375908,41.058940137461541,39.831994216550022,38.60504829564136,37.378102374735576,36.151156453832655,34.730298445680106,33.205023416879591,31.679748388082047,30.15447335928744,28.629198330495733,27.103923301706974,25.578648272921082,24.053373244138207,22.52809821535817,21.002823186581104,19.298168931984332,17.516634838606397,15.735100745231366,13.95356665185944,12.172032558490423,10.390498465124466,8.6089643717614912,6.8274302784014811,5.04589618504451,3.2643620916905269,1.3188668736445088,-0.68128411900660113,-2.6814351116546655,-4.6815861042996794,-6.6817370969416032,-8.681888089580541,-10.682039082216331,-12.682190074849093,-14.68234106747887,-16.682492060105503,-18.831888372628203,-21.01859777848076,-23.205307184330181,-25.392016590176322,-27.578725996019291,-29.765435401858969,-31.952144807695472,-34.138854213528731,-36.325563619358775,-38.512273025185614,-40.83609630910037,-43.184117684461377,-45.532139059819137,-47.88016043517387,-50.228181810525363,-52.576203185873815,-54.924224561218971,-57.272245936561028,-59.620267311899973,-61.968288687235727,-64.444742937004222,-66.9354688550004,-69.426194772993171,-71.916920690982479,-74.407646608968449,-76.898372526950808,-79.389098444929928,-81.879824362905524,-84.370550280877666,-86.861276198846468,-89.477180666917477,-92.0996747252053,-94.722168783489664,-97.344662841770543,-99.967156900047868,-102.58965095832187,-105.21214501659223,-107.83463907485897,-110.45713313312235,-113.07962719138214,0.51830823071837762,0.51830823071837762,0.51830823071837762,0.51830823071837762,0.51830823071837762,0.51830823071837762,0.51830823071837762,0.51830823071837762,0.51830823071837762,0.51830823071837762,0.51830823071837762,0.51830823071837762
DP 415,102.70016649867085,0.0031347449494778853,-72.167521350472185,-70.471297469687784,-68.775073588901222,-67.0788497081125,-65.382625827321576,-63.686401946528512,-61.990178065733183,-60.293954184935806,-58.597730304136164,-56.901506423334304,-55.207328569651722,-53.552025618064036,-51.896722666474162,-50.241419714882014,-48.586116763287791,-46.930813811691323,-45.275510860092695,-43.620207908491864,-41.964904956888887,-40.3096020052837,-38.662732206176585,-37.091761576685954,-35.520790947193234,-33.949820317698382,-32.378849688201342,-30.807879058702188,-29.236908429200874,-27.665937799697414,-26.094967170191822,-24.523996540684095,-22.971505263242488,-21.523731478652529,-20.075957694060435,-18.628183909466117,-17.180410124869635,-15.732636340270961,-14.284862555670088,-12.837088771067027,-11.389314986461773,-9.9415412018543456,-8.5254374480723829,-7.2360153143501424,-5.9465931806257313,-4.6571710468991485,-3.3677489131704075,-2.0783267794394811,-0.7889046457063924,0.50051748802887264,1.7899396217663002,3.0793617555058974,4.3216000502346512,5.4222850439708576,6.5229700377092454,7.6236550314498306,8.7243400251926033,9.825025018937577,10.925710012684734,12.026395006434084,13.127080000185627,14.227764993939354,15.264284319509223,16.151081225553376,17.037878131599751,17.924675037648317,18.811471943699111,19.698268849752107,20.585065755807332,21.471862661864769,22.35865956792443,23.245456473986287,24.05054928412428,24.703903709603825,25.357258135085651,26.010612560569662,26.663966986055936,27.317321411544469,27.970675837035245,28.624030262528226,29.277384688023467,29.930739113520946,30.485114939330149,30.891020526704864,31.29692611408181,31.702831701461051,32.108737288842569,32.514642876226368,32.920548463612434,33.326454051000773,33.7323596383914,34.138265225784288,34.42888928283103,34.578611270214189,34.728333257599658,34.878055244987451,35.027777232377559,35.177499219769985,35.327221207164733,35.476943194561763,35.626665181961144,35.7763871693628,35.575121952937778,35.464670977057324,35.354220001179243,35.243769025303514,35.133318049430166,35.022867073559162,34.912416097690574,34.801965121824296,34.548446947857215,34.1778713349139,33.807295721973,33.436720109034518,33.066144496098417,32.695568883164775,32.324993270233563,31.954417657304731,31.58384204437834,31.213266431454372,30.688577769663059,30.061144647463241,29.433711525265963,28.806278403071136,28.178845280878772,27.55141215868888,26.923979036501521,26.296545914316606,25.669112792134193,25.041679669954245,24.250920797877239,23.372214916198022,22.493509034521356,21.614803152847273,20.736097271175662,19.857391389506649,18.97868550784014,18.099979626176207,17.221273744514775,16.342567862855894,15.292887401952456,14.169929235518483,13.046971069087087,11.924012902658374,10.801054736232254,9.6780965698087869,8.5551384033879341,7.4321802369696774,6.30922207055408,5.1862639041410992,3.8857758622310787,2.5261089577758669,1.1664420533233371,-0.19322485112651538,-1.5528917555736572,-2.9125586600181617,-4.2722255644599167,-5.6318924688990109,-6.9915593733354582,-8.3512262777691664,-9.8943093840732814,-11.483248707935831,-13.072188031795566,-14.661127355652429,-16.25006667950645,-17.839006003357589,-19.427945327205887,-21.016884651051342,-22.605823974893919,-24.194763298733694,-25.973249806202556,-27.785187924456388,-29.597126042707341,-31.409064160955612,-33.221002279201045,-35.032940397443696,-36.84487851568354,-38.656816633920592,-40.468754752154908,-42.280692870386432,-44.288635960211529,-46.3183594387273,-48.3480829172401,-50.3778063957497,-52.407529874256426,-54.437253352759953,-56.466976831260538,-58.496700309757934,-60.526423788252366,-62.556147266743736,-64.7899203289356,-67.034434873112389,-69.278949417286086,-71.523463961456585,-73.767978505624015,-76.012493049788475,-78.257007593949652,-80.501522138107674,-82.7460366822627,-84.990551226414482,0.45803786944753105,0.45803786944753105,0.45803786944753105,0.45803786944753105,0.45803786944753105,0.45803786944753105,0.45803786944753105,0.45803786944753105,0.45803786944753105,0.45803786944753105,0.45803786944753105,0.45803786944753105
DP 416,86.907402352545859,0.0020162814751720449,-41.0254077826525,-40.089896630747624,-39.154385478841384,-38.218874326933872,-37.283363175025059,-36.347852023114939,-35.412340871203526,-34.476829719290841,-33.541318567376791,-32.605807415461506,-31.67134418240795,-30.756791605854747,-29.842239029300252,-28.927686452744432,-28.013133876187336,-27.098581299628925,-26.184028723069211,-25.269476146508218,-24.354923569945917,-23.440370993382309,-22.530154837554637,-21.658966878246662,-20.787778918937395,-19.916590959626845,-19.04540300031503,-18.174215041001915,-17.303027081687524,-16.431839122371859,-15.560651163054926,-14.689463203736697,-13.827828133881605,-13.02032670629406,-12.212825278705218,-11.405323851115044,-10.597822423523587,-9.790320995930804,-8.9828195683367031,-8.1753181407413038,-7.3678167131445838,-6.5603152855465634,-5.7693098290733991,-5.04428903671651,-4.3192682443583212,-3.5942474519988239,-2.8692266596380294,-2.1442058672759257,-1.4191850749125214,-0.694164282547809,0.030856509818202114,0.75587730218551707,1.4560863275248179,2.0818591136788904,2.7076318998342797,3.3334046859909905,3.959177472149026,4.584950258308381,5.2107230444690558,5.8364958306310539,6.462268616794363,7.0880414029590044,7.679681399372166,8.1916768754153342,8.7036723514598382,9.2156678275056763,9.7276633035528555,10.239658779601378,10.751654255651236,11.263649731702436,11.775645207754966,12.287640683808839,12.755582779024058,13.141710262968875,13.527837746915042,13.913965230862583,14.30009271481145,14.686220198761712,15.072347682713323,15.458475166666293,15.844602650620617,16.230730134576309,16.562659690617028,16.813291074067514,17.063922457519404,17.314553840972671,17.565185224427331,17.81581660788336,18.06644799134077,18.317079374799583,18.567710758259768,18.818342141721342,19.004751410513347,19.112665634626946,19.220579858741935,19.328494082858366,19.436408306976197,19.544322531095435,19.652236755216073,19.760150979338153,19.868065203461651,19.975979427586552,19.930461957348697,19.890671845208978,19.8508817330707,19.81109162093388,19.771301508798487,19.731511396664555,19.691721284532065,19.651931172401035,19.529249978721225,19.3387473846863,19.148244790652885,18.95774219662097,18.767239602590525,18.576737008561551,18.386234414534076,18.19573182050809,18.005229226483582,17.814726632460552,17.532996335660258,17.190446133180075,16.847895930701412,16.505345728224288,16.162795525748685,15.820245323274611,15.477695120802061,15.135144918331031,14.792594715861535,14.450044513393555,14.008651381979309,13.514033697629451,13.019416013281171,12.524798328934443,12.030180644589292,11.535562960245699,11.040945275903649,10.546327591563204,10.051709907224303,9.5570922228869719,8.9566812660886548,8.3109285497097183,7.6651758333323841,7.0194231169566956,6.3736704005826077,5.7279176842101611,5.0821649678393364,4.4364122514701156,3.7906595351025332,3.1449068187365703,2.386924561945007,1.5915310439346464,0.79613752592594034,0.0007440079188973731,-0.79464951008646922,-1.5900430280902018,-2.385436546092234,-3.1808300640926168,-3.9762235820913632,-4.7716171000884104,-5.685273556878955,-6.6284971456628634,-7.5717207344450363,-8.5149443232254214,-9.4581679120040452,-10.40139150078088,-11.344615089555949,-12.287838678329239,-13.231062267100761,-14.174285855870536,-15.241816219480674,-16.331284455077562,-17.420752690672682,-18.510220926266136,-19.599689161857807,-20.689157397447769,-21.778625633035983,-22.868093868622484,-23.957562104207241,-25.047030339790293,-26.266739690019417,-27.500921643047569,-28.735103596073863,-29.969285549098245,-31.203467502120787,-32.437649455141326,-33.67183140816001,-34.906013361176754,-36.140195314191615,-37.374377267204565,-38.745272847592666,-40.123365242298753,-41.501457637002915,-42.879550031705165,-44.257642426405404,-45.635734821103796,-47.013827215800148,-48.391919610494575,-49.770012005187112,-51.14810439987761,0.28355308975163229,0.28355308975163229,0.28355308975163229,0.28355308975163229,0.28355308975163229,0.28355308975163229,0.28355308975163229,0.28355308975163229,0.28355308975163229,0.28355308975163229,0.28355308975163229,0.28355308975163229
DP 417,189.02660872432872,0.0038966249988777965,-144.58861632049039,-140.80603852504976,-137.02346072960594,-133.24088293415923,-129.45830513870916,-125.67572734325594,-121.89314954779972,-118.11057175234045,-114.3279939568779,-110.54541616141228,-106.7690463612539,-103.11062964557586,-99.45221292989477,-95.793796214210715,-92.1353794985235,-88.476962782833169,-84.81854606713982,-81.160129351443331,-77.501712635743758,-73.843295920041129,-70.210026972808777,-66.803090318844966,-63.396153664878128,-59.989217010908249,-56.582280356935492,-53.1753437029597,-49.768407048980855,-46.361470394999081,-42.954533741014274,-39.547597087026482,-36.194370634868811,-33.1455053776175,-30.096640120363062,-27.0477748631056,-23.998909605845117,-20.950044348581542,-17.901179091314948,-14.852313834045278,-11.803448576772572,-8.7545833194968274,-5.794532892800401,-3.189745985891093,-0.58495907897880317,2.0198278279364983,4.6246147348547737,7.2294016417760707,9.8341885487003555,12.438975455627656,15.043762362557935,17.648549269491205,20.126841999522753,22.22564741627329,24.324452833026836,26.423258249783395,28.522063666542937,30.6208690833055,32.719674500071115,34.818479916839685,36.917285333611311,39.016090750385871,40.952022329484329,42.507908539386435,44.06379474929156,45.619680959199741,47.175567169110934,48.73145337902514,50.28733958894238,51.843225798862619,53.39911200878587,54.954998218712127,56.316305831576948,57.316247937936794,58.316190044299574,59.316132150665446,60.316074257034366,61.316016363406312,62.315958469781307,63.315900576159358,64.315842682540378,65.3157847889245,66.096572132207555,66.548622152129525,67.00067217205455,67.452722191982673,67.904772211913766,68.356822231847985,68.808872251785218,69.260922271725562,69.712972291668947,70.165022311615431,70.381853239317181,70.311189224662584,70.2405252100111,70.169861195362671,70.099197180717326,70.028533166075093,69.957869151435972,69.8872051367999,69.816541122167,69.745877107537183,68.321564049849329,67.765970712989372,67.210377376132669,66.654784039278979,66.099190702428487,65.543597365581121,64.988004028736938,64.432410691895882,63.635312382993,62.640614946512976,61.645917510036121,60.651220073562513,59.656522637092095,58.6618252006248,57.667127764160767,56.672430327699949,55.677732891242229,54.683035454787785,53.454670254815809,52.070522864731231,50.686375474649886,49.3022280845718,47.918080694497007,46.533933304425446,45.149785914357146,43.7656385242921,42.381491134230352,40.997343744171765,39.392472099820964,37.668745724211107,35.945019348604646,34.221292973001454,32.4975665974016,30.773840221805127,29.050113846211907,27.32638747062208,25.602661095035554,23.878934719452364,21.95054967240122,19.934450311745753,17.918350951093593,15.90225159044498,13.886152229799704,11.870052869157867,9.8539535085194423,7.8378541478843786,5.8217547872527788,3.8056554266245737,1.6020249308159482,-0.66411830680945139,-2.9302615444313869,-5.19640478204985,-7.462548019664796,-9.7286912572763473,-11.994834494884328,-14.260977732488847,-16.527120970089978,-18.793264207687535,-21.230549867819267,-23.710623155657977,-26.190696443493092,-28.670769731324512,-31.150843019152276,-33.630916306976324,-36.110989594796756,-38.591062882613485,-41.071136170426541,-43.551209458236016,-46.188912507188164,-48.854434325676834,-51.5199561441619,-54.185477962643404,-56.85099978112121,-59.516521599595535,-62.182043418066243,-64.847565236533427,-67.513087054996916,-70.178608873456923,-72.992116736660734,-75.822069047925453,-78.652021359186236,-81.48197367044304,-84.311925981696191,-87.141878292945208,-89.971830604190416,-92.801782915431815,-95.631735226669079,-98.46168753790262,-101.43610451866935,-104.41812634045921,-107.40014816224524,-110.38216998402731,-113.36419180580529,-116.34621362757944,-119.32823544934958,-122.31025727111565,-125.29227909287779,-128.27430091463594,0.5896456075567944,0.5896456075567944,0.5896456075567944,0.5896456075567944,0.5896456075567944,0.5896456075567944,0.5896456075567944,0.5896456075567944,0.5896456075567944,0.5896456075567944,0.5896456075567944,0.5896456075567944
DP 418,285.34621308101788,0.001577505649886789,-78.594374804806591,-76.377420425058716,-74.160466045309718,-71.943511665559413,-69.726557285807829,-67.509602906055008,-65.292648526300937,-63.075694146545629,-60.858739766789142,-58.641785387031334,-56.429468829277745,-54.3052717663812,-52.181074703483361,-50.05687764058424,-47.932680577683939,-45.808483514782438,-43.684286451879686,-41.560089388975733,-39.435892326070494,-37.311695263164083,-35.205972724509046,-33.266522650370696,-31.327072576231124,-29.387622502090412,-27.44817242794851,-25.508722353805389,-23.569272279661067,-21.62982220551558,-19.690372131368907,-17.750922057221036,-15.849895733955673,-14.166606420283532,-12.483317106610203,-10.800027792935655,-9.1167384792598991,-7.4334491655829229,-5.7501598519047539,-4.06687053822536,-2.3835812245447676,-0.70029191086296794,0.921748332022619,2.2987893970391573,3.675830462056874,5.052871527075788,6.4299125920958708,7.8069536571171518,9.1839947221396248,10.561035787163279,11.9380768521881,13.315117917214119,14.608844099863083,15.652622485358089,16.696400870854273,17.740179256351627,18.783957641850197,19.827736027349935,20.871514412850864,21.915292798352993,22.959071183856278,24.002849569360787,24.945075709863968,25.650342612498878,26.355609515135018,27.060876417772317,27.766143320410794,28.4714102230505,29.176677125691356,29.881944028333415,30.587210930976674,31.292477833621113,31.883837745802918,32.263653028079368,32.643468310356972,33.023283592635771,33.4030988749158,33.782914157196984,34.1627294394794,34.542544721762965,34.922360004047746,35.302175286333707,35.56245180618194,35.643417357627769,35.72438290907477,35.805348460523007,35.886314011972445,35.967279563423062,36.048245114874916,36.129210666327928,36.210176217782141,36.291141769237562,36.253407683313156,36.070593769554343,35.887779855796687,35.704965942040296,35.522152028285106,35.3393381145311,35.156524200778307,34.973710287026748,34.790896373276382,34.608082459527253,33.4974266507559,33.089726684872041,32.682026718989412,32.274326753108006,31.866626787227823,31.458926821348864,31.051226855471182,30.643526889594646,30.133568539603075,29.539942481588437,28.946316423575006,28.352690365562864,27.759064307551927,27.165438249542269,26.571812191533841,25.978186133526648,25.38456007552071,24.790934017515994,24.107558444857503,23.3643484485548,22.621138452253341,21.877928455953157,21.134718459654241,20.391508463356587,19.648298467060208,18.905088470765065,18.16187847447123,17.418668478178621,16.599078697281328,15.73836022936271,14.877641761445398,14.016923293529361,13.156204825614601,12.295486357701131,11.434767889788938,10.574049421878049,9.7133309539684216,8.8526124860600959,7.9285605105640187,6.9773645342472621,6.0261685579317836,5.0749725816176809,4.1237766053048608,3.1725806289933849,2.2213846526832266,1.2701886763743628,0.31899270006684677,-0.63220327623935746,-1.6348918996892616,-2.6547453878066292,-3.6745988759226607,-4.6944523640373443,-5.7143058521506687,-6.7341593402626838,-7.7540128283733125,-8.7738663164826036,-9.793719804590598,-10.813573292697196,-11.874807555580157,-12.946387501076845,-14.017967446572165,-15.08954739206604,-16.161127337558518,-17.232707283049567,-18.304287228539195,-19.375867174027412,-20.447447119514212,-21.519027064999637,-22.624088970534395,-23.735059829577786,-24.846030688619734,-25.957001547660361,-27.067972406699564,-28.178943265737409,-29.289914124773855,-30.400884983808904,-31.511855842842582,-32.622826701874907,-33.761588491293118,-34.903438453734587,-36.045288416174543,-37.187138378612985,-38.328988341050028,-39.470838303485451,-40.612688265919473,-41.7545382283519,-42.896388190782886,-44.038238153212347,-45.204867596432393,-46.372801469396713,-47.540735342359518,-48.7086692153208,-49.87660308828054,-51.044536961238805,-52.212470834195493,-53.380404707150639,-54.548338580104279,-55.7162724530564,0.22685440111322447,0.22685440111322447,0.22685440111322447,0.22685440111322447,0.22685440111322447,0.22685440111322447,0.22685440111322447,0.22685440111322447,0.22685440111322447,0.22685440111322447,0.22685440111322447,0.22685440111322447
DP 419,80.321282494690251,0.0019885217263281656,-38.261656635630018,-37.4016469638649,-36.541637292098571,-35.681627620331049,-34.821617948562256,-33.961608276792262,-33.101598605021053,-32.241588933248622,-31.381579261474975,-30.521569589700103,-29.662492722194752,-28.82113931217398,-27.979785902151917,-27.138432492128725,-26.297079082104243,-25.455725672078561,-24.614372262051653,-23.773018852023498,-22.931665441994141,-22.09031203196356,-21.252824837259482,-20.450133945945417,-19.647443054630141,-18.84475216331365,-18.042061271995948,-17.239370380677016,-16.436679489356884,-15.633988598035556,-14.831297706713011,-14.028606815389237,-13.234453129016204,-12.488677475337191,-11.742901821656949,-10.99712616797545,-10.251350514292719,-9.5055748606087569,-8.7597992069235513,-8.0140235532371058,-7.2682478995494222,-6.5224722458605022,-5.7914864987642556,-5.1196610770253415,-4.4478356552851936,-3.7760102335438082,-3.10418481180119,-2.4323593900573268,-1.7605339683122334,-1.0887085465658992,-0.41688312481833278,0.25494229693047,0.90443116983091421,1.4869095516698032,2.069387933509947,2.6518663153513455,3.2343446971939978,3.8168230790379072,4.3993014608830689,4.9817798427294884,5.56425822457716,6.1467366064260833,6.6983348985651068,7.1778784318687228,7.6574219651736151,8.136965498479773,8.6165090317872117,9.09605256509592,9.5755960984059083,10.055139631717166,10.534683165029696,11.014226698343508,11.453683466924922,11.818692304127788,12.183701141331941,12.548709978537401,12.913718815744147,13.278727652952199,13.64373649016154,14.008745327372178,14.373754164584117,14.738763001797349,15.054132349385604,15.295041289536256,15.53595022968825,15.776859169841547,16.017768109996165,16.258677050152116,16.499585990309381,16.740494930467978,16.981403870627883,17.222312810789113,17.403972237972773,17.513214349216607,17.622456460461798,17.731698571708332,17.840940682956216,17.950182794205453,18.059424905456058,18.168667016708007,18.277909127961298,18.387151239215964,18.371515654431015,18.343412738629745,18.315309822829875,18.287206907031386,18.259103991234287,18.231001075438556,18.202898159644246,18.174795243851317,18.068968843621771,17.899549165846917,17.730129488073469,17.560709810301461,17.391290132530859,17.221870454761707,17.052450776993975,16.883031099227647,16.713611421462758,16.544191743699304,16.288483874258361,15.975249184352316,15.662014494447762,15.348779804544666,15.035545114643027,14.722310424742849,14.409075734844153,14.095841044946926,13.782606355051179,13.46937166515686,13.061818080999537,12.603476028369595,12.145133975741189,11.686791923114294,11.228449870488932,10.770107817865078,10.311765765242759,9.8534237126219644,9.39508166000269,8.9367396073849381,8.3765648489282061,7.7727457834358,7.1689267179449256,6.5651076524556569,5.9612885869679282,5.357469521481776,4.7536504559971906,4.14983139051414,3.5460123250326778,2.9421932595527749,2.2294518125339819,1.4804015322715307,0.73135125201067741,-0.017699028248571808,-0.76674930850620537,-1.5157995887622604,-2.2648498690166812,-3.0139001492695079,-3.7629504295207554,-4.5120007097703674,-5.376686848925825,-6.2702833190634,-7.1638797891992825,-8.0574762593334466,-8.9510727294659187,-9.8446691995966535,-10.73826566972569,-11.631862139853009,-12.525458609978616,-13.419055080102542,-14.434964649155068,-15.472460242863507,-16.509955836570256,-17.54745143027538,-18.584947023978785,-19.622442617680544,-20.659938211380595,-21.697433805078997,-22.734929398775737,-23.772424992470807,-24.938690175621829,-26.11926444331862,-27.29983871101356,-28.480412978706635,-29.660987246397916,-30.841561514087303,-32.022135781774892,-33.202710049460585,-34.383284317144486,-35.563858584826527,-36.880007614030973,-38.203293505914161,-39.526579397795523,-40.849865289674959,-42.173151181552477,-43.496437073428211,-44.819722965301978,-46.143008857173847,-47.466294749043804,-48.789580640911922,0.27332500945749072,0.27332500945749072,0.27332500945749072,0.27332500945749072,0.27332500945749072,0.27332500945749072,0.27332500945749072,0.27332500945749072,0.27332500945749072,0.27332500945749072,0.27332500945749072,0.27332500945749072
DP 420,54.669578423931213,0.0040769593634219208,-60.900755763552979,-59.627017698823153,-58.353279634091486,-57.079541569358035,-55.80580350462278,-54.53206543988582,-53.258327375146962,-51.984589310406335,-50.710851245663953,-49.437113180919752,-48.164599431214626,-46.91534789873392,-45.666096366251423,-44.416844833767108,-43.167593301280995,-41.918341768793049,-40.669090236303276,-39.41983870381172,-38.170587171318267,-36.921335638823017,-35.677186165168386,-34.478955703349271,-33.280725241528309,-32.082494779705506,-30.884264317880859,-29.686033856054323,-28.487803394225967,-27.289572932395743,-26.091342470563657,-24.893112008729755,-23.706252200789375,-22.583826814770543,-21.461401428749788,-20.33897604272714,-19.216550656702587,-18.094125270676134,-16.971699884647773,-15.849274498617509,-14.726849112585363,-13.604423726551312,-12.501933008212468,-11.479181902788646,-10.456430797362886,-9.433679691935188,-8.4109285865055661,-7.3881774810739964,-6.3654263756404941,-5.3426752702050493,-4.31992416476768,-3.2971730593283728,-2.3049965822353169,-1.4045451461692668,-0.50409371010122872,0.39635772596879892,1.2968091620408178,2.197260598114827,3.0977120341908209,3.9981634702688162,4.8986149063487838,5.7990663424307449,6.6564677166132977,7.4134172508853471,8.170366785159441,8.927316319435592,9.6842658537138,10.441215387994035,11.198164922276321,11.955114456560658,12.712063990847057,13.469013525135473,14.168883878173588,14.762748495971,15.356613113770536,15.950477731572187,16.544342349375938,17.138206967181809,17.732071584989811,18.325936202799909,18.919800820612124,19.513665438426425,20.035155046590415,20.448080430029613,20.861005813471024,21.273931196914589,21.686856580360313,22.099781963808272,22.51270734725837,22.925632730710667,23.338558114165146,23.751483497621802,24.075766848056539,24.291708074002813,24.507649299951353,24.723590525902129,24.939531751855213,25.1554729778105,25.371414203768076,25.587355429727868,25.803296655689969,26.019237881654323,26.139043555927742,26.143777181178823,26.148510806432242,26.153244431687988,26.157978056946067,26.162711682206503,26.167445307469297,26.17217893273439,26.05392062905225,25.835030451618223,25.616140274186616,25.39725009675746,25.178359919330738,24.959469741906453,24.74057956448458,24.52168938706517,24.30279920964816,24.08390903223361,23.724441468896842,23.271253433683452,22.818065398472605,22.364877363264259,21.911689328058468,21.458501292855203,21.005313257654478,20.552125222456265,20.098937187260571,19.6457491520674,19.034403332424407,18.337893328956007,17.64138332549026,16.944873322027117,16.248363318566611,15.551853315108733,14.855343311653476,14.158833308200879,13.462323304750884,12.765813301303529,11.89375016975613,10.94644702017413,9.9991438705948532,9.0518407210183636,8.1045375714445775,7.1572344218735644,6.2099312723052869,5.2626281227397262,4.3153249731769385,3.3680218236168851,2.2280535628988449,1.02386117033506,-0.18033122222590117,-1.3845236147840345,-2.5887160073393138,-3.7929083998918047,-4.99710079244141,-6.2012931849882014,-7.4054855775321995,-8.6096779700733173,-10.023102285580597,-11.488837053937154,-12.954571822290692,-14.420306590641145,-15.886041358988559,-17.351776127332879,-18.817510895674154,-20.283245664012359,-21.748980432347487,-23.214715200679638,-24.905977744571228,-26.637041815580346,-28.368105886586417,-30.099169957589606,-31.830234028589715,-33.561298099586878,-35.29236217058105,-37.023426241572274,-38.754490312560534,-40.485554383545775,-42.457414429303952,-44.456032112295155,-46.454649795283146,-48.453267478267691,-50.451885161248988,-52.450502844226875,-54.449120527201543,-56.447738210172787,-58.446355893140733,-60.444973576105355,-62.699339768605292,-64.96716895357055,-67.234998138532518,-69.502827323490976,-71.770656508446024,-74.038485693397732,-76.306314878346015,-78.57414406329066,-80.841973248232108,-83.109802433169946,0.47793077198579059,0.47793077198579059,0.47793077198579059,0.47793077198579059,0.47793077198579059,0.47793077198579059,0.47793077198579059,0.47793077198579059,0.47793077198579059,0.47793077198579059,0.47793077198579059,0.47793077198579059
DP 421,66.34043667783277,0.0036342914557836855,-61.451094788686618,-60.117732757150193,-58.784370725611822,-57.45100869407149,-56.117646662529218,-54.784284630985,-53.450922599438854,-52.117560567890742,-50.78419853634071,-49.450836504788725,-48.118824894267121,-46.812471538647237,-45.506118183025393,-44.199764827401587,-42.893411471775856,-41.58705811614815,-40.280704760518482,-38.974351404886917,-37.66799804925337,-36.361644693617848,-35.060906945846341,-33.810710199663646,-32.56051345347899,-31.310316707292415,-30.060119961103844,-28.809923214913336,-27.559726468720861,-26.309529722526467,-25.0593329763301,-23.809136230131809,-22.571403547544389,-21.404301344178069,-20.237199140809718,-19.070096937439374,-17.902994734067036,-16.7358925306927,-15.568790327316337,-14.401688123937994,-13.234585920557661,-12.067483717175318,-10.922121226825697,-9.8637186160493009,-8.8053160052709121,-7.7469133944904973,-6.6885107837080922,-5.6301081729236566,-4.5717055621372165,-3.5133029513487588,-2.4549003405582983,-1.3964977297658259,-0.37121480979646981,0.55470778548983224,1.4806303807781838,2.4065529760685891,3.3324755713610492,4.2583981666555584,5.1843207619521232,6.1102433572507344,7.0361659525513947,7.9620885478541163,8.8417451868573558,9.6134461056946368,10.385147024534021,11.1568479433755,11.928548862219069,12.700249781064741,13.47195069991248,14.243651618762346,15.015352537614294,15.787053456468346,16.497966079274292,17.095984510617658,17.694002941963166,18.292021373310821,18.890039804660617,19.488058236012552,20.086076667366644,20.684095098722853,21.282113530081219,21.880131961441727,22.401846888288581,22.809104755283848,23.216362622281324,23.623620489280984,24.030878356282855,24.438136223286921,24.845394090293194,25.252651957301669,25.659909824312329,26.067167691325167,26.381987551808745,26.58382568489461,26.785663817982716,26.987501951073117,27.18934008416575,27.391178217260638,27.593016350357768,27.794854483457229,27.996692616558882,28.198530749662819,28.259722197209822,28.243830738013106,28.227939278818731,28.212047819626669,28.196156360436952,28.180264901249561,28.164373442064488,28.148481982881727,28.007299147416994,27.763603032681548,27.519906917948521,27.276210803217886,27.032514688489673,26.788818573763862,26.5451224590404,26.301426344319392,26.057730229600793,25.8140341148846,25.428833149040571,24.949293386571991,24.469753624105909,23.990213861642271,23.510674099181138,23.031134336722463,22.551594574266311,22.072054811812613,21.592515049361424,21.112975286912672,20.476088494774739,19.754474090856867,19.032859686941553,18.311245283028811,17.589630879118623,16.868016475211007,16.146402071305911,15.424787667403436,14.70317326350348,13.981558859606096,13.087221280204965,12.118856567362116,11.150491854521878,10.182127141684372,9.2137624288494866,8.2453977160173082,7.2770330031877837,6.308668290360905,5.3403035775367167,4.3719388647151982,3.2159406055408688,1.9973954662011502,0.77885032686416789,-0.43969481247007319,-1.6582399518015487,-2.8767850911303232,-4.0953302304563,-5.3138753697795496,-6.5324205091001009,-7.7509656484178491,-9.1714737457059812,-10.642474968710511,-12.113476191712136,-13.584477414710797,-15.055478637706537,-16.526479860699293,-17.997481083689163,-19.468482306676052,-20.939483529660002,-22.410484752641079,-24.097584017556368,-25.822820634089435,-27.548057250619564,-29.273293867146929,-30.998530483671306,-32.723767100192866,-34.449003716711545,-36.174240333227324,-37.899476949740254,-39.62471356625035,-41.57943134420659,-43.559649439082911,-45.539867533956162,-47.520085628826109,-49.500303723692966,-51.480521818556575,-53.460739913417065,-55.440958008274258,-57.421176103128367,-59.401394197979258,-61.624523210375671,-63.860439424772409,-66.0963556391658,-68.332271853555909,-70.568188067942742,-72.8041042823264,-75.040020496706731,-77.275936711083759,-79.511852925457546,-81.747769139827966,0.46623979420516354,0.46623979420516354,0.46623979420516354,0.46623979420516354,0.46623979420516354,0.46623979420516354,0.46623979420516354,0.46623979420516354,0.46623979420516354,0.46623979420516354,0.46623979420516354,0.46623979420516354
DP 422,183.15013649521632,0.001837918060231344,-66.565250270983682,-64.833426318817416,-63.101602366649836,-61.369778414480784,-59.63795446231024,-57.906130510138304,-56.174306557964847,-54.442482605789976,-52.710658653613649,-50.978834701435822,-49.249804528181045,-47.573856682639764,-45.897908837096949,-44.22196099155277,-42.54601314600712,-40.870065300459991,-39.194117454911435,-37.518169609361408,-35.842221763809931,-34.166273918257041,-32.501654882144457,-30.938996201825535,-29.376337521505228,-27.813678841183492,-26.251020160860367,-24.688361480535793,-23.125702800209822,-21.563044119882452,-20.000385439553671,-18.437726759223487,-16.899304238373833,-15.498221481816698,-14.09713872525812,-12.696055968698122,-11.294973212136677,-9.893890455573791,-8.4928076990094628,-7.091724942443701,-5.6906421858765066,-4.2895594293078751,-2.9286449661823482,-1.7284055752195553,-0.52816618425535944,0.67207320671025528,1.872312597677275,3.0725519886457131,4.2727913796155654,5.473030770586834,6.6732701615595031,7.87350955253359,9.0163752667101438,9.9871177812719587,10.957860295835175,11.928602810399822,12.899345324965893,13.870087839533372,14.840830354102266,15.811572868672579,16.782315383244306,17.75305789781747,18.649669822550646,19.373307451433572,20.096945080317898,20.82058270920367,21.544220338090859,22.267857966979463,22.9914955958695,23.715133224760944,24.438770853653836,25.162408482548134,25.797130128341109,26.266719689952989,26.73630925156629,27.205898813181005,27.675488374797172,28.145077936414776,28.6146674980338,29.084257059654249,29.553846621276147,30.023436182899456,30.392424959510702,30.610510181369364,30.828595403229468,31.04668062509101,31.264765846953974,31.482851068818416,31.700936290684343,31.919021512551641,32.137106734420385,32.3551919562906,32.464756763489092,32.441683228864122,32.418609694240608,32.395536159618551,32.372462624997972,32.349389090378864,32.3263155557612,32.303242021145024,32.280168486530307,32.257094951917,31.62545136810823,31.377408216224666,31.129365064342569,30.881321912461992,30.633278760582872,30.385235608705241,30.137192456829094,29.889149304954437,29.528387996914667,29.075400805779491,28.622413614645868,28.169426423513716,27.716439232383074,27.263452041253984,26.810464850126351,26.357477659000246,25.904490467875636,25.451503276752558,24.888738548634041,24.252787066464069,23.616835584295618,22.980884102128698,22.344932619963359,21.708981137799505,21.073029655637217,20.437078173476444,19.80112669131724,19.165175209159557,18.424789339830134,17.628168051057163,16.831546762285768,16.034925473515941,15.238304184747678,14.441682895980996,13.645061607215881,12.848440318452358,12.051819029690373,11.255197740929985,10.361002282559873,9.4249876759884117,8.4889730694185257,7.5529584628502944,6.6169438562836458,5.680929249718627,4.7449146431552132,3.80890003659339,2.8728854300332007,1.9368708234746173,0.91071908857686945,-0.14547949175032734,-1.2016780720758873,-2.2578766523998071,-3.3140752327220717,-4.3702738130427274,-5.4264723933616956,-6.4826709736790358,-7.5388695539947665,-8.59506813430881,-9.7342229285989958,-10.894117756523388,-12.054012584446076,-13.213907412367028,-14.373802240286262,-15.533697068203724,-16.693591896119472,-17.853486724033484,-19.013381551945756,-20.173276379856336,-21.410210225670571,-22.660740048975679,-23.91126987227906,-25.161799695580797,-26.412329518880806,-27.662859342179136,-28.913389165475753,-30.163918988770707,-31.414448812063924,-32.664978635355496,-33.988366898482454,-35.319851308997883,-36.651335719511451,-37.9828201300232,-39.314304540533122,-40.645788951041126,-41.977273361547383,-43.308757772051706,-44.640242182554267,-45.971726593054953,-47.374699250810309,-48.781435159173363,-50.188171067534569,-51.594906975893863,-53.001642884251268,-54.408378792606925,-55.815114700960585,-57.221850609312312,-58.628586517662235,-60.035322426010204,0.27860160972303172,0.27860160972303172,0.27860160972303172,0.27860160972303172,0.27860160972303172,0.27860160972303172,0.27860160972303172,0.27860160972303172,0.27860160972303172,0.27860160972303172,0.27860160972303172,0.27860160972303172
DP 423,244.53502987981892,0.0036329663623306725,-162.93212141459122,-158.46839741823163,-154.00467342186917,-149.54094942550384,-145.07722542913552,-140.61350143276439,-136.14977743639039,-131.68605344001335,-127.22232944363353,-122.75860544725064,-118.30337262593763,-114.00947373621135,-109.71557484648204,-105.42167595675002,-101.12777706701513,-96.8338781772773,-92.539979287536639,-88.246080397793079,-83.952181508046678,-79.658282618297378,-75.398444866299556,-71.445160573606088,-67.491876280909821,-63.538591988210818,-59.585307695509023,-55.632023402804421,-51.678739110097084,-47.725454817386918,-43.772170524674024,-39.818886231958331,-35.937239503288595,-32.461543485097813,-28.985847466904129,-25.510151448707639,-22.034455430508366,-18.558759412306223,-15.08306339410125,-11.60736737589345,-8.1316713576828317,-4.6559753394693937,-1.2962468599638357,1.599605983982179,4.49545882793095,7.3913116718825149,10.287164515836816,13.183017359793929,16.078870203753805,18.974723047716449,21.870575891681874,24.766428735650063,27.501463974590173,29.754040318149286,32.006616661711142,34.25919300527584,36.511769348843274,38.764345692413507,41.016922035986504,43.269498379562343,45.522074723140918,47.774651066722235,49.8266623374453,51.41068053911507,52.994698740787619,54.578716942462954,56.162735144141081,57.746753345822022,59.330771547505634,60.914789749192181,62.498807950881435,64.082826152573475,65.4358933916595,66.360045463095247,67.284197534533689,68.208349605975,69.132501677419143,70.056653748866,70.980805820315624,71.9049578917681,72.829109963223374,73.753262034681455,74.427836064403252,74.728037133897843,75.028238203395219,75.328439272895409,75.628640342398484,75.928841411904273,76.229042481412947,76.529243550924392,76.829444620438636,77.129645689955709,77.173941331803974,76.905458297932171,76.636975264063224,76.368492230197148,76.100009196333858,75.831526162473452,75.56304312861586,75.294560094761209,75.02607706090933,74.757594027060236,72.697332509215386,71.926923560005434,71.156514610798382,70.386105661594243,69.615696712393,68.84528776319452,68.074878813999121,67.304469864806464,66.2972127755992,65.096166774157012,63.895120772717824,62.694074771281478,61.493028769848145,60.291982768417633,59.090936766990069,57.88989076556549,56.68884476414383,55.487798762725042,54.07051657218959,52.509073515751624,50.947630459316606,49.386187402884531,47.824744346455475,46.263301290029375,44.701858233606274,43.140415177186121,41.578972120768995,40.0175290643548,38.264188276449623,36.4075151502896,34.550842024132663,32.694168897978763,30.837495771827868,28.980822645680025,27.1241495195352,25.267476393393466,23.410803267254721,21.554130141119035,19.531073010710905,17.436705641528647,15.342338272349398,13.247970903173364,11.153603534000379,9.0592361648305442,6.9648687956638211,4.8705014265001534,2.776134057339652,0.68176668818224251,-1.5544922449454437,-3.8380501542983358,-6.1216080636480665,-8.4051659729946415,-10.68872388233801,-12.97228179167829,-15.255839701015296,-17.539397610349162,-19.822955519679951,-22.106513429007475,-24.510090185319353,-26.943673071417379,-29.377255957512197,-31.81083884360358,-34.244421729691723,-36.6780046157764,-39.111587501857848,-41.54517038793589,-43.978753274010622,-46.412336160082084,-48.948326875781483,-51.502390700203513,-54.056454524622126,-56.610518349037633,-59.164582173449723,-61.718645997858673,-64.272709822264318,-66.826773646666666,-69.380837471065817,-71.934901295461671,-74.5785246388131,-77.232099980410126,-79.885675322003593,-82.539250663593549,-85.1928260051801,-87.846401346762931,-90.499976688342286,-93.15355202991806,-95.807127371490324,-98.460702713059035,-101.19735372827917,-103.93837797394285,-106.67940221960296,-109.42042646525951,-112.16145071091242,-114.90247495656176,-117.64349920220744,-120.38452344784949,-123.12554769348797,-125.86657193912282,0.53556363042441169,0.53556363042441169,0.53556363042441169,0.53556363042441169,0.53556363042441169,0.53556363042441169,0.53556363042441169,0.53556363042441169,0.53556363042441169,0.53556363042441169,0.53556363042441169,0.53556363042441169
DP 424,170.64364622962898,0.0040432695246348854,-138.62183994838421,-135.05945938508935,-131.49707882179126,-127.93469825849023,-124.37231769518588,-120.80993713187826,-117.24755656856752,-113.68517600525352,-110.12279544193636,-106.560414878616,-103.00356662604344,-99.551833323590785,-96.100100021134892,-92.648366718675888,-89.196633416213587,-85.744900113748187,-82.29316681127959,-78.841433508807853,-75.38970020633289,-71.937966903854772,-68.508719557979518,-65.281847946967247,-62.054976335951949,-58.82810472493351,-55.601233113912023,-52.374361502887453,-49.147489891859735,-45.920618280828947,-42.693746669795139,-39.466875058758191,-36.28827755048745,-33.383236333207911,-30.478195115925271,-27.573153898639472,-24.668112681350514,-21.763071464058434,-18.858030246763164,-15.952989029464774,-13.047947812163228,-10.142906594858543,-7.3182674602322653,-4.8152404561964683,-2.3122134521575828,0.19081355188440921,2.693840555929476,5.1968675599776626,7.69989456402894,10.202921568083323,12.705948572140789,15.208975576201354,17.596451299767558,19.637268813010486,21.678086326256505,23.718903839505625,25.759721352757857,27.800538866013213,29.841356379271708,31.88217389253332,33.922991405797958,35.963808919065727,37.854214101476394,39.393651254719238,40.933088407965215,42.472525561214312,44.011962714466527,45.551399867721862,47.0908370209803,48.63027417424194,50.169711327506661,51.709148480774459,53.066612423337048,54.086121203050432,55.105629982767006,56.125138762486664,57.144647542209512,58.164156321935472,59.183665101664587,60.20317388139685,61.222682661132239,62.242191440870776,63.053789484854867,63.553516512198065,64.053243539544468,64.552970566894,65.0526975942467,65.5524246216026,66.0521516489617,66.551878676323938,67.051605703689361,67.551332731057911,67.824323465536466,67.820187301715691,67.816051137898114,67.811914974083791,67.807778810272566,67.803642646464667,67.799506482659964,67.795370318858446,67.791234155060138,67.787097991265,66.58539402724486,66.1055387750963,65.625683522951022,65.145828270809062,64.6659730186703,64.1861177665348,63.706262514402532,63.226407262273618,62.505048604945074,61.586092102044425,60.667135599147159,59.748179096253132,58.829222593362481,57.910266090475154,56.991309587591147,56.072353084710471,55.153396581833036,54.234440078958961,53.076898155632449,51.760295526766029,50.443692897903027,49.127090269043386,47.8104876401872,46.493885011334271,45.17728238248484,43.860679753638713,42.544077124796,41.227474495956642,39.680365763403884,38.009135007658557,36.3379042519167,34.666673496178326,32.995442740443423,31.324211984711958,29.652981228983965,27.981750473259471,26.310519717538416,24.639288961820814,22.7490888753161,20.765041093951609,18.780993312590589,16.7969455312332,14.812897749879316,12.82884996852901,10.844802187182248,8.8607544058389944,6.8767066244993345,4.8926588431632148,2.7027416794710839,0.44419879378968957,-1.8143440918880998,-4.0728869775622778,-6.3314298632327972,-8.58997274889978,-10.848515634563038,-13.107058520222715,-15.365601405878836,-17.624144291531259,-20.075620902031,-22.575333223283788,-25.075045544532809,-27.574757865777979,-30.074470187019358,-32.57418250825684,-35.073894829490584,-37.573607150720463,-40.073319471946533,-42.573031793168852,-45.255087013635631,-47.9693224204706,-50.68355782730184,-53.3977932341294,-56.11202864095312,-58.8262640477732,-61.540499454589487,-64.254734861402014,-66.9689702682109,-69.683205675016,-72.572564550990208,-75.48138342941283,-78.390202307831444,-81.299021186246009,-84.207840064656551,-87.1166589430629,-90.0254778214653,-92.934296699863552,-95.843115578257809,-98.751934456647945,-101.83441221660459,-104.92603164553087,-108.01765107445311,-111.109270503371,-114.20088993228494,-117.29250936119483,-120.38412879010052,-123.47574821900184,-126.56736764789933,-129.65898707679227,0.61451330117493919,0.61451330117493919,0.61451330117493919,0.61451330117493919,0.61451330117493919,0.61451330117493919,0.61451330117493919,0.61451330117493919,0.61451330117493919,0.61451330117493919,0.61451330117493919,0.61451330117493919
DP 425,91.164069886217121,0.0023065941676103509,-48.588716947799249,-47.47104542316734,-46.353373898533896,-45.235702373898938,-44.118030849262446,-43.000359324624426,-41.882687799984858,-40.76501627534379,-39.647344750701208,-38.529673226057135,-37.413279964365614,-36.321173940450919,-35.229067916534682,-34.136961892616917,-33.04485586869761,-31.952749844776804,-30.860643820854463,-29.768537796930627,-28.676431773005202,-27.584325749078303,-26.497501366737541,-25.458212257914269,-24.418923149089537,-23.379634040263287,-22.340344931435524,-21.301055822606287,-20.261766713775543,-19.222477604943297,-18.183188496109562,-17.143899387274296,-16.116230346939986,-15.154409093683995,-14.192587840426485,-13.230766587167455,-12.268945333906878,-11.307124080644764,-10.345302827381119,-9.3834815741159261,-8.4216603208492185,-7.4598390675809725,-6.5180411319133453,-5.6563374129709452,-4.79463369402703,-3.9329299750815854,-3.0712262561346231,-2.20952253718613,-1.347818818236117,-0.4861150992845768,0.37558861966848256,1.2372923386230665,2.0689575421933717,2.8105060638930754,3.5520545855943193,4.2936031072971108,5.0351516290014393,5.7767001507073186,6.518248672414737,7.2597971941236956,8.0013457158342,8.7428942375462366,9.443250447214659,10.047489639799529,10.651728832385947,11.255968024973946,11.860207217563486,12.464446410154592,13.068685602747268,13.672924795341498,14.277163987937302,14.881403180534662,15.43267241296649,15.885567431718366,16.338462450471791,16.791357469226828,17.244252487983434,17.697147506741629,18.1500425255014,18.602937544262755,19.0558325630257,19.508727581790229,19.896730222780551,20.187392763677856,20.478055304576774,20.7687178454773,21.059380386379445,21.350042927283219,21.640705468188568,21.931368009095543,22.22203055000416,22.51269309091435,22.726820142444723,22.847402210455574,22.967984278468062,23.088566346482175,23.209148414497971,23.329730482515394,23.45031255053448,23.570894618555187,23.691476686577538,23.812058754601548,23.73598685084664,23.681441344679438,23.626895838513938,23.572350332350084,23.517804826187966,23.463259320027504,23.408713813868715,23.354168307711625,23.201879802020773,22.969618071473523,22.73735634092802,22.505094610384241,22.272832879842174,22.040571149301847,21.808309418763226,21.576047688226346,21.343785957691175,21.111524227157744,20.772302850969574,20.361773359349012,19.951243867730224,19.540714376113197,19.130184884497947,18.719655392884455,18.309125901272758,17.898596409662794,17.488066918054635,17.07753742644822,16.551798501512916,15.964022052515297,15.376245603519481,14.788469154525462,14.200692705533264,13.612916256542883,13.0251398075543,12.437363358567538,11.84958690958258,11.261810460599431,10.551438194379093,9.78852279435193,9.0256073943266184,8.2626919943032267,7.4997765942816859,6.7368611942620413,5.9739457942442691,5.2110303942283647,4.4481149942143565,3.6851995942022224,2.7929536705377509,1.8575959423913935,0.92223821424695462,-0.013119513895559312,-0.94847724203613237,-1.8838349701748123,-2.8191926983115247,-3.7545504264463276,-4.68990815457923,-5.625265882710174,-6.6962154457102026,-7.8010645694660958,-8.90591369321997,-10.010762816971774,-11.115611940721546,-12.220461064469241,-13.325310188214896,-14.4301593119585,-15.535008435700055,-16.639857559439598,-17.886611830150525,-19.158409763626519,-20.430207697100482,-21.702005630572522,-22.973803564042495,-24.245601497510503,-25.517399430976461,-26.789197364440444,-28.060995297902426,-29.332793231362423,-30.752778266482373,-32.189230091433565,-33.625681916382625,-35.062133741329454,-36.498585566274109,-37.935037391216518,-39.371489216156739,-40.80794104109475,-42.244392866030609,-43.680844690964229,-45.272522791872468,-46.872372241218429,-48.472221690562137,-50.07207113990362,-51.671920589242816,-53.271770038579838,-54.871619487914579,-56.471468937246989,-58.071318386577317,-59.671167835905152,0.32841204994792345,0.32841204994792345,0.32841204994792345,0.32841204994792345,0.32841204994792345,0.32841204994792345,0.32841204994792345,0.32841204994792345,0.32841204994792345,0.32841204994792345,0.32841204994792345,0.32841204994792345
DP 426,83.627134231497848,0.0026653200036449625,-52.761357969717672,-51.566651844031675,-50.3719457183439,-49.177239592654551,-47.98253346696341,-46.787827341270656,-45.593121215576218,-44.398415089880075,-43.203708964182255,-42.0090028384828,-40.815613748265939,-39.647248581227792,-38.478883414187983,-37.310518247146526,-36.142153080103341,-34.973787913058494,-33.805422746011956,-32.637057578963734,-31.468692411913857,-30.300327244862263,-29.137416607934149,-28.023597257702313,-26.909777907468811,-25.795958557233647,-24.682139206996858,-23.56831985675835,-22.454500506518212,-21.340681156276407,-20.226861806032968,-19.113042455787856,-18.011252649715303,-16.977631018664074,-15.944009387611134,-14.910387756556485,-13.876766125500158,-12.843144494442125,-11.809522863382384,-10.775901232320946,-9.74227960125781,-8.7086579701929843,-7.6958432965700725,-6.7662574360735643,-5.8366715755753642,-4.9070857150754676,-3.9774998545738915,-3.0479139940706115,-2.1183281335656465,-1.1887422730589832,-0.25915641255063548,0.670429447959406,1.5686563974908967,2.3728054284463163,3.1769544594034533,3.9811034903623055,4.7852525213228763,5.5894015522851639,6.3935505832491666,7.1976996142148888,8.0018486451823136,8.80599767615147,9.5669013287125644,10.22689739514807,10.886893461585302,11.546889528024288,12.206885594465003,12.866881660907447,13.526877727351648,14.186873793797592,14.846869860245265,15.506865926694662,16.110885577207952,16.610947514988634,17.111009452771079,17.611071390555281,18.111133328341285,18.611195266129023,19.111257203918548,19.61131914170986,20.1113810795029,20.611443017297734,21.042415640378366,21.369752658780786,21.697089677184984,22.024426695590996,22.351763713998828,22.67910073240845,23.006437750819881,23.333774769233084,23.661111787648117,23.988448806064945,24.233621256944936,24.378368621653689,24.523115986364274,24.667863351076715,24.812610715791,24.957358080507127,25.102105445225078,25.246852809944905,25.391600174666525,25.536347539390018,25.496294224681471,25.451323067210389,25.406351909741158,25.361380752273845,25.316409594808405,25.271438437344845,25.22646727988317,25.181496122423408,25.029612159464804,24.790252245543321,24.550892331623785,24.311532417706207,24.072172503790537,23.832812589876813,23.593452675965011,23.354092762055153,23.114732848147256,22.875372934241284,22.517831247925198,22.081499851551278,21.645168455179395,21.208837058809447,20.772505662441528,20.33617426607557,19.899842869711634,19.46351147334968,19.027180076989712,18.590848680631733,18.025901560013125,17.391697948341104,16.757494336671144,16.123290725003233,15.489087113337385,14.854883501673587,14.220679890011834,13.586476278352162,12.952272666694533,12.318069055038974,11.545600764753347,10.713873849877608,9.882146935003945,9.0504200201324529,8.2186931052630516,7.3869661903957926,6.55523927553065,5.7235123606676082,4.8917854458067138,4.0600585309479271,3.08104247288414,2.0529281774913954,1.0248138821008179,-0.0033004132875874359,-1.0314147086737997,-2.0595290040578731,-3.0876432994397258,-4.1157575948194172,-5.14387189019697,-6.1719861855723028,-7.3558953981165267,-8.5787551806941469,-9.801614963269472,-11.024474745842472,-12.247334528413157,-13.470194310981503,-14.693054093547547,-15.915913876111254,-17.138773658672658,-18.361633441231756,-19.748774128494567,-21.164907390473321,-22.581040652449754,-23.997173914424,-25.413307176395907,-26.8294404383656,-28.245573700333008,-29.661706962298165,-31.07784022426106,-32.493973486221684,-34.082653096481749,-35.6905063353626,-37.298359574240969,-38.906212813116781,-40.514066051990163,-42.121919290861008,-43.729772529729395,-45.337625768595196,-46.945479007458623,-48.553332246319528,-50.342583238355665,-52.141383285393708,-53.940183332429278,-55.738983379462184,-57.537783426492616,-59.336583473520477,-61.135383520545851,-62.934183567568567,-64.732983614588747,-66.531783661606369,0.37081233109666367,0.37081233109666367,0.37081233109666367,0.37081233109666367,0.37081233109666367,0.37081233109666367,0.37081233109666367,0.37081233109666367,0.37081233109666367,0.37081233109666367,0.37081233109666367,0.37081233109666367
DP 427,194.89571441007953,0.0026473612356641817,-100.54767384924192,-97.9030984413349,-95.258523033425917,-92.6139476255147,-89.969372217601475,-87.324796809686,-84.680221401768449,-82.035645993848888,-79.391070585927153,-76.746495178003158,-74.106333977509976,-71.550043552719174,-68.993753127926311,-66.437462703131331,-63.881172278334169,-61.324881853534983,-58.768591428733664,-56.212301003930271,-53.656010579124768,-51.099720154317183,-48.561291628998958,-46.183621887440125,-43.805952145879253,-41.428282404316327,-39.050612662751355,-36.672942921184365,-34.295273179615343,-31.917603438044281,-29.539933696471181,-27.162263954896023,-24.82268140412739,-22.698928667983555,-20.575175931837666,-18.451423195689689,-16.327670459539672,-14.203917723387562,-12.080164987233365,-9.9564122510770936,-7.83265951491876,-5.7089067787583572,-3.6479915449856115,-1.8384292905208588,-0.0288670360540804,1.7806952184147451,3.5902574728855896,5.3998197273585,7.2093819818334275,9.0189442363104035,10.828506490789406,12.638068745270454,14.358391033989465,15.810990051378647,17.263589068769861,18.716188086163129,20.168787103558447,21.621386120955826,23.073985138355219,24.526584155756698,25.979183173160148,27.431782190565723,28.76986855826198,29.840754233340249,30.911639908420575,31.982525583502944,33.053411258587367,34.12429693367384,35.195182608762345,36.2660682838529,37.336953958945514,38.407839634040222,39.342464059060767,40.024028196908624,40.705592334758585,41.387156472610585,42.068720610464638,42.750284748320794,43.431848886178976,44.113413024039232,44.794977161901549,45.476541299765927,46.005321817133563,46.304923293421595,46.604524769711674,46.904126246003919,47.203727722298154,47.503329198594479,47.802930674892856,48.102532151193394,48.402133627495971,48.701735103800665,48.83816850413114,48.775170828740158,48.712173153351245,48.649175477964441,48.586177802579719,48.523180127197115,48.460182451816607,48.397184776438223,48.334187101061971,48.271189425687751,47.2458172267686,46.848267249837761,46.450717272909081,46.053167295982512,45.65561731905813,45.258067342135817,44.8605173652157,44.462967388297656,43.8997931552593,43.201105320842146,42.502417486427163,41.80372965201434,41.10504181760367,40.406353983195189,39.707666148788853,39.008978314384706,38.310290479982719,37.611602645582927,36.753696111058233,35.789641268187779,34.825586425319521,33.861531582453459,32.897476739589649,31.933421896727985,30.969367053868591,30.005312211011368,29.0412573681564,28.077202525303591,26.963794129303263,25.769962417438247,24.576130705575558,23.382298993715089,22.18846728185687,20.994635570000931,19.800803858147244,18.606972146295856,17.413140434446664,16.21930872259977,14.888030296351319,13.497843815416388,12.107657334483712,10.717470853553417,9.3272843726253925,7.937097891699711,6.5469114107763389,5.1567249298552458,3.7665384489365072,2.3763519680200709,0.86122588507596,-0.69554830647009847,-2.2523224980138048,-3.8090966895551612,-5.3658708810941285,-6.9226450726307931,-8.47941926416503,-10.036193455696933,-11.592967647226525,-13.149741838753709,-14.819587925375735,-16.517703321732871,-18.215818718087561,-19.913934114439741,-21.612049510789454,-23.310164907136638,-25.008280303481357,-26.706395699823581,-28.404511096163322,-30.10262649250064,-31.904033425758655,-33.723669425912689,-35.543305426064144,-37.362941426213339,-39.182577426359948,-41.002213426504234,-42.821849426646018,-44.6414854267854,-46.461121426922368,-48.2807574270569,-50.196652262355315,-52.123243534726392,-54.049834807094889,-55.976426079460666,-57.90301735182387,-59.8296086241843,-61.756199896542242,-63.682791168897431,-65.609382441250091,-67.535973713600072,-69.556049497722427,-71.581046449438617,-73.606043401152164,-75.631040352863,-77.656037304571058,-79.681034256276519,-81.70603120797935,-83.731028159679326,-85.756025111376729,-87.781022063071362,0.39980164576866528,0.39980164576866528,0.39980164576866528,0.39980164576866528,0.39980164576866528,0.39980164576866528,0.39980164576866528,0.39980164576866528,0.39980164576866528,0.39980164576866528,0.39980164576866528,0.39980164576866528
DP 428,195.66030717596033,0.004251408653430714,-161.95005261722466,-157.68755157418605,-153.42505053114385,-149.16254948809845,-144.90004844504958,-140.63754740199735,-136.37504635894172,-132.11254531588264,-127.85004427282007,-123.58754322975419,-119.33217274244767,-115.21228416262117,-111.09239558279151,-106.97250700295835,-102.8526184231219,-98.732729843281987,-94.612841263438725,-90.492952683592222,-86.373064103742166,-82.253175523888814,-78.1621351839281,-74.330731729813877,-70.499328275696442,-66.667924821575667,-62.836521367451688,-59.005117913324455,-55.173714459193945,-51.342311005060132,-47.510907550923058,-43.679504096782686,-39.90960079539709,-36.488202235038287,-33.066803674676144,-29.6454051143107,-26.224006553941926,-22.802607993569829,-19.381209433194382,-15.95981087281559,-12.538412312433481,-9.1170137520480523,-5.7970498105671924,-2.8828291385966054,0.031391533377232238,2.94561220535436,5.8598328773347328,8.77405354931841,11.688274221305344,14.602494893295564,17.516715565289037,20.430936237285778,23.201153256526641,25.539353872914386,27.877554489305403,30.215755105699731,32.553955722097321,34.892156338498225,37.230356954902383,39.56855757130986,41.906758187720563,44.244958804134583,46.398459274540514,48.120985463368726,49.843511652200235,51.56603784103504,53.288564029873143,55.0110902187146,56.733616407559282,58.456142596407261,60.178668785258544,61.901194974113118,63.404054564818054,64.498955969466962,65.593857374119153,66.688758778774641,67.783660183433454,68.87856158809555,69.973462992760986,71.068364397429718,72.163265802101762,73.258167206777145,74.106909786537088,74.586408312098072,75.065906837662368,75.545405363230074,76.024903888801049,76.504402414375377,76.983900939953088,77.463399465534081,77.9428979911185,78.422396516706172,78.6391752102628,78.534846368521656,78.430517526783845,78.326188685049459,78.221859843318455,78.117531001590734,78.0132021598665,77.9088733181456,77.804544476428063,77.7002156347139,76.041511700363856,75.398894877386454,74.756278054412576,74.113661231442023,73.471044408474967,72.828427585511363,72.185810762551142,71.543193939594275,70.634296463974479,69.507528423588766,68.380760383206493,67.253992342827758,66.127224302452476,65.000456262080633,63.873688221712257,62.746920181347505,61.620152140986114,60.493384100628241,59.110847747559369,57.557795156753016,56.004742565950316,54.451689975151055,52.898637384355411,51.345584793563233,49.792532202774709,48.23947961198963,46.686427021208225,45.133374430430266,43.3406163957399,41.418782713206056,39.496949030675935,37.575115348149396,35.653281665626466,33.7314479831072,31.809614300591516,29.887780618079521,27.96594693557109,26.044113253066328,23.901898416573058,21.6652307943034,19.428563172037332,17.191895549775111,14.955227927516539,12.718560305261713,10.481892683010607,8.2452250607631559,6.0085574385194738,3.7718898162794963,1.3351022383482081,-1.1683945135582137,-3.6718912654608613,-6.1753880173597331,-8.67888476925477,-11.182381521146105,-13.685878273033554,-16.189375024917258,-18.692871776797237,-21.196368528673339,-23.880780446653031,-26.610423293698378,-29.340066140739815,-32.069708987777261,-34.799351834810707,-37.528994681840118,-40.258637528865577,-42.988280375886958,-45.717923222904425,-48.447566069917933,-51.3422981260105,-54.266165407754784,-57.190032689495048,-60.113899971231639,-63.037767252964095,-65.9616345346928,-68.8855018164175,-71.809369098138333,-74.733236379855271,-77.6571036615683,-80.734672273612574,-83.829320425473384,-86.923968577329987,-90.0186167291823,-93.113264881030489,-96.207913032874259,-99.302561184713909,-102.39720933654931,-105.49185748838039,-108.58650564020728,-111.83032347946711,-115.08199383908371,-118.33366419869628,-121.58533455830454,-124.83700491790837,-128.08867527750786,-131.34034563710307,-134.59201599669387,-137.84368635628041,-141.09535671586261,0.64186379537460259,0.64186379537460259,0.64186379537460259,0.64186379537460259,0.64186379537460259,0.64186379537460259,0.64186379537460259,0.64186379537460259,0.64186379537460259,0.64186379537460259,0.64186379537460259,0.64186379537460259
DP 429,206.39536910538396,0.0030219251956166539,-119.83455400831924,-116.65062925954769,-113.46670451077371,-110.28277976199735,-107.09885501321855,-103.91493026443734,-100.73100551565366,-97.547080766867751,-94.363156018079181,-91.179231269288337,-88.00079439923347,-84.926628262661481,-81.852462126087133,-78.77829598951034,-75.704129852931146,-72.629963716349536,-69.555797579765652,-66.481631443179239,-63.407465306590474,-60.333299169999322,-57.281292833007733,-54.428726787014575,-51.576160741019038,-48.723594695021227,-45.871028649021078,-43.018462603018591,-40.165896557013767,-37.313330511006633,-34.46076446499719,-31.608198418985417,-28.802734361347248,-26.264184539278769,-23.725634717207939,-21.187084895134728,-18.648535073059193,-16.109985250981254,-13.571435428900934,-11.032885606818249,-8.4943357847332166,-5.95578596264581,-3.4946019988929047,-1.3428851248580553,0.80883174917910738,2.9605486232186045,5.1122654972604114,7.2639823713045661,9.4156992453510284,11.567416119399832,13.719132993450948,15.870849867504393,17.913304304361453,19.62796729856316,21.3426302927672,23.0572932869736,24.771956281182312,26.48661927539333,28.201282269606711,29.915945263822433,31.630608258040461,33.345271252260829,34.920661203013992,36.17107523388443,37.421489264757241,38.671903295632319,39.922317326509756,41.172731357389559,42.423145388271678,43.673559419156142,44.923973450042965,46.174387480932104,47.260351801758091,48.040905077027254,48.821458352298762,49.602011627572608,50.382564902848877,51.163118178127434,51.943671453408271,52.72422472869156,53.504778003977208,54.285331279265144,54.883091197647936,55.206656761197067,55.530222324748522,55.853787888302456,56.1773534518586,56.500919015417281,56.824484578978236,57.148050142541592,57.471615706107286,57.7951812696754,57.925404576382881,57.819316619150165,57.7132286619198,57.607140704691844,57.501052747466346,57.394964790243172,57.288876833022407,57.182788875804057,57.076700918588074,56.9706129613745,55.671709545571126,55.173365029170213,54.675020512771752,54.176675996375607,53.678331479982,53.1799869635908,52.681642447202009,52.18329793081562,51.492976558383653,50.645579913563843,49.798183268746456,48.950786623931592,48.103389979119179,47.255993334309188,46.408596689501728,45.561200044696726,44.713803399894161,43.866406755094083,42.83673372832444,41.685540242071781,40.534346755821666,39.383153269574024,38.231959783328932,37.0807662970863,35.929572810846238,34.778379324608636,33.627185838373634,32.475992352141056,31.156088885818345,29.745339130723995,28.334589375632287,26.92383962054307,25.513089865456468,24.102340110372452,22.69159035529098,21.280840600212134,19.870090845135813,18.4593410900621,16.895552781205655,15.266173937612756,13.636795094022396,12.00741625043476,10.378037406849691,8.7486585632672966,7.1192797196875324,5.4899008761103554,3.8605220325358576,2.2311431889639746,0.46477822444480071,-1.3472505068030411,-3.1592792380482106,-4.9713079692907032,-6.7833367005304881,-8.5953654317676449,-10.407394163002049,-12.219422894233785,-14.03145162546291,-15.843480356689279,-17.777495490049088,-19.742008665229765,-21.706521840407632,-23.671035015582667,-25.635548190754914,-27.600061365924258,-29.564574541090806,-31.529087716254534,-33.493600891415426,-35.458114066573543,-37.532287079476617,-39.625813047884328,-41.719339016289219,-43.81286498469148,-45.906390953090835,-47.999916921487547,-50.093442889881374,-52.186968858272529,-54.280494826660835,-56.374020795046476,-58.568261116507244,-60.773692979379511,-62.979124842248886,-65.184556705115114,-67.38998856797852,-69.5954204308388,-71.800852293696138,-74.00628415655035,-76.211716019401734,-78.417147882249992,-80.719387859264145,-83.026723963382011,-85.334060067496878,-87.641396171608633,-89.948732275717333,-92.256068379822963,-94.563404483925623,-96.870740588025058,-99.178076692121593,-101.48541279621492,0.45427700933095527,0.45427700933095527,0.45427700933095527,0.45427700933095527,0.45427700933095527,0.45427700933095527,0.45427700933095527,0.45427700933095527,0.45427700933095527,0.45427700933095527,0.45427700933095527,0.45427700933095527
DP 430,84.558199514343286,0.0012046109823811355,-24.0342835963615,-23.488958739153652,-22.943633881945047,-22.398309024735678,-21.852984167525552,-21.307659310314651,-20.762334453103,-20.217009595890563,-19.671684738677381,-19.126359881463415,-18.581638931025367,-18.048392323508647,-17.515145715991121,-16.981899108472863,-16.44865250095382,-15.915405893434027,-15.382159285913472,-14.848912678392153,-14.31566607087006,-13.782419463347198,-13.251673403627979,-12.743432510503625,-12.235191617378534,-11.72695072425269,-11.218709831126093,-10.710468937998735,-10.202228044870617,-9.69398715174176,-9.1857462586121414,-8.6775053654817711,-8.17477747382817,-7.7032902712788438,-7.2318030687287411,-6.7603158661778595,-6.2888286636262123,-5.817341461073795,-5.3458542585206,-4.8743670559666308,-4.4028798534118927,-3.931392650856385,-3.4694360535389137,-3.0456023276000126,-2.6217686016603423,-2.197934875719902,-1.7741011497786994,-1.3502674238367214,-0.92643369789397678,-0.502599971950461,-0.078766246006178986,0.34506747993887216,0.754544469919187,1.1209507091954307,1.4873569484724525,1.8537631877502554,2.2201694270288352,2.5865756663081991,2.9529819055883397,3.3193881448692606,3.6857943841509528,4.0522006234334311,4.3988232812575623,4.6992834698571535,4.999743658457537,5.3002038470587056,5.6006640356606683,5.9011242242634223,6.2015844128669633,6.5020446014713009,6.8025047900764237,7.102964978682329,7.3778377013442187,7.6051901533764292,7.8325426054094445,8.0598950574432582,8.2872475094778828,8.5145999615133032,8.7419524135495248,8.969304865586551,9.19665731762438,9.4240097696630158,9.6198098549450854,9.7682806444977981,9.9167514340513438,10.065222223605693,10.213693013160869,10.362163802716863,10.510634592273675,10.659105381831303,10.807576171389748,10.956046960949021,11.067032720721564,11.132202656723463,11.197372592726175,11.262542528729732,11.32771246473413,11.392882400739358,11.458052336745425,11.523222272752326,11.588392208760057,11.653562144768642,11.632931064613992,11.611644481913416,11.590357899213695,11.569071316514842,11.547784733816842,11.5264981511197,11.505211568423402,11.48392498572797,11.413974751658484,11.30420796650883,11.194441181360039,11.084674396212138,10.974907611065108,10.86514082591896,10.755374040773685,10.645607255629299,10.535840470485782,10.426073685343152,10.26258008259996,10.063267755067407,9.8639554275357515,9.6646431000050015,9.4653307724751645,9.2660184449462175,9.0667061174181711,8.8673937898910342,8.6680814623648086,8.4687691348394818,8.211059660225418,7.9219047187514793,7.63274977727848,7.34359483580641,7.0544398943352693,6.7652849528650636,6.4761300113957869,6.1869750699274588,5.8978201284600376,5.6086651869935595,5.2568096851491228,4.8780814562579531,4.4993532273677355,4.1206249984784931,3.7418967695902028,3.363168540702882,2.9844403118165195,2.605712082931114,2.226983854046678,1.8482556251632007,1.4028122796846454,0.93512972120819071,0.46744716273271836,-0.00023539574176892708,-0.46791795421526194,-0.93560051268778577,-1.4032830711593018,-1.8709656296298396,-2.3386481880994054,-2.806330746567967,-3.3445060363593946,-3.900305341864112,-4.4561046473677965,-5.0119039528704228,-5.5677032583720054,-6.123502563872524,-6.6793018693719981,-7.2351011748704144,-7.7909004803677826,-8.3466997858641179,-8.9767652333733814,-9.6199372964997281,-10.263109359625028,-10.906281422749318,-11.549453485872567,-12.192625548994803,-12.835797612116002,-13.47896967523619,-14.122141738355326,-14.765313801473468,-15.486435314702774,-16.216218696597238,-16.946002078490579,-17.675785460382766,-18.405568842273883,-19.135352224163803,-19.865135606052647,-20.594918987940325,-21.324702369826884,-22.054485751712321,-22.866181768144997,-23.682189790867447,-24.498197813588757,-25.314205836308908,-26.130213859027876,-26.94622188174575,-27.762229904462419,-28.578237927177891,-29.394245949892255,-30.210253972605429,0.16812461009840882,0.16812461009840882,0.16812461009840882,0.16812461009840882,0.16812461009840882,0.16812461009840882,0.16812461009840882,0.16812461009840882,0.16812461009840882,0.16812461009840882,0.16812461009840882,0.16812461009840882
DP 431,67.366407563745739,0.0021935149950730818,-37.464879505434972,-36.6496446379514,-35.834409770466571,-35.019174902980609,-34.203940035493424,-33.388705168005096,-32.573470300515524,-31.758235433024808,-30.943000565532877,-30.127765698039784,-29.313360627967409,-28.514721865778835,-27.71608310358911,-26.917444341398152,-26.118805579206022,-25.320166817012705,-24.521528054818177,-23.722889292622476,-22.924250530425571,-22.125611768227476,-21.330422649703532,-20.566280650322987,-19.802138650941249,-19.037996651558323,-18.2738546521742,-17.5097126527889,-16.7455706534024,-15.981428654014708,-15.217286654625823,-14.453144655235743,-13.696656026003636,-12.983536976612163,-12.27041792721948,-11.557298877825575,-10.844179828430452,-10.13106077903409,-9.4179417296365155,-8.704822680237724,-7.9917036308377174,-7.2785845814364842,-6.57880840862291,-5.9324043727587741,-5.2860003368934141,-4.6395963010268213,-3.9931922651590122,-3.3467882292899667,-2.7003841934196973,-2.0539801575481977,-1.4075761216754772,-0.76117208580152862,-0.13508340563995297,0.4300584392865649,0.9952002842143326,1.5603421291433526,2.1254839740736222,2.6906258190051453,3.2557676639379154,3.8209095088719436,4.3860513538072121,4.9511931987437441,5.4879777904368421,5.9585943410760045,6.429210891716437,6.8998274423581529,7.3704439930011425,7.8410605436454048,8.31167709429095,8.7822936449377718,9.2529101955858657,9.7235267462352368,10.156916793587902,10.521170900901502,10.885425008216378,11.249679115532574,11.613933222850076,11.978187330168875,12.342441437488977,12.706695544810396,13.070949652133118,13.435203759457137,13.752775656667479,14.000323135588733,14.24787061451133,14.495418093435271,14.742965572360539,14.990513051287166,15.238060530215114,15.485608009144402,15.733155488075028,15.980702967006998,16.171754307429069,16.293753625205824,16.415752942983964,16.537752260763469,16.659751578544352,16.7817508963266,16.903750214110246,17.025749531895247,17.14774884968163,17.269748167469398,17.303442019984249,17.292519446157893,17.281596872332937,17.270674298509409,17.259751724687305,17.248829150866609,17.237906577047308,17.226984003229454,17.13966148440289,16.989828606672535,16.839995728943645,16.690162851216218,16.540329973490245,16.390497095765738,16.240664218042667,16.090831340321078,15.940998462600955,15.791165584882284,15.555146169214387,15.261667703834977,14.968189238457068,14.674710773080683,14.381232307705798,14.087753842332424,13.794275376960558,13.500796911590179,13.207318446221354,12.913839980854005,12.524636704251007,12.083887906514864,11.643139108780302,11.20239031104726,10.761641513315785,10.320892715585865,9.8801439178574846,9.4393951201306869,8.998646322405417,8.5578975246817066,8.012187158166304,7.4214914905377087,6.8307958229107095,6.2401001552853534,5.6494044876616094,5.0587088200394943,4.4680131524189957,3.8773174848001042,3.2866218171828465,2.695926149567204,1.9913247508628731,1.2487533395939512,0.5061819283266924,-0.23638948293890291,-0.97896089420281884,-1.7215323054650942,-2.4641037167256719,-3.2066751279845929,-3.9492465392418721,-4.691817950497458,-5.5568835334129769,-6.4525741065311975,-7.3482646796476558,-8.2439552527623157,-9.139645825875208,-10.035336398986294,-10.931026972095594,-11.82671754520312,-12.722408118308863,-13.618098691412822,-14.644758078313881,-15.694531065218086,-16.744304052120526,-17.794077039021257,-18.843850025920208,-19.893623012817457,-20.94339599971293,-21.993168986606673,-23.042941973498667,-24.092714960388953,-25.281489991253643,-26.485711153519976,-27.689932315784407,-28.894153478046853,-30.098374640307444,-31.302595802566028,-32.50681696482274,-33.711038127077437,-34.915259289330336,-36.11948045158119,-37.470787654642173,-38.82983769171927,-40.188887728794391,-41.547937765867474,-42.9069878029386,-44.266037840007826,-45.625087877075025,-46.984137914140142,-48.343187951203369,-49.702237988264557,0.2831709051857374,0.2831709051857374,0.2831709051857374,0.2831709051857374,0.2831709051857374,0.2831709051857374,0.2831709051857374,0.2831709051857374,0.2831709051857374,0.2831709051857374,0.2831709051857374,0.2831709051857374
DP 432,134.50275306441856,0.0035181274769745664,-99.950139812704137,-97.4857082140299,-95.0212766153529,-92.556845016673179,-90.092413417990912,-87.62798181930593,-85.1635502206182,-82.699118621927767,-80.234687023234741,-77.770255424539044,-75.309209179826084,-72.912485300817607,-70.515761421806417,-68.119037542792583,-65.722313663776163,-63.325589784757028,-60.928865905735236,-58.532142026710723,-56.135418147683588,-53.738694268653795,-51.355827931741075,-49.097680783743009,-46.839533635742264,-44.581386487739032,-42.323239339733156,-40.065092191724673,-37.806945043713576,-35.548797895699849,-33.290650747683628,-31.032503599664736,-28.804418660049521,-26.74668812908892,-24.688957598125683,-22.631227067159784,-20.573496536191254,-18.515766005220033,-16.458035474246177,-14.400304943269649,-12.342574412290501,-10.284843881308698,-8.2779215576767839,-6.4742344646893084,-4.670547371699227,-2.8668602787065227,-1.0631731857112181,0.74051390728672073,2.5442010002872659,4.3478880932904334,6.151575186296216,7.9552622793045984,9.6845723362191638,11.190748472754162,12.696924609291804,14.203100745832071,15.70927688237496,17.215453018920513,18.721629155468658,20.227805292019472,21.733981428572896,23.24015756512896,24.647336718535485,25.823519012366994,26.999701306201146,28.175883600037931,29.352065893877388,30.528248187719498,31.704430481564227,32.880612775411606,34.056795069261682,35.232977363114365,36.28623162656563,37.111187656600528,37.936143686638061,38.761099716678267,39.586055746721172,40.411011776766713,41.235967806814962,42.06092383686584,42.885879866919446,43.710835896975688,44.391110345602954,44.854359003206035,45.317607660811824,45.780856318420348,46.244104976031565,46.7073536336455,47.170602291262121,47.633850948881424,48.097099606503427,48.560348264128187,48.860469425961291,48.961209110926077,49.0619487958936,49.162688480863892,49.263428165836828,49.364167850812585,49.464907535791049,49.565647220772313,49.666386905756234,49.767126590742983,49.181509330692506,48.927113818327868,48.672718305966036,48.418322793607018,48.163927281250807,47.909531768897331,47.655136256546662,47.400740744198778,46.958598567081957,46.36284225586629,45.767085944653466,45.171329633443492,44.5755733222363,43.979817011032004,43.384060699830549,42.788304388631957,42.192548077436165,41.596791766243243,40.807187310828361,39.8883477054657,38.969508100105955,38.0506684947491,37.1318288893952,36.212989284044149,35.294149678696037,34.375310073350825,33.456470468008547,32.537630862669104,31.42237516521002,30.201354100375728,28.980333035544433,27.759311970716109,26.538290905890758,25.317269841068409,24.096248776249002,22.875227711432618,21.65420664661918,20.433185581808697,19.015879701712329,17.514448444859635,16.01301718800995,14.5115859311634,13.010154674319862,11.508723417479414,10.007292160642017,8.5058609038076565,7.0044296469763951,5.5029983901481705,3.8070268361648334,2.046206064704216,0.2853852932467173,-1.4754354782076631,-3.2362562496588878,-4.9970770211070477,-6.75789779255201,-8.5187185639938612,-10.279539335432657,-12.040360106868247,-13.993412472927604,-15.994525008888722,-17.995637544846577,-19.996750080801103,-21.997862616752318,-23.998975152700226,-26.0000876886448,-28.001200224586082,-30.00231276052406,-32.003425296458786,-34.195459897722522,-36.421188751242141,-38.646917604758407,-40.872646458271525,-43.098375311781382,-45.324104165288041,-47.549833018791382,-49.77556187229154,-52.001290725788479,-54.227019579282235,-56.643976612115289,-59.082183228776081,-61.520389845433307,-63.958596462087066,-66.396803078737364,-68.83500969538396,-71.2732163120272,-73.711422928666721,-76.14962954530283,-78.587836161935428,-81.221071567175912,-83.86457358595824,-86.508075604737115,-89.15157762351221,-91.795079642283881,-94.438581661051842,-97.082083679816265,-99.7255856985769,-102.36908771733407,-105.01258973608751,0.53204004902775548,0.53204004902775548,0.53204004902775548,0.53204004902775548,0.53204004902775548,0.53204004902775548,0.53204004902775548,0.53204004902775548,0.53204004902775548,0.53204004902775548,0.53204004902775548,0.53204004902775548
DP 433,124.99044464078466,0.0012591768439611526,-33.757761635032729,-32.936062358416677,-32.1143630817997,-31.292663805181821,-30.470964528562956,-29.649265251943202,-28.827565975322479,-28.005866698700814,-27.1841674220782,-26.36246814545466,-25.541857402712395,-24.741929009512873,-23.942000616312374,-23.142072223110961,-22.342143829908593,-21.54221543670532,-20.74228704350109,-19.942358650295905,-19.142430257089817,-18.342501863882781,-17.547037685063184,-16.791751857703652,-16.036466030343174,-15.281180202981805,-14.525894375619512,-13.77060854825632,-13.015322720892193,-12.260036893527152,-11.504751066161218,-10.749465238794347,-10.003892564943232,-9.3133617064218335,-8.6228308478995022,-7.9322999893762454,-7.2417691308520489,-6.5512382723269145,-5.8607074138008475,-5.1701765552738479,-4.4796456967459122,-3.789114838217047,-3.11506588123456,-2.5069453093883807,-1.8988247375412826,-1.2907041656932592,-0.68258359384431844,-0.07446302199445,0.53365754985633762,1.1417781217080496,1.749898693560682,2.3580192654142338,2.9418890309077703,3.4530054604299618,3.9641218899530797,4.475238319477131,4.9863547490021087,5.4974711785280146,6.0085876080548539,6.5197040375826152,7.0308204671113037,7.5419368966409346,8.020574895856738,8.42342861187804,8.8262823279002713,9.2291360439234467,9.6319897599475528,10.034843475972592,10.437697191998573,10.840550908025484,11.24340462405333,11.646258340082117,12.008489858854963,12.295279057102965,12.582068255351924,12.868857453601809,13.155646651852653,13.442435850104443,13.729225048357176,14.016014246610849,14.302803444865459,14.589592643121021,14.828171439810291,14.994433494920033,15.160695550030733,15.32695760514237,15.493219660254985,15.659481715368562,15.825743770483077,15.992005825598564,16.158267880714984,16.324529935832395,16.435924309032522,16.480257029628177,16.524589750224802,16.568922470822425,16.613255191421004,16.657587912020535,16.701920632621057,16.74625335322256,16.790586073825029,16.834918794428443,16.666172182212065,16.58980676503732,16.513441347863552,16.437075930690749,16.360710513518967,16.284345096348162,16.207979679178347,16.131614262009517,15.990707141828501,15.796992064533121,15.603276987238759,15.409561909945383,15.215846832653044,15.022131755361698,14.828416678071358,14.634701600782032,14.440986523493725,14.247271446206417,13.986087548416263,13.679923374082978,13.373759199750724,13.067595025419493,12.761430851089303,12.455266676760147,12.14910250243201,11.842938328104902,11.536774153778854,11.230609979453808,10.85517211650299,10.442432029239139,10.029691941976367,9.6169518547146353,9.2042117674539714,8.7914716801943769,8.3787315929358268,7.965991505678363,7.553251418421941,7.14051133116658,6.6575774867332242,6.1445594187193224,5.6315413507064882,5.1185232826947589,4.6055052146841033,4.0924871466745456,3.5794690786660768,3.0664510106586791,2.5534329426523863,2.040414874647174,1.4568385308561886,0.84974187256909073,0.24264521428309974,-0.36445144400178281,-0.97154810228554389,-1.5786447605682161,-2.1857414188497488,-2.79283807713018,-3.3999347354095208,-4.0070313936877247,-4.6848133145394879,-5.3802673861918953,-6.0757214578431551,-6.7711755294932212,-7.466629601142122,-8.1620836727898247,-8.8575377444363586,-9.5529918160817164,-10.248445887725886,-10.943899959368903,-11.710437623555466,-12.489520241591595,-13.268602859626556,-14.047685477660401,-14.826768095693071,-15.605850713724621,-16.384933331754976,-17.164015949784208,-17.943098567812275,-18.722181185839222,-19.573188570647204,-20.432188351587858,-21.291188132527296,-22.150187913465441,-23.009187694402364,-23.868187475338,-24.727187256272408,-25.586187037205544,-26.445186818137429,-27.304186599068039,-28.237028094573994,-29.173756730805408,-30.110485367035569,-31.047214003264408,-31.983942639492017,-32.920671275718334,-33.857399911943361,-34.79412854816708,-35.730857184389549,-36.667585820610739,0.18925244205585082,0.18925244205585082,0.18925244205585082,0.18925244205585082,0.18925244205585082,0.18925244205585082,0.18925244205585082,0.18925244205585082,0.18925244205585082,0.18925244205585082,0.18925244205585082,0.18925244205585082
DP 434,217.40952926163246,0.0028074951267442758,-115.70081311496895,-112.59808744645096,-109.49536177793074,-106.39263610940829,-103.28991044088349,-100.18718477235659,-97.084459103827257,-93.9817334352959,-90.879007766762228,-87.776282098226218,-84.679065079780983,-81.686513454481045,-78.693961829178662,-75.701410203874175,-72.708858578567444,-69.716306953258453,-66.723755327947259,-63.731203702633856,-60.73865207731815,-57.746100452000306,-54.775750223703376,-52.0052146671275,-49.234679110549564,-46.46414355396945,-43.693607997387105,-40.923072440802692,-38.152536884216033,-35.382001327627258,-32.611465771036308,-29.840930214443226,-27.11743956209769,-24.660539665009392,-22.203639767918936,-19.746739870826268,-17.289839973731382,-14.832940076634317,-12.376040179535046,-9.919140282433581,-7.462240385329924,-5.0053404882240677,-2.625387858335829,-0.55322793391465619,1.5189319905086609,3.5910919149341458,5.6632518393617772,7.7354117637915794,9.8075716882235273,11.879731612657642,13.951891537093905,16.024051461532327,17.988114052269342,19.627880554887149,21.267647057507126,22.907413560129271,24.547180062753593,26.186946565380065,27.826713068008697,29.466479570639489,31.10624607327243,32.746012575907571,34.248863786813104,35.432240591413922,36.61561739601693,37.79899420062214,38.982371005229481,40.165747809839011,41.349124614450673,42.532501419064523,43.715878223680555,44.899255028298761,45.922143988594208,46.646979760988479,47.37181553338489,48.09665130578351,48.821487078184276,49.546322850587295,50.2711586229924,50.995994395399762,51.720830167809233,52.445665940220955,52.993576599585992,53.276095408574221,53.558614217564561,53.841133026557181,54.123651835551939,54.406170644548915,54.688689453548065,54.971208262549439,55.253727071552994,55.536245880558724,55.633324841004793,55.5037512025335,55.374177564064347,55.244603925597453,55.115030287132825,54.985456648670365,54.855883010210157,54.726309371752208,54.5967357332964,54.467162094842863,53.147184131137209,52.645106969164424,52.143029807193955,51.640952645225674,51.138875483259689,50.636798321295906,50.134721159334369,49.632643997375105,48.950209791797356,48.120207632785089,47.290205473775096,46.460203314767384,45.630201155761924,44.8001989967588,43.97019683775796,43.140194678759407,42.310192519763078,41.480190360769086,40.480919714541585,39.368800743575754,38.256681772612275,37.1445628016511,36.032443830692316,34.9203248597358,33.808205888781643,32.696086917829781,31.583967946880339,30.471848975933128,29.205004886960996,27.854845022924479,26.504685158890368,25.154525294858654,23.804365430829279,22.4542055668023,21.104045702777682,19.753885838755497,18.403725974735636,17.053566110718169,15.564927421760807,14.016938327608061,12.468949233457669,10.920960139309811,9.3729710451643129,7.8249819510212966,6.2769928568806961,4.7290037627425061,3.1810146686067826,1.6330255744734847,-0.037145365725232596,-1.7480451277828295,-3.4589448898379564,-5.1698446518906112,-6.8807444139407448,-8.5916441759884759,-10.302543938033637,-12.013443700076348,-13.724343462116632,-15.435243224154359,-17.253303768469461,-19.098155774474378,-20.943007780476716,-22.787859786476449,-24.632711792473561,-26.477563798468026,-28.322415804459908,-30.167267810449154,-32.012119816435764,-33.856971822419858,-35.796697340555177,-37.753166298193754,-39.7096352558297,-41.666104213463221,-43.6225731710941,-45.579042128722442,-47.53551108634823,-49.491980043971459,-51.448449001592138,-53.404917959210245,-55.447302639588919,-57.4992344137015,-59.55116618781129,-61.603097961918294,-63.655029736022605,-65.706961510124032,-67.758893284222765,-69.810825058318713,-71.8627568324118,-73.914688606502267,-76.04837560684922,-78.1863663272714,-80.324357047690711,-82.462347768107264,-84.600338488520961,-86.7383292089319,-88.876319929339957,-91.01431064974517,-93.15230137014764,-95.290292090547183,0.41990767547865204,0.41990767547865204,0.41990767547865204,0.41990767547865204,0.41990767547865204,0.41990767547865204,0.41990767547865204,0.41990767547865204,0.41990767547865204,0.41990767547865204,0.41990767547865204,0.41990767547865204
DP 435,203.79104341694452,0.0055844052093386842,-219.35668199265874,-213.54162272534305,-207.72656345802275,-201.91150419069803,-196.09644492336915,-190.2813856560355,-184.46632638869735,-178.65126712135481,-172.83620785400774,-167.02114858665621,-161.21604048772036,-155.6000064699769,-149.98397245222904,-144.36793843447671,-138.75190441671995,-133.13587039895879,-127.5198363811932,-121.90380236342315,-116.2877683456486,-110.6717343278697,-105.09590378835055,-99.881908353307381,-94.667912918260058,-89.453917483208272,-84.239922048152366,-79.025926613092054,-73.811931178027407,-68.59793574295847,-63.383940307885332,-58.169944872807847,-53.041461828837562,-48.397554389682035,-43.753646950522118,-39.109739511357844,-34.4658320721892,-29.821924633016202,-25.17801719383878,-20.534109754656974,-15.890202315470821,-11.246294876280317,-6.742986386319342,-2.8020803381096258,1.138825710104362,5.07973175832267,9.0206378065452437,12.961543854772161,16.902449903003344,20.843355951238856,24.784261999478645,28.725168047722697,32.467256915249223,35.612886723611808,38.758516531978728,41.904146340349953,45.0497761487255,48.195405957105358,51.341035765489522,54.486665573878035,57.632295382270783,60.777925190667851,63.669750831189873,65.969356750852981,68.268962670520338,70.568568590192044,72.868174509868069,75.167780429548458,77.467386349233124,79.76699226892201,82.066598188615473,84.366204108313113,86.365601302871283,87.80745990040235,89.249318497937722,90.691177095477428,92.133035693021512,93.574894290569915,95.016752888122653,96.458611485679782,97.900470083241245,99.342328680807029,100.44983764407714,101.05581425509585,101.66179086611906,102.26776747714659,102.8737440881785,103.47972069921478,104.08569731025548,104.69167392130059,105.29765053235012,105.90362714340394,106.15518961201829,105.97357179548409,105.79195397895425,105.61033616242902,105.428718345908,105.24710052939163,105.06548271287954,104.88386489637193,104.7022470798688,104.52062926337003,102.17390028057221,101.27153088824308,100.3691614959186,99.46679210359855,98.564422711282887,97.662053318971957,96.759683926665332,95.857314534363169,94.601287180434213,93.05589723458165,91.510507288733663,89.96511734289021,88.419727397051346,86.874337451217073,85.32894750538739,83.783557559562283,82.238167613741652,80.6927776679256,78.810664900567559,76.7040649475958,74.59746499462868,72.490865041666211,70.384265088708389,68.277665135755171,66.171065182806657,64.064465229862734,61.957865276923613,59.851265323989,57.432067689949911,54.844543681906387,52.25701967386771,49.669495665833765,47.081971657804516,44.494447649780071,41.906923641760343,39.319399633745469,36.731875625735263,34.144351617729825,31.272349956589263,28.2784244995913,25.284499042598089,22.290573585609877,19.296648128626458,16.302722671647938,13.308797214674314,10.314871757705468,7.3209463007415669,4.3270208437825159,1.0775757637365089,-2.2570457442757532,-5.5916672522830728,-8.926288760285443,-12.2609102682828,-15.59553177627531,-18.930153284262712,-22.264774792245181,-25.599396300222832,-28.934017808195367,-32.497008963664157,-36.11709522922844,-39.7371814947876,-43.357267760341479,-46.977354025890165,-50.597440291433543,-54.217526556971734,-57.837612822504653,-61.457699088032356,-65.07778535355493,-68.903910936910151,-72.766398691067565,-76.628886445219848,-80.491374199367073,-84.353861953509153,-88.216349707646188,-92.078837461777937,-95.9413252159048,-99.803812970026371,-103.66630072414294,-107.71864823625047,-111.79209327099562,-115.86553830573553,-119.93898334046945,-124.0124283751982,-128.08587340992128,-132.15931844463881,-136.23276347935072,-140.30620851405723,-144.379653548758,-148.6360249953139,-152.90202596779841,-157.16802694027729,-161.43402791275039,-165.70002888521788,-169.96602985767981,-174.23203083013607,-178.4980318025865,-182.76403277503147,-187.03003374747053,0.840418502246031,0.840418502246031,0.840418502246031,0.840418502246031,0.840418502246031,0.840418502246031,0.840418502246031,0.840418502246031,0.840418502246031,0.840418502246031,0.840418502246031,0.840418502246031
DP 436,168.09508609776151,0.0027157053546031707,-92.018371644287157,-89.6598028585374,-87.3012340727856,-84.9426652870315,-82.584096501275283,-80.225527715517032,-77.866958929756564,-75.508390143993964,-73.1498213582292,-70.791252572462326,-68.436317608192482,-66.150425939360275,-63.864534270525816,-61.578642601689282,-59.2927509328506,-57.006859264009826,-54.7209675951669,-52.435075926321851,-50.149184257474616,-47.86329258862532,-45.592176587791272,-43.454042995734,-41.315909403674645,-39.177775811613252,-37.039642219549769,-34.90150862748424,-32.7633750354166,-30.625241443346908,-28.487107851275137,-26.348974259201313,-24.242586041229604,-22.316090276931856,-20.389594512631998,-18.463098748330044,-16.536602984025972,-14.610107219719781,-12.683611455411471,-10.75711569110106,-8.8306199267885344,-6.9041241624739005,-5.0305532023183588,-3.3686839600745238,-1.7068147178286195,-0.044945475580629793,1.6169237666694247,3.2787930089215744,4.9406622511757927,6.6025314934320907,8.2644007356904634,9.9262699779509127,11.511979305031215,12.869206007065925,14.226432709102706,15.583659411141575,16.94088611318254,18.2981128152256,19.655339517270725,21.012566219317968,22.369792921367267,23.72701962341867,24.984960053431269,26.0112286050661,27.037497156703008,28.063765708342039,29.090034259983163,30.116302811626362,31.142571363271664,32.168839914919069,33.195108466568577,34.221377018220188,35.12731172844434,35.80976605483464,36.492220381227057,37.174674707621577,37.857129034018243,38.539583360416948,39.222037686817792,39.904492013220782,40.58694633962584,41.269400666033015,41.814091695309813,42.152134523492258,42.490177351676849,42.828220179863578,43.166263008052475,43.504305836243418,43.842348664436543,44.18039149263177,44.518434320829137,44.85647714902867,45.04394360618727,45.047369113695424,45.050794621205711,45.054220128718192,45.057645636232778,45.061071143749523,45.064496651268449,45.067922158789514,45.071347666312747,45.074773173838146,44.293267070509089,43.979978928956811,43.6666907874068,43.353402645858949,43.040114504313294,42.726826362769856,42.413538221228542,42.100250079689445,41.62574002858338,41.019318371663282,40.412896714745372,39.806475057829708,39.200053400916289,38.593631744005094,37.987210087096081,37.380788430189362,36.774366773284839,36.167945116382541,35.401775996837848,34.529106052272454,33.656436107709325,32.783766163148506,31.911096218589936,31.03842627403365,30.165756329479592,29.29308638492784,28.420416440378386,27.54774649583117,26.520242803333783,25.409364841155689,24.298486878979926,23.18760891680645,22.076730954635334,20.965852992466544,19.85497503030005,18.744097068135922,17.633219105974089,16.522341143814593,15.263870972910695,13.942144507071925,12.620418041235475,11.298691575401469,9.9769651095698038,8.6552386437405548,7.3335121779136827,6.011785712089166,4.6900592462670669,3.3683327804473397,1.9073386850168033,0.3999202912160949,-1.1074981025821906,-2.6149164963780476,-4.1223348901714525,-5.62975328396247,-7.1371716777509953,-8.6445900715371131,-10.152008465320845,-11.659426859102076,-13.297848353498226,-14.969022170869604,-16.640195988238467,-18.311369805604741,-19.982543622968446,-21.653717440329569,-23.324891257688115,-24.996065075044132,-26.667238892397549,-28.338412709748447,-30.133841039147118,-31.951198017104964,-33.768554995060271,-35.585911973013218,-37.4032689509635,-39.220625928911311,-41.037982906856584,-42.8553398847994,-44.672696862739706,-46.490053840677483,-48.427115181141,-50.3774782635063,-52.327841345869039,-54.278204428228968,-56.2285675105862,-58.178930592940659,-60.129293675292416,-62.079656757641374,-64.0300198399877,-65.980382922331245,-68.049700358640834,-70.12527973396935,-72.200859109295038,-74.276438484617955,-76.352017859938073,-78.4275972352555,-80.503176610570179,-82.578755985881884,-84.654335361190959,-86.72991473649715,0.41287954634342672,0.41287954634342672,0.41287954634342672,0.41287954634342672,0.41287954634342672,0.41287954634342672,0.41287954634342672,0.41287954634342672,0.41287954634342672,0.41287954634342672,0.41287954634342672,0.41287954634342672
DP 437,226.14937724435561,0.0012126592651021614,-51.432980951502579,-50.043889699419275,-48.654798447335033,-47.26570719524986,-45.876615943163635,-44.487524691076494,-43.098433438988373,-41.709342186899306,-40.320250934809238,-38.931159682718217,-37.544591654862813,-36.2059653645032,-34.867339074142642,-33.528712783781117,-32.190086493418626,-30.851460203055193,-29.51283391269077,-28.1742076223254,-26.835581331959066,-25.496955041591757,-24.168481988218574,-22.93138902750157,-21.694296066783636,-20.457203106064792,-19.220110145345011,-17.983017184624281,-16.745924223902627,-15.508831263180037,-14.271738302456503,-13.03464534173207,-11.819015846645689,-10.725014009355609,-9.6310121720645832,-8.5370103347726154,-7.4430084974797044,-6.3490066601858315,-5.2550048228910171,-4.1610029855952524,-3.0670011482985422,-1.9729993110008865,-0.913986045513074,0.0050712791443502095,0.92412860380269968,1.843185928461986,2.7622432531221923,3.681300577783341,4.600357902445408,5.5194152271084205,6.4384725517723522,7.3575298764372148,8.2276397709826679,8.9509055245333968,9.6741712780850619,10.397437031637654,11.120702785191193,11.843968538745653,12.567234292301052,13.290500045857378,14.013765799414641,14.73703155297283,15.398610209723975,15.916249877775202,16.433889545827338,16.951529213880452,17.469168881934472,17.986808549989437,18.504448218045336,19.022087886102163,19.539727554159928,20.057367222218634,20.503114980085,20.815347248927548,21.127579517771032,21.439811786615458,21.7520440554608,22.064276324307119,22.376508593154348,22.688740862002543,23.000973130851644,23.313205399701719,23.546694137615809,23.662065718386753,23.777437299158624,23.892808879931465,24.008180460705233,24.123552041479954,24.238923622255619,24.354295203032226,24.469666783809792,24.585038364588289,24.618464208826843,24.551732431598246,24.485000654370587,24.418268877143895,24.351537099918175,24.284805322693362,24.218073545469537,24.15134176824667,24.084609991024742,24.017878213803787,23.409349879532392,23.179284592502079,22.949219305472759,22.719154018444382,22.489088731416988,22.259023444390579,22.028958157365114,21.798892870340623,21.490407126433688,21.117757842820385,20.745108559208035,20.372459275596711,19.99980999198635,19.627160708376969,19.254511424768577,18.881862141161172,18.509212857554754,18.136563573949314,17.690977221996643,17.196765008793392,16.702552795591163,16.208340582389916,15.714128369189693,15.219916155990452,14.725703942792238,14.231491729594991,13.73727951639879,13.243067303203558,12.682828522188203,12.087036013743235,11.491243505299304,10.8954509968564,10.299658488414504,9.703865979973644,9.108073471533805,8.5122809630950034,7.916488454657209,7.3206959462204466,6.6664227352273961,5.9870853789086622,5.30774802259095,4.6284106662743163,3.9490733099587074,3.2697359536441666,2.5903985973306676,1.9110612410181977,1.2317238847067964,0.55238652839643543,-0.17797548242348341,-0.9253463544682976,-1.6727172265120467,-2.4200880985547335,-3.1674589705963396,-3.9148298426369035,-4.6622007146763682,-5.4095715867147787,-6.156942458752142,-6.90431333078841,-7.6959078947810644,-8.4985589042722314,-9.3012099137623068,-10.103860923251242,-10.906511932739056,-11.709162942225742,-12.511813951711293,-13.314464961195728,-14.117115970679036,-14.919766980161235,-15.761103579747106,-16.609267478363627,-17.457431376979034,-18.305595275593376,-19.153759174206574,-20.001923072818713,-20.850086971429711,-21.698250870039637,-22.546414768648461,-23.394578667256184,-24.277384690855129,-25.164040203276368,-26.050695715696421,-26.937351228115261,-27.824006740532976,-28.710662252949415,-29.597317765364707,-30.483973277778787,-31.370628790191692,-32.257284302603374,-33.176637610316824,-34.097712179954279,-35.018786749590582,-35.939861319225614,-36.860935888859466,-37.782010458492145,-38.703085028123581,-39.624159597753739,-40.545234167382773,-41.466308737010515,0.18057749175688198,0.18057749175688198,0.18057749175688198,0.18057749175688198,0.18057749175688198,0.18057749175688198,0.18057749175688198,0.18057749175688198,0.18057749175688198,0.18057749175688198,0.18057749175688198,0.18057749175688198
DP 438,178.16635011997616,0.0039410559047430545,-139.72707908119827,-136.10925456302854,-132.49143004485546,-128.87360552667937,-125.25578100850015,-121.63795649031788,-118.02013197213229,-114.40230745394383,-110.78448293575215,-107.1666584175572,-103.55458343844109,-100.05175078879454,-96.548918139144916,-93.0460854894922,-89.543252839836342,-86.040420190177414,-82.537587540515375,-79.034754890850209,-75.531922241181974,-72.029089591510612,-68.549594099922032,-65.28013523697193,-62.010676374018786,-58.741217511062722,-55.471758648103581,-52.202299785141392,-48.932840922176212,-45.663382059208018,-42.393923196236813,-39.124464333262615,-35.905000265818856,-32.968843190125611,-30.032686114429353,-27.096529038729972,-24.160371963027583,-21.224214887322042,-18.288057811613438,-15.35190073590176,-12.415743660187006,-9.4795865844691853,-6.6264522931828473,-4.1054130633555648,-1.5843738335252688,0.93666539630806667,3.4577046261444071,5.978743855983792,8.4997830858262038,11.020822315671637,13.541861545520092,16.06290077537157,18.465066163593487,20.51060553246522,22.556144901339966,24.601684270217763,26.647223639098616,28.692763007982471,30.738302376869385,32.783841745759361,34.829381114652342,36.874920483548379,38.766413483674953,40.298458889715413,41.830504295758878,43.36254970180542,44.894595107854961,46.426640513907614,47.958685919963273,49.490731326022029,51.022776732083805,52.554822138148694,53.901463970194712,54.90377987202546,55.906095773859313,56.9084116756963,57.910727577536186,58.913043479379326,59.915359381225443,60.917675283074708,61.919991184926914,62.922307086782219,63.71404163319297,64.189899170319862,64.665756707449887,65.141614244582982,65.6174717817192,66.093329318858508,66.569186856000869,67.045044393146341,67.520901930294926,67.996759467446665,68.244474464527343,68.213343787216274,68.182213109908346,68.151082432603644,68.119951755301983,68.088821078003534,68.057690400708182,68.0265597234159,67.995429046126873,67.964298368840858,66.682902768193216,66.176569765068734,65.6702367619473,65.1639037588291,64.657570755714048,64.151237752602228,63.644904749493627,63.138571746388031,62.392905993787622,61.451418423950336,60.509930854116242,59.568443284285472,58.626955714457928,57.685468144633582,56.743980574812426,55.802493004994638,54.86100543517999,53.9195178653686,52.743624887344112,51.411457944456131,50.079291001571519,48.747124058690112,47.414957115812022,46.082790172937223,44.75062323006577,43.418456287197586,42.086289344332734,40.754122401471093,39.197595713630975,37.520256669757423,35.842917625887281,34.165578582020487,32.48823953815706,30.810900494297012,29.1335614504403,27.45622240658702,25.778883362737094,24.101544318890504,22.213204650250308,20.234432580964395,18.255660511681842,16.276888442402875,14.298116373127279,12.319344303855191,10.34057223458654,8.3618001653213039,6.3830280960595829,4.4042560268012974,2.2292048505723958,-0.011275168319297098,-2.2517551872074786,-4.4922352060921424,-6.7327152249732451,-8.9731952438509044,-11.213675262724928,-13.454155281595463,-15.694635300462549,-17.935115319326023,-20.35754228480172,-22.825458136661162,-25.293373988516944,-27.761289840368971,-30.229205692217295,-32.697121544061844,-35.165037395902743,-37.632953247739906,-40.100869099573337,-42.568784951403089,-45.206855666685421,-47.874955602957655,-50.543055539226167,-53.211155475491196,-55.879255411752425,-58.5473553480101,-61.215455284264081,-63.883555220514509,-66.551655156761214,-69.21975509300438,-72.049772812313961,-74.897783096925437,-77.745793381532991,-80.593803666136424,-83.441813950736062,-86.28982423533165,-89.137834519923388,-91.985844804511032,-94.833855089094868,-97.6818653736747,-100.68942748355765,-103.70538864540505,-106.72134980724859,-109.73731096908796,-112.75327213092321,-115.76923329275469,-118.785194454582,-121.80115561640507,-124.81711677822426,-127.83307794003936,0.5981454579145139,0.5981454579145139,0.5981454579145139,0.5981454579145139,0.5981454579145139,0.5981454579145139,0.5981454579145139,0.5981454579145139,0.5981454579145139,0.5981454579145139,0.5981454579145139,0.5981454579145139
DP 439,96.385779732403009,0.0019635091634352514,-43.097471682504263,-42.096046387214322,-41.094621091923017,-40.0931957966304,-39.091770501336434,-38.090345206041157,-37.08891991074448,-36.087494615446509,-35.08606932014721,-34.084644024846547,-33.084392385926165,-32.10644044012794,-31.128488494328391,-30.150536548527505,-29.172584602725305,-28.194632656921758,-27.216680711116879,-26.238728765310661,-25.260776819503118,-24.282824873694242,-23.309717344781468,-22.38021002584706,-21.450702706911319,-20.521195387974288,-19.59168806903595,-18.662180750096294,-17.732673431155334,-16.803166112213059,-15.873658793269497,-14.944151474324626,-14.025281997296444,-13.166694294807396,-12.308106592317005,-11.449518889825271,-10.59093118733221,-9.7323434848378128,-8.87375578234207,-8.01516807984499,-7.1565803773465744,-6.2979926748468218,-5.4576903710344427,-4.6905305261582759,-3.9233706812807876,-3.1562108364019661,-2.3890509915218221,-1.6218911466403456,-0.85473130175754553,-0.087571456873413875,0.67958838801204047,1.4467482328988233,2.186562541779749,2.8443392087435648,3.5021158757087241,4.1598925426752222,4.8176692096430669,5.4754458766122562,6.1332225435827885,6.7909992105546584,7.4487758775278587,8.10655254450242,8.7269742484949333,9.2602329010106175,9.7934915535276641,10.326750206046061,10.860008858565822,11.393267511086933,11.92652616360941,12.459784816133235,12.993043468658419,13.526302121184965,14.01173957444005,14.408364937581,14.804990300723313,15.201615663867008,15.598241027012063,15.994866390158515,16.391491753306333,16.788117116455524,17.184742479606093,17.581367842758041,17.919708037309963,18.170619101661053,18.421530166013536,18.672441230367429,18.92335229472274,19.174263359079408,19.425174423437486,19.676085487796975,19.926996552157863,20.177907616520137,20.360467209436987,20.459484679324287,20.558502149212991,20.657519619103116,20.756537088994694,20.855554558887661,20.954572028782081,21.053589498677912,21.152606968575171,21.251624438473876,21.160118762516738,21.103712704342112,21.047306646168945,20.990900587997228,20.934494529826974,20.87808847165817,20.821682413490823,20.765276355324922,20.622707188692932,20.409639452541356,20.196571716391276,19.9835039802427,19.770436244095606,19.557368507949992,19.34430077180588,19.131233035663268,18.918165299522133,18.705097563382491,18.398409759220481,18.029307101526921,17.660204443834882,17.291101786144349,16.92199912845539,16.552896470767948,16.183793813082026,15.814691155397627,15.44558849771477,15.076485840033435,14.607274840715982,14.084157893997821,13.561040947281262,13.037924000566258,12.514807053852813,11.991690107140952,11.468573160430651,10.945456213721931,10.422339267014783,9.8992223203092031,9.2703575239423586,8.5961704356754982,7.9219833474102384,7.24779625914664,6.5736091708846365,5.8994220826242678,5.2252349943655227,4.55104790610838,3.8768608178528816,3.2026737295989944,2.41771354783739,1.595827605518318,0.773941663200904,-0.047944279114852946,-0.86983022142893485,-1.6917161637413853,-2.5136021060521396,-3.3354880483612441,-4.1573739906687166,-4.979259932974494,-5.916530449691181,-6.8826484732972384,-7.848766496901562,-8.8148845205041013,-9.7810025441048865,-10.74712056770387,-11.713238591301122,-12.679356614896589,-13.64547463849029,-14.611592662082256,-15.697798131974194,-16.805196839543818,-17.9125955471117,-19.019994254677904,-20.127392962242347,-21.234791669805084,-22.342190377366062,-23.449589084925332,-24.556987792482882,-25.664386500038713,-26.896648614357009,-28.142785751897513,-29.388922889436206,-30.63506002697293,-31.881197164507864,-33.1273343020408,-34.3734714395719,-35.619608577101012,-36.865745714628368,-38.111882852153755,-39.488462757277993,-40.871909369076278,-42.2553559808727,-43.638802592667126,-45.022249204459648,-46.40569581625023,-47.789142428038851,-49.172589039825517,-50.55603565161033,-51.939482263393124,0.28321189741726394,0.28321189741726394,0.28321189741726394,0.28321189741726394,0.28321189741726394,0.28321189741726394,0.28321189741726394,0.28321189741726394,0.28321189741726394,0.28321189741726394,0.28321189741726394,0.28321189741726394
DP 440,79.5388206262137,0.0047556290264799623,-90.881492636437585,-88.842399697928059,-86.803306759415563,-84.764213820900238,-82.725120882381987,-80.686027943860879,-78.646935005336729,-76.607842066809852,-74.56874912827999,-72.529656189747257,-70.4927668553235,-68.497746415602279,-66.502725975878178,-64.507705536151164,-62.512685096421272,-60.517664656688439,-58.522644216952671,-56.527623777214046,-54.532603337472452,-52.537582897727987,-50.551695750946166,-48.648009104146716,-46.744322457344367,-44.840635810539133,-42.93694916373105,-41.033262516920047,-39.129575870106159,-37.225889223289407,-35.3222025764698,-33.418515929647285,-31.535002078082648,-29.765802004171096,-27.996601930256592,-26.227401856339167,-24.458201782418783,-22.689001708495457,-20.919801634569172,-19.150601560639949,-17.38140148670778,-15.612201412772679,-13.877962871362712,-12.283572112372493,-10.689181353379313,-9.0947905943831966,-7.5003998353841483,-5.90600907638215,-4.3116183173772145,-2.7172275583693253,-1.1228367993585082,0.4715539596552531,2.0131159714431877,3.3961897441659263,4.7792635168916462,6.16233728962035,7.5454110623520512,8.9284848350867367,10.311558607824393,11.694632380565055,13.077706153308686,14.460779926055311,15.770778445513885,16.910265162643856,18.049751879776842,19.189238596912894,20.328725314051947,21.468212031194049,22.607698748339178,23.747185465487352,24.886672182638538,26.026158899792772,27.070717235036891,27.938977440224864,28.807237645415938,29.675497850610093,30.543758055807327,31.412018261007645,32.280278466211065,33.148538671417555,34.016798876627135,34.885059081839806,35.635676723911025,36.209827741331196,36.783978758754564,37.358129776181087,37.932280793610694,38.506431811043555,39.080582828479464,39.654733845918557,40.22888486336084,40.803035880806242,41.236651244421651,41.498497856991548,41.760344469564714,42.022191082141056,42.28403769472061,42.545884307303425,42.807730919889444,43.069577532478689,43.331424145071132,43.593270757666808,43.563617065696576,43.4993856499731,43.435154234252956,43.37092281853608,43.306691402822494,43.242459987112248,43.178228571405278,43.113997155701618,42.8650584242987,42.464992351178353,42.064926278061435,41.664860204947864,41.264794131837725,40.864728058730982,40.464661985627622,40.064595912527643,39.664529839431061,39.264463766337848,38.65912778500536,37.916941964446707,37.174756143891614,36.432570323339938,35.690384502791794,34.948198682247167,34.206012861706014,33.463827041168358,32.721641220634183,31.979455400103539,31.012665688180338,29.924932153219945,28.837198618263169,27.749465083310042,26.661731548360521,25.573998013414666,24.48626447847241,23.398530943533842,22.310797408598845,21.22306387366752,19.892590798485607,18.45808239460343,17.02357399072492,15.589065586850216,14.154557182979197,12.720048779111938,11.285540375248406,9.8510319713885561,8.4165235675324759,6.9820151636801118,5.2876240386945161,3.5066020647390461,1.7255800907873935,-0.055441883160443933,-1.8364638571044254,-3.6174858310446489,-5.3985078049809632,-7.1795297789134862,-8.9605517528422443,-10.741573726767104,-12.79873225459842,-14.9249281835027,-17.051124112402981,-19.177320041299108,-21.30351597019121,-23.429711899079194,-25.555907827963111,-27.682103756842945,-29.80829968571868,-31.9344956145904,-34.3529815622535,-36.823051351774737,-39.293121141291927,-41.76319093080523,-44.233260720314426,-46.703330509819722,-49.173400299320996,-51.643470088818276,-54.113539878311592,-56.583609667800914,-59.361564855399983,-62.173732765199681,-64.985900674995065,-67.798068584786,-70.610236494572575,-73.422404404354708,-76.2345723141325,-79.046740223905829,-81.8589081336749,-84.6710760434394,-87.807509554282845,-90.961012902021764,-94.114516249756548,-97.268019597486571,-100.42152294521215,-103.5750262929333,-106.72852964064991,-109.8820329883618,-113.03553633606948,-116.18903968377241,0.65166827060721311,0.65166827060721311,0.65166827060721311,0.65166827060721311,0.65166827060721311,0.65166827060721311,0.65166827060721311,0.65166827060721311,0.65166827060721311,0.65166827060721311,0.65166827060721311,0.65166827060721311
DP 441,289.97017932397779,0.0017261398803808069,-86.911516369860109,-84.452279156817553,-81.9930419437737,-79.5338047307284,-77.074567517681913,-74.6153303046339,-72.156093091584637,-69.696855878534,-67.237618665481946,-64.778381452428576,-62.324341765277858,-59.969056052866463,-57.613770340453762,-55.258484628039724,-52.90319891562433,-50.547913203207628,-48.192627490789583,-45.83734177837016,-43.482056065949443,-41.126770353527363,-38.792172034668219,-36.643762213295204,-34.495352391920889,-32.346942570545266,-30.198532749168344,-28.050122927790124,-25.901713106410586,-23.753303285029766,-21.604893463647649,-19.456483642264228,-17.351045474405442,-15.489116051029661,-13.627186627652604,-11.765257204274194,-9.9033277808944771,-8.0413983575134367,-6.1794689341310622,-4.3175395107473742,-2.4556100873623703,-0.59368066397605113,1.1998688749964075,2.7198956446208804,4.2399224142466414,5.7599491838737036,7.2799759535020581,8.8000027231317,10.320029492762639,11.840056262394887,13.360083032028403,14.880109801663229,16.30732332066831,17.456093578640967,18.604863836614914,19.753634094590158,20.902404352566709,22.051174610544539,23.19994486852368,24.348715126504107,25.497485384485813,26.646255642468876,27.682187924317919,28.45482715117884,29.227466378041044,30.000105604904547,30.77274483176938,31.5453840586355,32.318023285502925,33.090662512371622,33.863301739241621,34.635940966112919,35.282386079961718,35.694467290180249,36.106548500400059,36.518629710621219,36.930710920843666,37.342792131067391,37.754873341292409,38.1669545515188,38.579035761746432,38.9911169719754,39.271197562717418,39.353274105004893,39.435350647293681,39.517427189583792,39.599503731875195,39.681580274167935,39.763656816461946,39.845733358757286,39.927809901053919,40.0098864433519,39.961357150873766,39.753195761434355,39.545034371996238,39.336872982559484,39.128711593124009,38.920550203689878,38.712388814257061,38.504227424825586,38.296066035395384,38.08790464596656,36.847185659572574,36.392529876927078,35.937874094282982,35.483218311640194,35.028562528998776,34.573906746358638,34.1192509637199,33.664595181082461,33.098314055431977,32.440701185318559,31.783088315206481,31.125475445095763,30.467862574986384,29.8102497048784,29.152636834771734,28.495023964666458,27.837411094562498,27.179798224459926,26.424638460084012,25.604445896147539,24.78425333221249,23.9640607682788,23.143868204346486,22.32367564041553,21.503483076486017,20.68329051255785,19.863097948631079,19.042905384705652,18.140077120227563,17.192751507630344,16.24542589503454,15.298100282440135,14.350774669847127,13.403449057255525,12.456123444665316,11.508797832076539,10.561472219489131,9.6141466069031374,8.5986320029833472,7.5538923946823591,6.5091527863827743,5.4644131780846754,4.419673569787987,3.3749339614927667,2.3301943531989773,1.2854547449066074,0.24071513661570457,-0.80402447167376578,-1.9039180981751276,-3.0221970925102868,-4.14047608684399,-5.2587550811762238,-6.3770340755069714,-7.4953130698362971,-8.6135920641641057,-9.7318710584904569,-10.850150052815382,-11.968429047138795,-13.13078544113673,-14.304161705833929,-15.477537970529616,-16.650914235223727,-17.824290499916319,-18.997666764607338,-20.171043029296833,-21.344419293984771,-22.517795558671157,-23.691171823356033,-24.900005097299307,-26.115095884809648,-27.330186672318437,-28.545277459825776,-29.760368247331535,-30.975459034835804,-32.190549822338618,-33.405640609839828,-34.620731397339611,-35.835822184837866,-37.080171355138312,-38.327771764142071,-39.575372173144267,-40.822972582144736,-42.070572991143678,-43.318173400140942,-44.565773809136573,-45.813374218130527,-47.060974627122889,-48.308575036113567,-49.582145548356337,-50.857083166529542,-52.132020784701069,-53.406958402870956,-54.681896021039179,-55.956833639205747,-57.23177125737066,-58.506708875533818,-59.781646493695469,-61.056584111855322,0.24750166095286819,0.24750166095286819,0.24750166095286819,0.24750166095286819,0.24750166095286819,0.24750166095286819,0.24750166095286819,0.24750166095286819,0.24750166095286819,0.24750166095286819,0.24750166095286819,0.24750166095286819
DP 442,82.041030131887666,0.0013103721126678717,-25.590765639773309,-25.013323783396011,-24.435881927017888,-23.858440070638981,-23.280998214259238,-22.703556357878668,-22.126114501497284,-21.548672645115122,-20.971230788732107,-20.393788932348304,-19.816978843313841,-19.252172453364093,-18.687366063413553,-18.122559673462181,-17.557753283509992,-16.992946893557004,-16.428140503603178,-15.863334113648545,-15.298527723693088,-14.733721333736817,-14.171531644817978,-13.632892512577703,-13.094253380336609,-12.555614248094729,-12.016975115852016,-11.478335983608526,-10.939696851364213,-10.401057719119088,-9.86241858687317,-9.3237794546264379,-8.7909152577224052,-8.2907760583354619,-7.7906368589476962,-7.2904976595590991,-6.7903584601696787,-6.2902192607794314,-5.7900800613883519,-5.2899408619964534,-4.7898016626037219,-4.2896624632101732,-3.7995192136825624,-3.3493602360378749,-2.899201258392369,-2.4490422807460357,-1.9988833030988815,-1.5487243254508998,-1.098565347802096,-0.64840637015246694,-0.19824739250201609,0.25191158514925888,0.68699018336373752,1.076827073097897,1.4666639628328928,1.8565008525687223,2.246337742305391,2.636174632042894,3.0260115217812289,3.4158484115204062,3.8056853012604117,4.1955221910012561,4.5645377260254,4.8849692800173363,5.2054008340101241,5.5258323880037574,5.8462639419982327,6.166695495993566,6.4871270499897387,6.807558603986763,7.1279901579846374,7.44842171198335,7.74186491184799,7.985186153754487,8.2285073956618469,8.4718286375700718,8.7151498794791564,8.9584711213891044,9.2017923632999157,9.4451136052115814,9.6884348471241228,9.9317560890375169,10.141713969235017,10.301626018469655,10.461538067705188,10.621450116941595,10.781362166178873,10.941274215417039,11.101186264656079,11.261098313896007,11.421010363136805,11.580922412378488,11.701088259146109,11.772674579140892,11.844260899136584,11.915847219133177,11.987433539130652,12.059019859129037,12.130606179128314,12.20219249912849,12.273778819129573,12.345365139131546,12.330252505792954,12.309890014637531,12.289527523483031,12.269165032329461,12.2488025411768,12.228440050025064,12.208077558874253,12.187715067724367,12.115432338910916,12.00066852335911,11.885904707808246,11.771140892258328,11.656377076709369,11.541613261161338,11.426849445614264,11.312085630068133,11.197321814522946,11.082557998978706,10.91028128608861,10.699661735601353,10.489042185115075,10.278422634629759,10.067803084145432,9.857183533662063,9.64656398317967,9.4359444326982587,9.22532488221782,9.0147053317383463,8.7413619465873911,8.4342432768067,8.1271246070270227,7.8200059372483386,7.5128872674706573,7.2057685976939769,6.8986499279182967,6.5915312581436183,6.2844125883699338,5.9772939185972538,5.6026066377085328,5.19896024014679,4.7953138425860571,4.3916674450263944,3.9880210474677491,3.5843746499101519,3.180728252353584,2.7770818547980469,2.3734354572435579,1.9697890596901035,1.4940210079698892,0.99421149592351843,0.49440198387820816,-0.0054075281660406422,-0.50521704020921632,-1.0050265522513473,-1.5048360642923921,-2.0046455763323805,-2.5044550883713206,-3.0042646004091789,-3.5804963234990068,-4.1758345022921288,-4.7711726810841411,-5.3665108598750075,-5.9618490386647478,-6.55718721745334,-7.1525253962408035,-7.7478635750271314,-8.34320175381232,-8.938539932596397,-9.6145847050456119,-10.304872715022208,-10.995160724997669,-11.685448734972063,-12.375736744945318,-13.066024754917482,-13.756312764888532,-14.446600774858476,-15.136888784827303,-15.827176794795047,-16.60232810640743,-17.386909565022663,-18.171491023636683,-18.956072482249471,-19.740653940861062,-20.5252353994714,-21.309816858080552,-22.094398316688427,-22.878979775295146,-23.6635612339006,-24.537423656492081,-25.4159859654978,-26.29454827450235,-27.173110583505615,-28.051672892507614,-28.930235201508395,-29.80879751050794,-30.687359819506149,-31.565922128503171,-32.444484437498907,0.18127978214156354,0.18127978214156354,0.18127978214156354,0.18127978214156354,0.18127978214156354,0.18127978214156354,0.18127978214156354,0.18127978214156354,0.18127978214156354,0.18127978214156354,0.18127978214156354,0.18127978214156354
DP 443,189.4614402076453,0.0034742139554828559,-129.1411668131442,-125.76134822318831,-122.38152963322979,-119.00171104326847,-115.62189245330431,-112.24207386333742,-108.86225527336777,-105.48243668339541,-102.10261809342025,-98.722799503442261,-95.348535077237329,-92.0798008127527,-88.811066548265288,-85.542332283775167,-82.273598019282218,-79.004863754786555,-75.736129490288178,-72.467395225787087,-69.198660961283139,-65.929926696776533,-62.683688615416848,-59.639918308780793,-56.596148002142066,-53.552377695500667,-50.50860738885661,-47.464837082209861,-44.421066775560419,-41.377296468908305,-38.333526162253563,-35.289755855596162,-32.294028341407845,-29.570546345282938,-26.847064349155318,-24.123582353024982,-21.400100356891929,-18.676618360756134,-15.953136364617627,-13.2296543684764,-10.506172372332449,-7.7826903761857924,-5.1386369879179048,-2.8123017850334309,-0.48596658214629557,1.8403686207435255,4.1667038236360021,6.4930390265311662,8.8193742294290018,11.145709432329507,13.472044635232685,15.798379838138528,18.0116128955971,19.885535240472837,21.759457585351267,23.633379930232362,25.507302275116146,27.381224620002627,29.255146964891772,31.129069309783649,33.002991654678119,34.876913999575336,36.605243004396314,37.99384848166207,39.382453958930505,40.771059436201654,42.1596649134755,43.548270390752023,44.936875868031215,46.3254813453131,47.714086822597743,49.102692299885014,50.317414323006133,51.209205235324113,52.100996147644757,52.99278705996818,53.884577972294181,54.776368884622961,55.668159796954463,56.559950709288671,57.451741621625558,58.343532533965188,59.039544007582805,59.441881696775589,59.844219385971059,60.246557075169243,60.648894764370191,61.051232453573874,61.453570142780315,61.85590783198942,62.25824552120131,62.66058321041583,62.85286784213033,62.788416547005347,62.723965251883016,62.659513956763554,62.595062661646807,62.530611366532781,62.4661600714216,62.401708776313114,62.337257481207445,62.272806186104518,60.997280014023225,60.499958985913956,60.0026379578075,59.505316929703916,59.007995901603039,58.510674873505032,58.013353845409839,57.5160328173174,56.803229102118031,55.91411766697076,55.025006231826325,54.135894796684681,53.246783361545923,52.357671926409964,51.468560491276882,50.579449056146657,49.690337621019331,48.801226185894748,47.703725356583384,46.46729498160439,45.230864606628323,43.9944342316551,42.758003856684816,41.521573481717425,40.28514310675294,39.048712731791348,37.8122823568327,36.575851981876895,35.142677554355188,33.603561160602744,32.064444766853292,30.525328373106834,28.986211979363283,27.447095585622758,25.907979191885119,24.368862798150555,22.8297464044189,21.2906300106902,19.569191966436041,17.76961299457637,15.970034022719636,14.170455050866055,12.370876079015437,10.571297107167915,8.7717181353234235,6.9721391634819225,5.1725601916435195,3.372981219808139,1.40643849939504,-0.61576090809328532,-2.6379603155785225,-4.6601597230606657,-6.68235913053967,-8.7045585380156538,-10.726757945488439,-12.748957352958167,-14.771156760424834,-16.793356167888341,-18.967833343060942,-21.180381759345536,-23.392930175626915,-25.605478591905005,-27.818027008179808,-30.030575424451317,-32.243123840719619,-34.45567225698462,-36.668220673246324,-38.880769089504845,-41.233486809463869,-43.610941847601111,-45.988396885735021,-48.365851923865868,-50.74330696199344,-53.120762000117871,-55.498217038239034,-57.875672076357105,-60.253127114471859,-62.630582152583514,-65.139559057210889,-67.663150883850292,-70.186742710486186,-72.710334537118541,-75.233926363747585,-77.757518190372963,-80.281110016995015,-82.804701843613429,-85.328293670228533,-87.851885496840012,-90.50382092371531,-93.162512553885776,-95.821204184052718,-98.479895814216135,-101.13858744437604,-103.79727907453243,-106.45597070468526,-109.11466233483432,-111.77335396498007,-114.43204559512218,0.52565198075030406,0.52565198075030406,0.52565198075030406,0.52565198075030406,0.52565198075030406,0.52565198075030406,0.52565198075030406,0.52565198075030406,0.52565198075030406,0.52565198075030406,0.52565198075030406,0.52565198075030406
DP 444,160.95862935522769,0.0011639912279116115,-38.120192719295055,-37.1504438350334,-36.180694950770828,-35.210946066507347,-34.241197182242935,-33.271448297977642,-32.301699413711411,-31.331950529444306,-30.362201645176228,-29.392452760907293,-28.4241641744822,-27.483621523168512,-26.543078871853957,-25.602536220538425,-24.661993569222044,-23.721450917904725,-22.7809082665865,-21.840365615267377,-20.899822963947337,-19.95928031262639,-19.02468378334973,-18.143602914516773,-17.262522045682935,-16.381441176848242,-15.500360308012638,-14.619279439176164,-13.738198570338788,-12.857117701500531,-11.976036832661396,-11.094955963821375,-10.226675805846135,-9.43093381607251,-8.6351918262979837,-7.839449836522558,-7.0437078467462229,-6.24796585696899,-5.45222386719085,-4.6564818774118155,-3.860739887631877,-3.0649978978510406,-2.2906577447242578,-1.6019259496845006,-0.91319415464385856,-0.22446235960232624,0.46426943544008809,1.1530012304833956,1.8417330255275886,2.5304648205726723,3.2191966156186367,3.9079284106654941,4.5657527647116467,5.13085362718636,5.6959544896619621,6.2610553521384578,6.82615621461584,7.3912570770941208,7.9563579395732873,8.52145880205335,9.0865596645342936,9.6516605270161371,10.176294940998982,10.606506048088312,11.036717155178536,11.466928262269645,11.897139369361655,12.327350476454559,12.757561583548359,13.187772690643067,13.617983797738656,14.048194904835148,14.429114363771436,14.718490859232318,15.007867354694083,15.297243850156784,15.586620345620354,15.875996841084831,16.165373336550221,16.454749832016514,16.744126327483716,17.033502822951807,17.266125679233078,17.41361673562422,17.56110779201628,17.708598848409228,17.856089904803103,18.003580961197891,18.151072017593567,18.298563073990174,18.44605413038769,18.593545186786109,18.678607023339211,18.687365168769652,18.696123314201021,18.704881459633317,18.713639605066525,18.722397750500651,18.731155895935707,18.739914041371669,18.748672186808562,18.757430332246397,18.453107751423744,18.329626840022431,18.206145928622057,18.082665017222624,17.959184105824114,17.835703194426539,17.71222228302992,17.588741371634221,17.397421710681691,17.15059645241616,16.903771194151581,16.656945935887936,16.410120677625265,16.163295419363546,15.916470161102772,15.669644902842981,15.422819644584102,15.17599438632619,14.86138299303807,14.501579775189656,14.141776557342236,13.781973339495773,13.422170121650295,13.062366903805783,12.702563685962241,12.342760468119687,11.982957250278092,11.623154032437473,11.197048036572905,10.735239580690827,10.273431124809767,9.8116226689296973,9.34981421305062,8.8880057571725555,8.42619730129547,7.9643888454194069,7.502580389544323,7.0407719336702472,6.51514227524987,5.9621595956524489,5.4091769160560226,4.8561942364606532,4.3032115568662785,3.7502288772729435,3.1972461976806255,2.6442635180893164,2.0912808384990447,1.5382981589097879,0.92447279985097763,0.29036578084555659,-0.34374123815882612,-0.97784825716216872,-1.6119552761644595,-2.2460622951657303,-2.880169314165927,-3.5142763331650966,-4.1483833521632425,-4.7824903711603195,-5.4744307512897254,-6.1808301550121687,-6.887229558733539,-7.5936289624537983,-8.30002836617297,-9.0064277698910153,-9.7128271736079661,-10.419226577323816,-11.125625981038576,-11.832025384752248,-12.593827377957554,-13.365406914804671,-14.136986451650683,-14.908565988495669,-15.680145525339528,-16.451725062182319,-17.223304599024047,-17.994884135864698,-18.766463672704262,-19.538043209542764,-20.363456541383517,-21.194851971383581,-22.026247401382456,-22.857642831380169,-23.689038261376744,-24.520433691372112,-25.351829121366322,-26.183224551359324,-27.01461998135122,-27.846015411341885,-28.73121913771379,-29.619255415055193,-30.507291692395459,-31.395327969734513,-32.283364247072363,-33.171400524409066,-34.05943680174456,-34.947473079078854,-35.835509356411926,-36.723545633743818,0.17705040417187884,0.17705040417187884,0.17705040417187884,0.17705040417187884,0.17705040417187884,0.17705040417187884,0.17705040417187884,0.17705040417187884,0.17705040417187884,0.17705040417187884,0.17705040417187884,0.17705040417187884
DP 445,185.81347456667379,0.00373543454300766,-136.79900996472813,-133.23093303381131,-129.66285610289134,-126.09477917196861,-122.52670224104283,-118.95862531011412,-115.39054837918232,-111.8224714482477,-108.25439451731005,-104.6863175863694,-101.12404213392429,-97.671995869686612,-94.219949605446,-90.76790334120227,-87.3158570769558,-83.863810812706149,-80.411764548453675,-76.959718284198246,-73.507672019939818,-70.055625755678477,-66.627092803121045,-63.410181878441769,-60.193270953759644,-56.976360029074641,-53.759449104386789,-50.5425381796961,-47.325627255002495,-44.108716330306009,-40.891805405606689,-37.674894480904484,-34.508249786519166,-31.62645023144459,-28.744650676367041,-25.862851121286589,-22.981051566203217,-20.099252011116928,-17.217452456027686,-14.335652900935525,-11.453853345840466,-8.5720537907424657,-5.7734768854451941,-3.3077945125292114,-0.84211213961037035,1.6235702333113571,4.0892526062359345,6.5549349791634075,9.020617352093744,11.486299725026958,13.95198209796304,16.41766447090199,18.764631188708726,20.755446452638452,22.746261716571063,24.737076980506522,26.727892244444906,28.718707508386164,30.709522772330285,32.700338036277323,34.691153300227242,36.681968564180018,38.519636464109375,39.999954483098463,41.480272502090429,42.960590521085294,44.440908540083036,45.921226559083685,47.40154457808724,48.881862597093665,50.362180616102961,51.8424986351152,53.13945721446116,54.095886168308084,55.0523151221579,56.008744076010622,56.965173029866264,57.921601983724848,58.878030937586352,59.834459891450642,60.790888845317923,61.747317799188153,62.496718220401384,62.9355709504669,63.374423680535351,63.813276410606726,64.252129140681021,64.690981870758222,65.129834600838478,65.568687330921534,66.007540061007646,66.446392791096656,66.662429339902189,66.606130320268733,66.549831300638246,66.493532281010744,66.437233261386254,66.380934241764663,66.324635222146085,66.268336202530421,66.212037182917769,66.155738163308072,64.834966107844025,64.317916218576528,63.80086632931215,63.283816440050757,62.766766550792326,62.249716661536894,61.732666772284531,61.215616883035167,60.4683476566447,59.532713197927542,58.597078739213444,57.661444280502437,56.725809821794414,55.790175363089539,54.85454090438769,53.918906445688926,52.983271986993195,52.047637528300577,50.88845742982042,49.580243383174022,48.272029336530679,46.963815289890491,45.655601243253379,44.347387196619422,43.0391731499886,41.730959103360853,40.422745056736289,39.114531010114789,37.594336461039347,35.9599954819211,34.325654502806167,32.691313523694305,31.056972544585683,29.422631565480238,27.788290586377961,26.153949607278896,24.519608628183033,22.885267649090331,21.053557168090343,19.13725642633073,17.2209556845743,15.304654942821234,13.388354201071385,11.472053459324862,9.5557527175815959,7.63945197584155,5.7231512341048267,3.8068504923713662,1.7088951450330794,-0.44961402686921287,-2.6081231987681832,-4.7666323706638227,-6.9251415425560916,-9.0836507144450991,-11.242159886330677,-13.400669058212944,-15.559178230091952,-17.717687401967545,-20.042740462845472,-22.409431463715066,-24.77612246458126,-27.142813465443879,-29.509504466302975,-31.876195467158546,-34.24288646801061,-36.60957746885915,-38.976268469704159,-41.342959470545765,-43.863738009076052,-46.411710179496339,-48.959682349913088,-51.507654520326582,-54.055626690736545,-56.603598861143077,-59.151571031546148,-61.699543201945751,-64.247515372341937,-66.79548754273479,-69.488702476729941,-72.198057020959482,-74.907411565185384,-77.61676610940745,-80.326120653625892,-83.035475197840455,-85.744829742051323,-88.454184286258425,-91.1635388304619,-93.8728933746615,-96.724432123748144,-99.5834556667133,-102.44247920967469,-105.30150275263223,-108.160526295586,-111.01954983853597,-113.8785733814821,-116.7375969244243,-119.59662046736287,-122.45564401029738,0.56581167258082554,0.56581167258082554,0.56581167258082554,0.56581167258082554,0.56581167258082554,0.56581167258082554,0.56581167258082554,0.56581167258082554,0.56581167258082554,0.56581167258082554,0.56581167258082554,0.56581167258082554
DP 446,132.14380143869252,0.0025247107812703682,-70.7288006117858,-68.990263889060188,-67.251727166332557,-65.5131904436031,-63.774653720871704,-62.036116998138404,-60.297580275403106,-58.559043552666019,-56.820506829926977,-55.081970107186,-53.34580060673035,-51.654608777240142,-49.963416947748037,-48.272225118254021,-46.581033288758114,-44.8898414592603,-43.198649629760553,-41.507457800258926,-39.816265970755389,-38.125074141249954,-36.4435769624381,-34.84933255623919,-33.255088150038404,-31.660843743835819,-30.066599337631363,-28.472354931425006,-26.878110525216822,-25.283866119006795,-23.689621712794874,-22.095377306581124,-20.52217920360842,-19.068244811899245,-17.61431042018819,-16.160376028475238,-14.706441636760395,-13.252507245043651,-11.798572853324998,-10.344638461604458,-8.8907040698820232,-7.4367696781577024,-6.018440211695534,-4.7425321290052436,-3.4666240463130946,-2.1907159636190663,-0.91480788092317677,0.36110020177459518,1.637008284474232,2.9129163671757468,4.1888244498791227,5.4647325325843719,6.6884529075375978,7.7556081860860049,8.8227634646362834,9.8899187431884581,10.957074021742503,12.024229300298435,13.091384578856253,14.158539857415967,15.22569513597756,16.292850414541007,17.290438619224417,18.125700911694434,18.960963204166383,19.796225496640186,20.631487789115894,21.466750081593531,22.302012374073033,23.137274666554433,23.97253695903774,24.807799251522916,25.556523921696396,26.144533527670784,26.732543133647066,27.320552739625288,27.908562345605404,28.496571951587445,29.084581557571372,29.672591163557247,30.260600769544993,30.848610375534687,31.334560718958379,31.667419756834018,32.000278794711605,32.333137832591078,32.665996870472533,32.998855908355907,33.331714946241206,33.664573984128495,33.997433022017681,34.330292059908771,34.547815723073491,34.624371505645549,34.7009272882196,34.777483070795633,34.854038853373567,34.930594635953511,35.007150418535382,35.083706201119284,35.1602619837051,35.236817766292887,34.837155700617174,34.661979241955073,34.486802783294969,34.311626324636883,34.1364498659808,33.961273407326708,33.786096948674619,33.6109204900245,33.302290032053854,32.88446764477316,32.466645257494484,32.048822870217833,31.631000482943247,31.213178095670703,30.795355708400166,30.377533321131676,29.95971093386521,29.541888546600823,28.985855537326973,28.337679936069879,27.689504334814796,27.041328733561855,26.393153132310974,25.744977531062194,25.096801929815481,24.448626328570846,23.800450727328311,23.152275126087847,22.363600602061823,21.499270768820288,20.634940935580886,19.770611102343633,18.906281269108504,18.041951435875525,17.177621602644678,16.313291769416004,15.448961936189423,14.584632102965026,13.579415798957708,12.513817200898785,11.448218602842001,10.382620004787448,9.3170214067350621,8.251422808684902,7.1858242106369286,6.12022561259112,5.0546270145475312,3.989028416506128,2.7833054876775845,1.5308726826230903,0.27843987757083272,-0.97399292747919086,-2.2264257325269536,-3.4788585375725209,-4.7312913426157941,-5.9837241476568419,-7.2361569526956888,-8.4885897577322549,-9.8799586843527258,-11.306063282920794,-12.732167881486527,-14.158272480049883,-15.584377078610876,-17.010481677169469,-18.436586275725702,-19.862690874279554,-21.28879547283104,-22.714900071380189,-24.279426329687819,-25.868381478985818,-27.457336628281418,-29.046291777574808,-30.635246926865808,-32.2242020761545,-33.813157225440868,-35.402112374724929,-36.991067524006674,-38.580022673286116,-40.307976804252625,-42.051376726333878,-43.794776648412643,-45.538176570488815,-47.28157649256255,-49.024976414633677,-50.768376336702367,-52.511776258768364,-54.255176180831988,-55.998576102893,-57.883975806399917,-59.776850595454647,-61.669725384506826,-63.562600173556433,-65.455474962603489,-67.3483497516479,-69.241224540689871,-71.134099329729082,-73.026974118765793,-74.919848907799832,0.38131957012859607,0.38131957012859607,0.38131957012859607,0.38131957012859607,0.38131957012859607,0.38131957012859607,0.38131957012859607,0.38131957012859607,0.38131957012859607,0.38131957012859607,0.38131957012859607,0.38131957012859607
DP 447,113.04126305215883,0.0012611805915068092,-31.254254550030943,-30.506921289292151,-29.759588028552443,-29.012254767811825,-28.264921507070287,-27.517588246327822,-26.77025498558444,-26.022921724840177,-25.27558846409497,-24.528255203348845,-23.781864973793063,-23.05339251514528,-22.324920056496559,-21.596447597846971,-20.867975139196453,-20.139502680545011,-19.41103022189267,-18.6825577632394,-17.954085304585231,-17.22561284593014,-16.501017891344407,-15.811320839898295,-15.12162378845129,-14.431926737003433,-13.742229685554637,-13.052532634104994,-12.362835582654435,-11.673138531202977,-10.98344147975064,-10.293744428297417,-9.6125155449090158,-8.97927348084284,-8.3460314167757552,-7.7127893527077607,-7.0795472886388557,-6.44630522456905,-5.8130631604983227,-5.1798210964266795,-4.5465790323541357,-3.9133369682806793,-3.2945393199637238,-2.7335200173302416,-2.1725007146958597,-1.6114814120605756,-1.0504621094243973,-0.48944280678731295,0.071576495850668262,0.63259579848955194,1.1936151011293326,1.7546344037700121,2.294259966724391,2.7697035017503655,3.2451470367772428,3.7205905718050332,4.1960341068337286,4.6714776418633308,5.1469211768938443,5.6223647119252655,6.09780824695759,6.5732517819908276,7.01981225002936,7.39897775755114,7.778143265073834,8.1573087725974442,8.53647428012197,8.91563978764742,9.2948052951737736,9.6739708027010458,10.053136310229236,10.432301817758347,10.775000064322082,11.04997241282372,11.324944761326286,11.599917109829764,11.87488945833417,12.149861806839517,12.42483415534579,12.699806503852969,12.974778852361087,13.249751200870126,13.480973297551682,13.646568982656893,13.812164667763057,13.977760352870144,14.14335603797818,14.308951723087144,14.474547408197067,14.640143093307911,14.805738778419698,14.971334463532431,15.086528284785192,15.140118769307032,15.193709253829812,15.247299738353526,15.300890222878225,15.354480707403878,15.408071191930482,15.46166167645803,15.515252160986547,15.568842645516025,15.448655287422456,15.389862034829221,15.331068782236965,15.272275529645691,15.213482277055363,15.15468902446603,15.095895771877643,15.03710251929026,14.917318299120417,14.747631330027966,14.577944360936495,14.40825739184603,14.23857042275656,14.068883453668082,13.89919648458058,13.729509515494106,13.559822546408594,13.390135577324083,13.155665215224374,12.878004903878336,12.600344592533306,12.322684281189307,12.045023969846309,11.767363658504335,11.489703347163386,11.212043035823442,10.934382724484522,10.656722413146607,10.31141164554473,9.92967272542929,9.5479338053149,9.1661948852015431,8.7844559650892311,8.402717044977976,8.020978124867753,7.6392392047585886,7.2575002846504537,6.8757613645433713,6.4242616665265739,5.942863314781019,5.46146496303651,4.9800666112931022,4.4986682595507519,4.0172699078094869,3.5358715560692908,3.0544732043301641,2.5730748525921214,2.0916765008551481,1.5389117635895222,0.96235733172899829,0.38580289986957012,-0.19075153198876205,-0.76730596384598637,-1.3438603957021313,-1.9204148275571522,-2.4969692594110864,-3.0735236912639348,-3.6500781231156676,-4.2993415893943938,-4.9667831733483467,-5.634224757301161,-6.3016663412527913,-6.9691079252032742,-7.636549509152573,-8.3039910931007235,-8.9714326770476962,-9.6388742609934948,-10.306315844938155,-11.047981771943249,-11.802746937814785,-12.557512103685159,-13.312277269554436,-14.067042435422536,-14.821807601289519,-15.57657276715535,-16.331337933020045,-17.086103098883605,-17.840868264746032,-18.671647303150404,-19.510873125717328,-20.350098948283005,-21.189324770847421,-22.028550593410628,-22.867776415972553,-23.707002238533263,-24.546228061092695,-25.385453883650911,-26.224679706207866,-27.142553345223071,-28.064567125513285,-28.986580905802214,-29.908594686089867,-30.830608466376255,-31.752622246661396,-32.674636026945223,-33.596649807227791,-34.518663587509096,-35.440677367789064,0.18724581149779376,0.18724581149779376,0.18724581149779376,0.18724581149779376,0.18724581149779376,0.18724581149779376,0.18724581149779376,0.18724581149779376,0.18724581149779376,0.18724581149779376,0.18724581149779376,0.18724581149779376
DP 448,122.33940596931873,0.0036012370915454615,-94.931416159433354,-92.629410438275173,-90.327404717114078,-88.025398995950368,-85.723393274784073,-83.421387553615048,-81.119381832443324,-78.8173761112689,-76.515370390091761,-74.21336466891205,-71.914376651580113,-69.672725577887391,-67.431074504192011,-65.189423430493875,-62.947772356793088,-60.7061212830897,-58.46447020938362,-56.222819135674904,-53.981168061963409,-51.739516988249328,-49.510249479948008,-47.392435230898819,-45.274620981847036,-43.156806732792639,-41.03899248373569,-38.921178234676162,-36.80336398561392,-34.685549736549149,-32.567735487481784,-30.449921238411783,-28.359070901895489,-26.421017768979713,-24.482964636061276,-22.544911503140195,-20.60685837021645,-18.668805237290055,-16.730752104360992,-14.792698971429262,-12.854645838494882,-10.916592705557864,-9.0243477474728344,-7.3153376537351562,-5.6063275599948641,-3.897317466251939,-2.1883073725064053,-0.4792972787582318,1.2297128149925596,2.9387229087459819,4.6477330025020134,6.3567430962606766,7.998255592905867,9.43727274621462,10.876289899526018,12.315307052840071,13.754324206156756,15.193341359476088,16.632358512798074,18.071375666122698,19.510392819449958,20.949409972779875,22.2978720269436,23.435035283301175,24.572198539661386,25.709361796024265,26.846525052389818,27.983688308758008,29.120851565128874,30.258014821502417,31.395178077878636,32.532341334257453,33.55600841889536,34.368893833775736,35.181779248658771,35.994664663544519,36.807550078432968,37.620435493324095,38.4333209082179,39.246206323114386,40.059091738013606,40.871977152915449,41.54984842173787,42.025195281005324,42.500542140275535,42.975888999548523,43.451235858824177,43.926582718102594,44.401929577383733,44.877276436667536,45.352623295954153,45.82797015524342,46.149248576168631,46.282217891809076,46.415187207452277,46.548156523098243,46.681125838747015,46.814095154398522,46.947064470052815,47.08003378570988,47.213003101369722,47.345972417032279,46.895074038418421,46.688120181250319,46.481166324085017,46.274212466922521,46.067258609762888,45.860304752606048,45.65335089545205,45.44639703830083,45.057084397276071,44.518565980934305,43.980047564595388,43.441529148259349,42.903010731926152,42.364492315595854,41.825973899268419,41.287455482943876,40.748937066622233,40.210418650303438,39.480601167683467,38.623247960553371,37.765894753426259,36.908541546302011,36.051188339180783,35.193835132062432,34.336481924947037,33.479128717834634,32.621775510725151,31.764422303618591,30.70991895752741,29.549254977382603,28.388590997240836,27.227927017102097,26.067263036966377,24.906599056833688,23.745935076703997,22.58527109657739,21.424607116453753,20.263943136333161,18.902733116704479,17.455571409442697,16.008409702183972,14.561247994928438,13.114086287675919,11.666924580426567,10.219762873180294,8.7726011659370933,7.3254394586970353,5.87827775146006,4.2287366458304474,2.5117331901827757,0.79472973453826334,-0.92227372110308448,-2.6392771767412344,-4.3562806323762731,-6.0732840880080694,-7.7902875436367225,-9.5072909992622563,-11.224294454884557,-13.144810620448874,-15.116207368032754,-17.08760411561331,-19.059000863190494,-21.030397610764339,-23.00179435833477,-24.973191105901879,-26.944587853465627,-28.915984601025968,-30.887381348583041,-33.064132866094631,-35.27712574423095,-37.4901186223639,-39.7031115004937,-41.916104378620126,-44.129097256743329,-46.342090134863192,-48.555083012979772,-50.768075891093083,-52.981068769203183,-55.402419828714905,-57.846923985522473,-60.291428142326374,-62.735932299126723,-65.180436455923569,-67.624940612716713,-70.069444769506362,-72.513948926292258,-74.958453083074716,-77.402957239853563,-80.0617525291601,-82.731828431236124,-85.4019043333084,-88.071980235377083,-90.7420561374421,-93.412132039503518,-96.082207941561222,-98.752283843615189,-101.42235974566553,-104.09243564771222,0.5400501618463639,0.5400501618463639,0.5400501618463639,0.5400501618463639,0.5400501618463639,0.5400501618463639,0.5400501618463639,0.5400501618463639,0.5400501618463639,0.5400501618463639,0.5400501618463639,0.5400501618463639
DP 449,232.40423414686308,0.0049564246548849823,-214.39441366190039,-208.57535156914818,-202.75628947639214,-196.93722738363243,-191.11816529086832,-185.29910319810051,-179.48004110532861,-173.66097901255279,-167.84191691977307,-162.02285482698926,-156.21453307717445,-150.61027987424328,-145.00602667130812,-139.401773468369,-133.79752026542596,-128.193267062479,-122.58901385952821,-116.9847606565734,-111.38050745361474,-105.7762542506522,-100.21517263657746,-95.04263940318036,-89.87010616977922,-84.697572936374428,-79.525039702965827,-74.3525064695534,-69.179973236137158,-64.007440002717118,-58.834906769293248,-53.662373535865648,-48.580944032363362,-44.015774739312143,-39.45060544625705,-34.885436153198086,-30.320266860135295,-25.755097567068592,-21.189928273998007,-16.624758980923559,-12.059589687845266,-7.4944203947631021,-3.0774115092689458,0.74694874368101472,4.57130899663475,8.395669249592304,12.220029502553626,16.044389755518782,19.868750008487716,23.693110261460458,27.517470514436983,31.341830767417306,34.959538934485657,37.957283030581216,40.955027126680491,43.952771222783639,46.950515318890524,49.948259415001296,52.946003511115855,55.943747607234215,58.941491703356341,61.939235799482262,64.6774718913369,66.810179086100831,68.942886280868578,71.0755934756402,73.2083006704155,75.341007865194712,77.473715059977664,79.606422254764539,81.739129449555122,83.871836644349614,85.70334374915987,86.975471124030122,88.247598498904267,89.519725873782221,90.791853248663955,92.063980623549568,93.33610799843899,94.608235373332278,95.880362748229345,97.1524901231303,98.096226988479131,98.547370329508752,98.998513670542209,99.4496570115796,99.9008003526207,100.35194369366589,100.80308703471474,101.25423037576734,101.70537371682406,102.15651705788457,102.26764410966666,101.96318855480976,101.65873299995675,101.35427744510773,101.04982189026255,100.74536633542125,100.44091078058386,100.13645522575034,99.8319996709207,99.527544116095072,96.929208991080557,95.950764777930459,94.972320564784454,93.993876351642285,93.0154321385041,92.036987925369843,91.058543712239569,90.080099499113246,88.779973592281991,87.2166480440895,85.653322495901,84.089996947716514,82.526671399535928,80.9633458513595,79.400020303186977,77.836694755018627,76.27336920685417,74.71004365869365,72.8494326741108,70.7906267152734,68.731820756440015,66.6730147976107,64.614208838785558,62.5554028799644,60.496596921147422,58.4377909623344,56.378985003525614,54.320179044720796,51.994087859312444,49.524069972784005,47.054052086259887,44.584034199739854,42.114016313224042,39.643998426712393,37.173980540204838,34.70396265370163,32.233944767202466,29.763926880707519,27.058901918761993,24.253155672115884,21.4474094254739,18.641663178836332,15.835916932202933,13.03017068557388,10.224424438949063,7.4186781923284624,4.6129319457122024,1.8071856991001898,-1.2019965291119667,-4.2789933150598483,-7.3559901010033943,-10.432986886942604,-13.509983672877413,-16.586980458807986,-19.66397724473407,-22.740974030655838,-25.817970816573386,-28.894967602486435,-32.146813797495952,-35.442374410650984,-38.737935023801576,-42.033495636947421,-45.329056250088854,-48.624616863225548,-51.920177476357722,-55.2157380894853,-58.511298702608293,-61.806859315726804,-65.254074027883277,-68.7280529145187,-72.202031801149474,-75.676010687776,-79.14998957439785,-82.623968461015266,-86.09794734762815,-89.571926234236614,-93.045905120840658,-96.519884007440169,-100.12857778275405,-103.75224129385714,-107.37590480495551,-110.99956831604892,-114.62323182713747,-118.24689533822112,-121.87055884930005,-125.49422236037405,-129.11788587144324,-132.74154938250749,-136.49162180963987,-140.24834859533314,-144.00507538102138,-147.76180216670465,-151.51852895238306,-155.2752557380567,-159.03198252372539,-162.78870930938882,-166.54543609504768,-170.30216288070136,0.73561974779830852,0.73561974779830852,0.73561974779830852,0.73561974779830852,0.73561974779830852,0.73561974779830852,0.73561974779830852,0.73561974779830852,0.73561974779830852,0.73561974779830852,0.73561974779830852,0.73561974779830852
DP 450,237.25039504572945,0.0010906207814249181,-47.876643705412675,-46.572277152530042,-45.267910599646591,-43.963544046762266,-42.65917749387701,-41.354810940990923,-40.050444388103955,-38.746077835216141,-37.4417112823274,-36.137344729437821,-34.835415130597994,-33.579788119411553,-32.324161108224253,-31.068534097036078,-29.812907085847066,-28.557280074657164,-27.301653063466421,-26.046026052274811,-24.790399041082342,-23.534772029889,-22.288932689004675,-21.131183306056037,-19.973433923106555,-18.815684540156255,-17.65793515720511,-16.500185774253115,-15.342436391300298,-14.184687008346637,-13.026937625392161,-11.869188242436824,-10.732065608878839,-9.7118291883606158,-8.6915927678415432,-7.6713563473216162,-6.6511199268008472,-5.63088350627922,-4.6106470857567441,-3.5904106652334118,-2.5701742447092393,-1.5499378241842148,-0.56318478293170648,0.28963315877662565,1.1424511004857882,1.9952690421957882,2.8480869839066174,3.7009049256182833,4.5537228673307855,5.4065408090441265,6.2593587507583,7.1121766924733025,7.9184005307750276,8.58484029717665,9.251280063579113,9.9177198299824116,10.58415959638654,11.250599362791517,11.917039129197333,12.583478895603973,13.249918662011455,13.916358428419759,14.524447459856557,14.996382478275699,15.468317496695672,15.940252515116471,16.412187533538127,16.8841225519606,17.356057570383935,17.82799258880809,18.299927607233109,18.771862625658951,19.176286768548575,19.455331747947778,19.734376727347847,20.013421706748762,20.29246668615048,20.571511665553064,20.850556644956487,21.129601624360742,21.40864660376587,21.687691583171812,21.893391955934415,21.989073685571448,22.084755415209312,22.18043714484801,22.276118874487576,22.371800604127984,22.467482333769233,22.563164063411325,22.658845793054276,22.754527522698055,22.774564744715672,22.70214597962773,22.6297272145406,22.557308449454364,22.484889684368941,22.412470919284402,22.340052154200727,22.267633389117876,22.195214624035909,22.122795858954785,21.532264664047208,21.310535656844049,21.088806649641764,20.867077642440321,20.645348635239753,20.423619628040061,20.201890620841233,19.980161613643265,19.687494771159542,19.336786662506391,18.986078553854114,18.635370445202717,18.2846623365522,17.933954227902564,17.5832461192538,17.232538010605943,16.881829901958927,16.531121793312835,16.115175851866717,15.655736994158634,15.196298136451453,14.736859278745166,14.277420421039775,13.817981563335293,13.358542705631699,12.899103847929002,12.439664990227213,11.980226132526298,11.462439509127247,10.913234009565944,10.364028510005575,9.8148230104461174,9.26561751088757,8.71641201132993,8.1672065117732053,7.61800101221741,7.0687955126625157,6.5195900131085391,5.9193704947657908,5.2972869644553455,4.67520343414581,4.0531199038372474,3.4310363735296026,2.8089528432229032,2.1868693129171404,1.5647857826123006,0.94270225230841331,0.32061872200545766,-0.34536014455964054,-1.0259713430842194,-1.7065825416078471,-2.3871937401305208,-3.0678049386522304,-3.7484161371730105,-4.4290273356928029,-5.10963853421165,-5.7902497327295634,-6.4708609312464969,-7.1889575766030411,-7.9164260265654951,-8.6438944765269756,-9.37136292648744,-10.098831376446903,-10.826299826405348,-11.553768276362797,-12.281236726319237,-13.008705176274669,-13.736173626229112,-14.495942012837869,-15.261410747447446,-16.026879482056025,-16.792348216663655,-17.557816951270254,-18.323285685875902,-19.088754420480548,-19.85422315508422,-20.6196918896869,-21.38516062428862,-22.179143002161286,-22.976293862079437,-23.773444721996523,-24.570595581912517,-25.3677464418275,-26.164897301741352,-26.96204816165417,-27.759199021565927,-28.556349881476635,-29.353500741386213,-30.177284974094587,-31.002471228256731,-31.827657482417827,-32.652843736577758,-33.478029990736665,-34.303216244894479,-35.128402499051205,-35.9535887532068,-36.778775007361375,-37.603961261514826,0.16143837877118405,0.16143837877118405,0.16143837877118405,0.16143837877118405,0.16143837877118405,0.16143837877118405,0.16143837877118405,0.16143837877118405,0.16143837877118405,0.16143837877118405,0.16143837877118405,0.16143837877118405
DP 451,97.883772986287553,0.0021500451642931574,-47.73825997128565,-46.625901771306651,-45.513543571326139,-44.401185371344162,-43.288827171360694,-42.176468971375776,-41.064110771389366,-39.951752571401506,-38.839394371412148,-37.727036171421311,-36.615990602868138,-35.529885279802642,-34.443779956735661,-33.357674633667237,-32.271569310597307,-31.18546398752596,-30.099358664453089,-29.013253341378778,-27.927148018303,-26.841042695225756,-25.760354053905864,-24.728416060408563,-23.6964780669098,-22.664540073409597,-21.632602079907944,-20.600664086404869,-19.568726092900363,-18.536788099394389,-17.504850105886998,-16.472912112378129,-15.452862526705527,-14.500181334587186,-13.547500142467351,-12.594818950346035,-11.642137758223258,-10.689456566099008,-9.7367753739732734,-8.7840941818460649,-7.831412989717391,-6.87873179758724,-5.9464703235670449,-5.0958886870434243,-4.2453070505183543,-3.3947254139918193,-2.5441437774638245,-1.6935621409343635,-0.84298050440344263,0.0076011321289433153,0.85818276866278664,1.708764405198091,2.5288351317133828,3.2573719745904075,3.9859088174689128,4.7144456603488969,5.44298250323036,6.1715193461133016,6.9000561889977243,7.628593031883625,8.3571298747710028,9.085666717659862,9.77256964265963,10.362325119543197,10.952080596428269,11.541836073314828,12.131591550202888,12.721347027092433,13.311102503983461,13.900857980876006,14.490613457770033,15.080368934665545,15.616893958162557,16.054560987797728,16.492228017434424,16.929895047072613,17.367562076712314,17.805229106353536,18.242896135996276,18.680563165640542,19.118230195286298,19.555897224933588,19.928780832706082,20.20448777680949,20.480194720914394,20.755901665020868,21.031608609128867,21.307315553238414,21.583022497349464,21.858729441462081,22.134436385576251,22.410143329691937,22.610001644607223,22.717154486205185,22.824307327804711,22.931460169405817,23.038613011008479,23.145765852612723,23.252918694218526,23.360071535825892,23.467224377434832,23.574377219045321,23.465429068254487,23.400418914159751,23.335408760066645,23.270398605975139,23.205388451885238,23.140378297796907,23.075368143710186,23.010357989625067,22.850089171649419,22.611879809766059,22.373670447884319,22.135461086004224,21.897251724125788,21.659042362248972,21.420833000373804,21.182623638500264,20.944414276628365,20.706204914758104,20.364703809819972,19.954339915623173,19.54397602142808,19.133612127234642,18.723248233042909,18.312884338852847,17.902520444664475,17.492156550477759,17.081792656292752,16.671428762109418,16.150848866250502,15.570920289832749,14.990991713416721,14.411063137002426,13.831134560589852,13.251205984179029,12.67127740776991,12.091348831362547,11.5114202549569,10.931491678552987,10.235384513589262,9.4894845639960526,8.7435846144045772,7.9976846648149387,7.2517847152270525,6.5058847656409613,5.7599848160566474,5.0140848664741053,4.26818491689336,3.5222849673143979,2.6549372665190107,1.747105451398991,0.83927363628079177,-0.068558178835586472,-0.97638999395012527,-1.8842218090628706,-2.7920536241737519,-3.6998854392828204,-4.6077172543900975,-5.5155490694955152,-6.5496435125889176,-7.615305104491858,-8.6809666963928844,-9.7466282882919515,-10.812289880189095,-11.877951472084275,-12.943613063977521,-14.009274655868824,-15.074936247758192,-16.14059783964564,-17.337452319208186,-18.557459943714608,-19.777467568219077,-20.99747519272173,-22.217482817222439,-23.437490441721263,-24.657498066218167,-25.877505690713207,-27.097513315206331,-28.317520939697619,-29.673765662982742,-31.045149272499753,-32.416532882014714,-33.787916491527511,-35.159300101038319,-36.530683710546988,-37.9020673200536,-39.273450929558074,-40.644834539060604,-42.016218148560959,-43.5298109782633,-45.050889918690253,-46.571968859115152,-48.093047799537878,-49.614126739958451,-51.135205680377013,-52.656284620793414,-54.177363561207564,-55.698442501619724,-57.219521442029716,0.31114963354377428,0.31114963354377428,0.31114963354377428,0.31114963354377428,0.31114963354377428,0.31114963354377428,0.31114963354377428,0.31114963354377428,0.31114963354377428,0.31114963354377428,0.31114963354377428,0.31114963354377428
DP 452,124.53929288525629,0.002542777024234299,-67.976338973779832,-66.322779682929962,-64.6692203920782,-63.01566110122458,-61.362101810369026,-59.70854251951161,-58.054983228652226,-56.401423937791,-54.747864646927866,-53.094305356062883,-51.4429325627522,-49.833103636354238,-48.223274709954431,-46.613445783552727,-45.003616857149126,-43.393787930743635,-41.783959004336232,-40.174130077926932,-38.564301151515764,-36.954472225102663,-35.353611924051492,-33.833470099002732,-32.313328273952152,-30.79318644889975,-29.273044623845458,-27.752902798789329,-26.232760973731367,-24.712619148671521,-23.192477323609857,-21.672335498546357,-20.171710307957227,-18.781680609229038,-17.391650910498988,-16.001621211767009,-14.611591513033185,-13.221561814297472,-11.831532115559858,-10.441502416820363,-9.0514727180790011,-7.6614430193357475,-6.3045362324946757,-5.0801226586835773,-3.8557090848706239,-2.6312955110558045,-1.4068819372391328,-0.18246836342058936,1.0419452103998097,2.2663587842220712,3.4907723580461911,4.7151859318721714,5.8908518462604675,6.9202729392504372,7.949694032242288,8.9791151252359978,10.008536218231592,11.037957311229059,12.067378404228402,13.096799497229616,14.1262205902327,15.155641683237675,16.119756687545035,16.93148824621278,17.743219804882443,18.554951363553979,19.366682922227412,20.178414480902727,20.990146039579933,21.801877598259026,22.61360915694,23.425340715622873,24.155362246530114,24.733634376322904,25.311906506117591,25.890178635914179,26.4684507657127,27.046722895513081,27.624995025315396,28.203267155119637,28.781539284925774,29.3598114147338,29.841072096745197,30.176813314644356,30.512554532545387,30.848295750448404,31.184036968353293,31.519778186260183,31.855519404168977,32.191260622079675,32.52700183999233,32.862743057906876,33.088026686665238,33.17830427520687,33.268581863750462,33.35885945229596,33.449137040843496,33.539414629392951,33.629692217944374,33.719969806497744,33.810247395053082,33.900524983610389,33.563588611186688,33.410758084934642,33.2579275586846,33.105097032436582,32.952266506190526,32.799435979946438,32.646605453704375,32.493774927464329,32.210875075927873,31.821552631996415,31.43223018806702,31.042907744139647,30.653585300214289,30.26426285629098,29.874940412369725,29.485617968450498,29.096295524533314,28.706973080618152,28.181600872650954,27.5655266787133,26.949452484777751,26.333378290844262,25.717304096912862,25.101229902983544,24.485155709056336,23.869081515131171,23.253007321208123,22.636933127287122,21.881081197955119,21.049962301558153,20.218843405163362,19.387724508770663,18.55660561238011,17.725486715991707,16.894367819605435,16.063248923221334,15.232130026839348,14.401011130459514,13.42816433265112,12.394574613454923,11.360984894260859,10.327395175069057,9.2938054558794132,8.2602157366919826,7.2266260175067485,6.1930362983236869,5.1594465791428359,4.1258568599641814,2.94970841754093,1.7260386040589808,0.50236879057926631,-0.72130102289820808,-1.9449708363734193,-3.1686406498464308,-4.3923104633171439,-5.6159802767856339,-6.8396500902519213,-8.0633199037159144,-9.4298974671379874,-10.832203656526652,-12.234509845912985,-13.636816035296926,-15.039122224678488,-16.441428414057658,-17.843734603434452,-19.246040792808877,-20.648346982180929,-22.050653171550625,-23.596755725228451,-25.168235706937637,-26.739715688644463,-28.311195670349012,-29.882675652051216,-31.454155633751107,-33.025635615448635,-34.597115597143876,-36.168595578836793,-37.740075560527409,-39.457122327669161,-41.190344710876957,-42.923567094082266,-44.656789477284988,-46.390011860485245,-48.12323424368288,-49.856456626878078,-51.58967901007059,-53.322901393260693,-55.056123776448274,-56.938837894504751,-58.829421485989286,-60.720005077471278,-62.610588668950641,-64.501172260427509,-66.3917558519017,-68.282339443373331,-70.172923034842285,-72.063506626308779,-73.954090217772617,0.38203673279373712,0.38203673279373712,0.38203673279373712,0.38203673279373712,0.38203673279373712,0.38203673279373712,0.38203673279373712,0.38203673279373712,0.38203673279373712,0.38203673279373712,0.38203673279373712,0.38203673279373712
DP 453,286.45273878190625,0.0051668166033703757,-258.07721300615083,-250.79201495794433,-243.50681690973357,-236.22161886151869,-228.93642081329983,-221.65122276507694,-214.36602471685,-207.08082666861898,-199.79562862038375,-192.51043057214454,-185.24051079968362,-178.26088115536075,-171.28125151103393,-164.30162186670319,-157.32199222236815,-150.3423625780292,-143.36273293368629,-136.38310328933943,-129.40347364498848,-122.42384400063345,-115.50506108591587,-109.13390448930654,-102.7627478926933,-96.391591296076243,-90.020434699455251,-83.649278102830408,-77.2781215062016,-70.906964909568956,-64.53580831293236,-58.164651716291928,-51.920008322244563,-46.392281048409018,-40.864553774569622,-35.336826500726247,-29.809099226878903,-24.2813719530276,-18.753644679172325,-13.225917405313075,-7.6981901314499064,-2.1704628575827809,3.1556813962418833,7.6754840429084608,12.195286689578896,16.715089336253229,21.23489198293144,25.75469462961351,30.274497276299474,34.794299922989339,39.314102569683065,43.833905216380678,48.07964295221641,51.503175593443629,54.926708234674813,58.350240875909883,61.77377351714879,65.197306158391555,68.620838799638236,72.044371440888867,75.467904082143278,78.891436723401711,81.9811203590176,84.291809833164322,86.602499307314886,88.91318878146933,91.2238782556277,93.534567729789941,95.845257203956109,98.155946678126227,100.46663615230011,102.77732562647796,104.71381433917297,105.95534867482155,107.19688301047391,108.43841734613032,109.67995168179051,110.92148601745471,112.16302035312277,113.4045546887948,114.64608902447063,115.88762336015031,116.73676128671383,116.9972953271284,117.25782936754706,117.51836340796953,117.77889744839595,118.03943148882634,118.29996552926067,118.56049956969892,118.82103361014097,119.08156765058706,118.9527960029348,118.34819811477337,117.74360022661564,117.13900233846212,116.53440445031252,115.92980656216687,115.32520867402511,114.72061078588732,114.11601289775345,113.51141500962379,109.85539013334689,108.51389836743621,107.17240660152945,105.83091483562669,104.48942306972802,103.14793130383333,101.80643953794262,100.46494777205588,98.788710479333517,96.838584729995148,94.888458980660687,92.938333231330446,90.988207482004256,89.038081732682045,87.087955983363941,85.137830234049957,83.187704484740067,81.237578735434241,78.993960870261944,76.554676970964238,74.115393071670724,71.676109172381246,69.236825273095974,66.797541373814823,64.358257474537851,61.918973575264964,59.479689675996283,57.04040577673166,54.351625508119625,51.5284974125143,48.705369316913284,45.88224122131647,43.05911312572384,40.23598503013541,37.412856934551158,34.589728838971183,31.766600743395362,28.943472647823754,25.913704610337959,22.795373109899561,19.677041609465352,16.558710109035626,13.440378608610134,10.322047108189027,7.2037156077722262,4.0853841073596673,0.96705260695152118,-2.1512788934523339,-5.4374077657190423,-8.7794712099945169,-12.121534654265618,-15.463598098532325,-18.80566154279456,-22.147724987052531,-25.489788431305932,-28.831851875555021,-32.173915319799804,-35.515978764040028,-38.992708727189886,-42.50310691117086,-46.013505095147337,-49.523903279119175,-53.034301463086365,-56.544699647048908,-60.05509783100679,-63.565496014960118,-67.075894198908728,-70.58629238285279,-74.205499676742775,-77.843909788240722,-81.48231989973398,-85.12073001122296,-88.759140122707151,-92.397550234186951,-96.035960345662176,-99.674370457132838,-103.31278056859908,-106.95119068006079,-110.67978860872309,-114.41840835314461,-118.15702809756112,-121.89564784197277,-125.63426758637965,-129.37288733078145,-133.11150707517848,-136.85012681957045,-140.58874656395767,-144.32736630833983,-148.14631412146355,-151.96949052690712,-155.79266693234567,-159.61584333777935,-163.43901974320798,-167.26219614863183,-171.08537255405056,-174.90854895946413,-178.73172536487283,-182.55490177027647,0.74249761591171437,0.74249761591171437,0.74249761591171437,0.74249761591171437,0.74249761591171437,0.74249761591171437,0.74249761591171437,0.74249761591171437,0.74249761591171437,0.74249761591171437,0.74249761591171437,0.74249761591171437
DP 454,92.191515285126385,0.0035092810656474809,-74.5329827154383,-72.815033722965751,-71.097084730490877,-69.3791357380137,-67.66118674553411,-65.943237753052216,-64.225288760567992,-62.507339768081451,-60.789390775592565,-59.071441783101321,-57.355466509378516,-55.6769922654183,-53.998518021455787,-52.320043777490923,-50.641569533523729,-48.963095289554268,-47.284621045582412,-45.606146801608233,-43.927672557631709,-42.2491983136529,-40.578881305911082,-38.981980195357508,-37.385079084801617,-35.788177974243453,-34.191276863683008,-32.594375753120246,-30.997474642555208,-29.4005735319879,-27.803672421418266,-26.206771310846349,-24.627807480249743,-23.150489366499318,-21.673171252746531,-20.195853138991396,-18.718535025233944,-17.241216911474144,-15.763898797711974,-14.286580683947474,-12.8092625701806,-11.331944456411414,-9.88551979577474,-8.5626704077247844,-7.2398210196724948,-5.9169716316178818,-4.5941222435609435,-3.2712728555016608,-1.9484234674400525,-0.62557407937610932,0.697275308690156,2.0201246967587507,3.2966560174413542,4.4342313847392676,5.5718067520395342,6.7093821193421626,7.84695748664715,8.9845328539544926,10.122108221264185,11.259683588576248,12.397258955890656,13.534834323207425,14.608940340468731,15.53494870792797,16.460957075389587,17.38696544285358,18.312973810320003,19.238982177788767,20.164990545259943,21.090998912733497,22.017007280209423,22.943015647687748,23.787481895431267,24.480510575813131,25.173539256197358,25.866567936584097,26.559596616973185,27.252625297364702,27.945653977758649,28.638682658155016,29.331711338553813,30.024740018955,30.617973708377118,31.061512553136758,31.5050513978989,31.948590242663485,32.392129087430547,32.835667932200018,33.279206776971996,33.722745621746419,34.166284466523337,34.609823311302691,34.935794258369334,35.118068638744184,35.300343019121478,35.482617399501308,35.664891779883675,35.847166160268507,36.029440540655905,36.211714921045804,36.393989301438182,36.576263681833083,36.451373990880832,36.3649627304987,36.278551470119162,36.192140209742206,36.1057289493678,36.019317688995947,35.9329064286267,35.846495168259978,35.6103227234061,35.251615826582579,34.892908929761667,34.534202032943419,34.175495136127765,33.816788239314761,33.4580813425044,33.099374445696618,32.740667548891494,32.381960652089042,31.859598303616089,31.228129742539103,30.596661181464814,29.965192620393243,29.333724059324375,28.702255498258165,28.070786937194725,27.439318376133919,26.807849815075869,26.176381254020498,25.368886162006664,24.466604993589065,23.564323825174281,22.662042656762246,21.759761488352964,20.857480319946468,19.955199151542736,19.052917983141768,18.150636814743571,17.248355646348156,16.159030484426303,14.989540453905644,13.820050423387766,12.650560392872844,11.481070362360727,10.311580331851523,9.14209030134518,7.9726002708416717,6.8031102403410681,5.6336202098433139,4.2670808199910244,2.8348558269735422,1.4026308339589897,-0.029594159052632234,-1.4618191520612904,-2.89404414506706,-4.3262691380698284,-5.7584941310696811,-7.1907191240666473,-8.6229441170606069,-10.261498323463902,-11.951637271031229,-13.641776218595469,-15.331915166156559,-17.022054113714542,-18.712193061269357,-20.402332008821087,-22.092470956369652,-23.782609903915123,-25.472748851457496,-27.378593569058104,-29.322506409465468,-31.266419249869724,-33.210332090271052,-35.154244930669236,-37.098157771064379,-39.042070611456438,-40.985983451845485,-42.929896292231476,-44.873809132614419,-47.04278843262351,-49.236777480763273,-51.430766528899788,-53.624755577032808,-55.818744625162694,-58.012733673289006,-60.206722721412056,-62.40071176953164,-64.594700817648118,-66.788689865761015,-69.218315751043733,-71.660345919616759,-74.102376088186247,-76.544406256752367,-78.98643642531502,-81.428466593874333,-83.870496762430179,-86.312526930982443,-88.754557099531468,-91.196587268076925,0.50101658439300012,0.50101658439300012,0.50101658439300012,0.50101658439300012,0.50101658439300012,0.50101658439300012,0.50101658439300012,0.50101658439300012,0.50101658439300012,0.50101658439300012,0.50101658439300012,0.50101658439300012
DP 455,119.27434077948914,0.001676511203168048,-43.322858203321196,-42.27702035739344,-41.231182511464446,-40.185344665534181,-39.139506819602673,-38.093668973669978,-37.047831127736018,-36.001993281800821,-34.956155435864368,-33.910317589926706,-32.865833979828132,-31.847081106705858,-30.828328233582351,-29.809575360457615,-28.79082248733167,-27.772069614204494,-26.753316741076052,-25.734563867946374,-24.715810994815492,-23.697058121683384,-22.683865854156409,-21.720719562684017,-20.757573271210411,-19.794426979735615,-18.8312806882596,-17.868134396782391,-16.904988105303964,-15.94184181382434,-14.978695522343536,-14.015549230861497,-13.06452267072609,-12.182175351945929,-11.299828033164536,-10.417480714381922,-9.53513339559807,-8.6527860768129958,-7.7704387580266863,-6.8880914392391484,-6.0057441204503821,-5.1233968016603972,-4.2616659726641339,-3.4824020771984507,-2.7031381817315587,-1.9238742862634481,-1.14461039079413,-0.36534649532358976,0.41391740014816059,1.1931812956211283,1.9724451910953049,2.7517090865706963,3.500543163123115,4.1580866323948342,4.8156301016677778,5.4731735709419356,6.1307170402173288,6.7882605094939441,7.4458039787717789,8.1033474480508385,8.7608909173311176,9.41843438661262,10.035069741573702,10.556251218664055,11.077432695755641,11.598614172848457,12.119795649942512,12.640977127037807,13.162158604134326,13.683340081232076,14.204521558331072,14.725703035431273,15.195489592427098,15.569827052678153,15.944164512930463,16.318501973184027,16.692839433438838,17.067176893694882,17.441514353952154,17.815851814210713,18.19018927447048,18.564526734731519,18.877556161170716,19.09862208814501,19.319688015120597,19.54075394209741,19.761819869075513,19.982885796054855,20.203951723035466,20.425017650017342,20.646083577000478,20.867149503984887,21.018037277011739,21.083150276680783,21.148263276351095,21.213376276022704,21.278489275695566,21.343602275369733,21.408715275045186,21.473828274721917,21.538941274399914,21.604054274079218,21.410969000674513,21.320711997665668,21.230454994658153,21.140197991651934,21.04994098864702,20.959683985643405,20.869426982641109,20.779169979640109,20.60524686133536,20.3628682108292,20.120489560324376,19.878110909820876,19.635732259318711,19.393353608817883,19.15097495831839,18.908596307820247,18.666217657323408,18.423839006827922,18.093332939149768,17.704073871695336,17.314814804242282,16.925555736790574,16.536296669340231,16.14703760189126,15.757778534443659,15.368519466997412,14.979260399552528,14.590001332109019,14.109525778340673,13.579932328565441,13.050338878791642,12.520745429019231,11.991151979248233,11.461558529478612,10.931965079710404,10.402371629943623,9.8727781801782282,9.3431847304142437,8.7203851212746066,8.057638442046855,7.3948917628205146,6.7321450835956433,6.06939840437219,5.4066517251501933,4.7439050459296279,4.0811583667104863,3.418411687492807,2.7556650082765604,1.9984340843312467,1.2097072213737095,0.42098035841763787,-0.36774650453696506,-1.156473367490084,-1.9452002304417586,-2.7339270933919289,-3.5226539563406396,-4.3113808192879,-5.100107682233662,-5.9842613999424739,-6.8922729588250542,-7.800284517706098,-8.7082960765855812,-9.616307635463496,-10.524319194339844,-11.432330753214643,-12.340342312087872,-13.248353870959532,-14.156365429829675,-15.161042657778106,-16.182779608146831,-17.204516558513966,-18.226253508879665,-19.247990459243784,-20.269727409606386,-21.291464359967467,-22.313201310327017,-23.33493826068505,-24.356675211041569,-25.476798128345397,-26.607853853038609,-27.738909577730183,-28.869965302420102,-30.001021027108415,-31.132076751794934,-32.263132476479889,-33.394188201163082,-34.525243925844705,-35.656299650524609,-36.888747646497933,-38.126533086614636,-39.364318526729626,-40.602103966842904,-41.839889406954477,-43.077674847064436,-44.315460287172641,-45.553245727279069,-46.791031167383863,-48.028816607486874,0.25068304973138,0.25068304973138,0.25068304973138,0.25068304973138,0.25068304973138,0.25068304973138,0.25068304973138,0.25068304973138,0.25068304973138,0.25068304973138,0.25068304973138,0.25068304973138
DP 456,99.482145365187719,0.0012936373621701561,-29.074236683249833,-28.394787364575627,-27.715338045900484,-27.035888727224471,-26.356439408547555,-25.67699008986974,-24.997540771191051,-24.318091452511482,-23.638642133830963,-22.959192815149603,-22.280551125875018,-21.617254548023933,-20.953957970171945,-20.29066139231908,-19.627364814465334,-18.964068236610689,-18.300771658755149,-17.637475080898707,-16.974178503041394,-16.310881925183189,-15.650917312737484,-15.020940703954702,-14.390964095171061,-13.760987486386538,-13.13101087760114,-12.501034268814868,-11.871057660027727,-11.241081051239709,-10.611104442450831,-9.9811278336610556,-9.3584592021322486,-8.7772029022614184,-8.1959466023897,-7.6146903025170927,-7.0334340026435846,-6.4521777027691884,-5.8709214028939,-5.2896651030177093,-4.7084088031406361,-4.1271525032626721,-3.5584403384626,-3.0399053068227531,-2.5213702751820204,-2.0028352435404004,-1.4843002118978996,-0.965765180254507,-0.44723014861023397,0.071304883034927533,0.5898399146809713,1.1083749463278998,1.60818538383152,2.0518213309524427,2.495457278074261,2.9390932251969728,3.3827291723205808,3.8263651194450854,4.2700010665704795,4.7136370136967747,5.1572729608239563,5.6009089079520384,6.0190232021027406,6.3775859674964028,6.7361487328909675,7.0947114982864408,7.45327426368281,7.81183702908009,8.1703997944782678,8.5289625598773551,8.88752532527735,9.2460880906782421,9.5720648068889229,9.8375236945793247,10.102982582270638,10.368441469962871,10.63390035765601,10.899359245350078,11.164818133045054,11.430277020740945,11.695735908437754,11.961194796135473,12.187056069817244,12.353519986768326,12.519983903720334,12.686447820673289,12.852911737627172,13.019375654581973,13.185839571537706,13.352303488494382,13.518767405451968,13.685231322410518,13.805414859842566,13.869032516855468,13.932650173869309,13.996267830884097,14.059885487899853,14.12350314491654,14.187120801934171,14.250738458952762,14.314356115972291,14.377973772992776,14.30670795181917,14.265477893741892,14.224247835665579,14.183017777590234,14.141787719515863,14.100557661442439,14.05932760337,14.018097545298534,13.918974089235695,13.772482312604156,13.625990535973624,13.479498759344089,13.333006982715519,13.186515206087954,13.040023429461382,12.893531652835804,12.747039876211204,12.6005480995876,12.39141700520031,12.140525378844544,11.889633752489798,11.638742126136055,11.387850499783339,11.136958873431638,10.886067247080947,10.635175620731273,10.384283994382628,10.133392368034977,9.8158143781228748,9.462327376555,9.1088403749881852,8.7553533734224143,8.4018663718576843,8.0483793702940076,7.6948923687313657,7.3414053671697834,6.9879183656092385,6.6344313640497434,6.2108098120802824,5.7571294118588536,5.3034490116384729,4.8497686114192033,4.3960882112009836,3.9424078109838545,3.4887274107677979,3.0350470105528076,2.5813666103389057,2.1276862101260767,1.6008534028033523,1.0496355378497026,0.49841767289715144,-0.052800192054300907,-0.60401805700464228,-1.1552359219539021,-1.7064537869020351,-2.2576716518490749,-2.8088895167950341,-3.3601073817398657,-3.9872218669072721,-4.6333114038606578,-5.2794009408128941,-5.9254904777639439,-6.5715800147138337,-7.2176695516625378,-7.8637590886100757,-8.50984862555644,-9.1559381625016361,-9.8020276994456772,-10.52683695895268,-11.265538809580571,-12.004240660207305,-12.742942510832934,-13.481644361457375,-14.220346212080711,-14.959048062702866,-15.6977499133239,-16.436451763943797,-17.175153614562543,-17.995489490466476,-18.824896670973775,-19.654303851479835,-20.483711031984612,-21.313118212488192,-22.142525392990489,-22.971932573491532,-23.801339753991282,-24.630746934489821,-25.460154114987091,-26.374698749923603,-27.293725150598227,-28.212751551271538,-29.131777951943572,-30.05080435261436,-30.969830753283869,-31.888857153952067,-32.807883554618961,-33.726909955284619,-34.645936355948947,0.18784361269457375,0.18784361269457375,0.18784361269457375,0.18784361269457375,0.18784361269457375,0.18784361269457375,0.18784361269457375,0.18784361269457375,0.18784361269457375,0.18784361269457375,0.18784361269457375,0.18784361269457375
DP 457,64.201234562581945,0.00315248995840558,-52.177804680007057,-51.052560318318896,-49.927315956629045,-48.80207159493753,-47.676827233244467,-46.551582871549719,-45.426338509853366,-44.301094148155308,-43.175849786455686,-42.050605424754394,-40.926488948623145,-39.823802511572353,-38.721116074519976,-37.618429637465937,-36.515743200410235,-35.4130567633529,-34.310370326293928,-33.207683889233316,-32.104997452171041,-31.002311015107114,-29.904318733136904,-28.848574290723057,-27.792829848307569,-26.737085405890443,-25.681340963471655,-24.625596521051225,-23.569852078629154,-22.514107636205409,-21.458363193780027,-20.402618751353,-19.357298820263239,-18.371051776987819,-17.384804733710684,-16.39855769043189,-15.412310647151376,-14.426063603869174,-13.439816560585271,-12.453569517299689,-11.467322474012418,-10.481075430723457,-9.5130306670355367,-8.6177958820113272,-7.72256109698542,-6.827326311957802,-5.9320915269284864,-5.0368567418974539,-4.1416219568647232,-3.2463871718302855,-2.3511523867941473,-1.4559176017563051,-0.58844920265521561,0.19571898882357613,0.97988718030410682,1.7640553717863783,2.5482235632703953,3.33239175475615,4.1165599462436466,4.9007281377328873,5.6848963292238546,6.4690645207165787,7.2143860684773653,7.8690639175980666,8.5237417667205513,9.1784196158448186,9.8330974649708551,10.487775314098675,11.142453163228279,11.797131012359664,12.451808861492813,13.106486710627751,13.710034064020336,14.218623401624036,14.727212739229547,15.235802076836897,15.744391414446071,16.252980752057059,16.76157008966987,17.2701594272845,17.77874876490095,18.287338102519218,18.731619896658657,19.079438855967854,19.427257815278914,19.775076774591863,20.122895733906667,20.470714693223357,20.818533652541912,21.166352611862347,21.514171571184637,21.861990530508805,22.131736455626466,22.306058143473965,22.480379831323376,22.654701519174715,22.829023207027983,23.003344894883188,23.177666582740304,23.351988270599335,23.52630995846031,23.700631646323192,23.76282382524067,23.752836010817525,23.74284819639637,23.732860381977204,23.722872567559982,23.712884753144778,23.702896938731559,23.692909124320337,23.576609604673752,23.373325953701094,23.170042302730476,22.966758651761953,22.763475000795488,22.560191349831033,22.356907698868643,22.153624047908302,21.950340396950018,21.747056745993795,21.423416406224213,21.019536377865329,20.615656349508569,20.211776321153916,19.807896292801416,19.404016264450991,19.000136236102737,18.596256207756575,18.192376179412534,17.788496151070621,17.250469340646674,16.64020769683421,16.029946053023984,15.419684409215922,14.809422765410037,14.199161121606386,13.588899477804917,12.97863783400566,12.368376190208572,11.75811454641369,11.000266000908633,10.179163435002121,9.35806086909785,8.5369583031959113,7.71585573729622,6.8947531713988344,6.0736506055037216,5.2525480396108764,4.431445473720335,3.6103429078320719,2.6285782325871141,1.5932574960920183,0.55793675959926492,-0.47738397689114015,-1.5127047133791778,-2.5480254498649026,-3.5833461863482303,-4.6186669228292221,-5.6539876593078988,-6.6893083957841855,-7.8978748172363478,-9.149754706857232,-10.401634596475635,-11.6535144860915,-12.905394375704853,-14.157274265315666,-15.409154154923959,-16.661034044529732,-17.912913934132995,-19.164793823733767,-20.602327421773516,-22.072625503445341,-23.542923585114675,-25.013221666781615,-26.483519748446028,-27.953817830108004,-29.424115911767498,-30.894413993424578,-32.36471207507914,-33.835010156731293,-35.502678715689065,-37.192279400535782,-38.881880085379748,-40.571480770220994,-42.261081455059561,-43.950682139895321,-45.640282824728409,-47.329883509558606,-49.019484194386273,-50.709084879211105,-52.607753785891333,-54.517428363340422,-56.427102940786789,-58.336777518230321,-60.24645209567106,-62.156126673109007,-64.06580125054424,-65.975475827976439,-67.885150405406009,-69.794824982832623,0.39888674352685327,0.39888674352685327,0.39888674352685327,0.39888674352685327,0.39888674352685327,0.39888674352685327,0.39888674352685327,0.39888674352685327,0.39888674352685327,0.39888674352685327,0.39888674352685327,0.39888674352685327
DP 458,191.42390292014267,0.0037451632930477737,-140.31173854829959,-136.63293064132165,-132.95412273434096,-129.27531482735714,-125.59650692037032,-121.9176990133806,-118.23889110638783,-114.56008319939212,-110.88127529239344,-107.20246738539167,-103.52973915442041,-99.972525917413435,-96.415312680403417,-92.858099443390458,-89.3008862063746,-85.7436729693557,-82.186459732333844,-78.629246495309033,-75.072033258281209,-71.514820021250472,-67.9822243664107,-64.671189278210818,-61.360154190008068,-58.049119101802447,-54.738084013593884,-51.427048925382493,-48.116013837168225,-44.804978748951022,-41.493943660731006,-38.18290857250809,-34.924415158412607,-31.963661208606823,-29.002907258798107,-26.042153308986453,-23.081399359171868,-20.120645409354353,-17.159891459533888,-14.199137509710505,-11.238383559884188,-8.277629610054948,-5.4036779885975417,-2.8769397829844574,-0.35020157736850716,2.17653662825034,4.7032748338720438,7.2300130394966571,9.7567512451241321,12.283489450754516,14.810227656387754,17.336965862023895,19.740220465681169,21.773019594652077,23.805818723625869,25.838617852602585,27.871416981582165,29.90421611056464,31.937015239549954,33.969814368538231,36.002613497529381,38.035412626523417,39.909437758472563,41.412983977499678,42.916530196529706,44.420076415562619,45.923622634598495,47.427168853637156,48.9307150726788,50.434261291723345,51.937807510770796,53.441353729821159,54.755526299906983,55.717999836233645,56.680473372563256,57.642946908895752,58.605420445231239,59.567893981569576,60.530367517910875,61.492841054255067,62.455314590602121,63.417788126952196,64.167361902477126,64.597581005862835,65.027800109251515,65.45801921264308,65.888238316037643,66.318457419435163,66.7486765228356,67.178895626238969,67.609114729645285,68.03933383305457,68.241513662396258,68.164974033519528,68.0884344046458,68.011894775775048,67.935355146907256,67.858815518042462,67.782275889180625,67.705736260321814,67.629196631465931,67.5526570026131,66.150347305222866,65.604730465293457,65.05911362536699,64.513496785443564,63.967879945523265,63.422263105605786,62.876646265691512,62.331029425780109,61.552373064953919,60.583044000246609,59.613714935542362,58.6443858708412,57.675056806143054,56.705727741448008,55.736398676756018,54.767069612067196,53.79774054738126,52.828411482698485,51.634201693830065,50.29006787949745,48.945934065167933,47.601800250841592,46.257666436518406,44.913532622198247,43.569398807881321,42.225264993567421,40.881131179256755,39.536997364949166,37.981045929834067,36.31103577254671,34.641025615262627,32.971015457981714,31.301005300704006,29.63099514342948,27.960984986158142,26.290974828890043,24.620964671625106,22.950954514363396,21.085148450684262,19.135426550872879,17.185704651064675,15.235982751259856,13.286260851458255,11.336538951659948,9.3868170518649343,7.43709515207314,5.4873732522846819,3.5376513524994788,1.4091072022103648,-0.77904661858006319,-2.9672004393671636,-5.1553542601509283,-7.3435080809313247,-9.5316619017084463,-11.719815722482126,-13.907969543252509,-16.096123364019629,-18.28427718478331,-20.63506816480437,-23.026520356222182,-25.417972547636563,-27.809424739047373,-30.200876930454697,-32.592329121858441,-34.98378131325871,-37.375233504655434,-39.766685696048626,-42.158137887438343,-44.698883553785791,-47.265976787642366,-49.833070021495431,-52.400163255345134,-54.9672564891913,-57.534349723034126,-60.101442956873392,-62.668536190709254,-65.235629424541671,-67.802722658370669,-70.509554604508963,-73.23191454182124,-75.954274479129836,-78.676634416434581,-81.398994353735773,-84.121354291033029,-86.84371422832659,-89.566074165616442,-92.288434102902556,-95.010794040184891,-97.869281210501526,-100.73493432644017,-103.6005874423749,-106.46624055830574,-109.33189367423297,-112.19754679015634,-115.06319990607581,-117.92885302199139,-120.79450613790323,-123.66015925381124,0.56627932985837848,0.56627932985837848,0.56627932985837848,0.56627932985837848,0.56627932985837848,0.56627932985837848,0.56627932985837848,0.56627932985837848,0.56627932985837848,0.56627932985837848,0.56627932985837848,0.56627932985837848
DP 459,197.27062099745143,0.0046365210746678719,-177.71950096215215,-173.0352027815413,-168.35090460092655,-163.6666064203082,-158.98230823968629,-154.29801005906046,-149.613711878431,-144.9294136977978,-140.24511551716103,-135.56081733652039,-130.88439059044364,-126.35752258920091,-121.83065458795441,-117.30378658670425,-112.77691858545045,-108.25005058419283,-103.72318258293168,-99.196314581666826,-94.66944658039823,-90.142578579126138,-85.647549343759465,-81.439072011028586,-77.230594678294167,-73.022117345556111,-68.813640012814545,-64.605162680069427,-60.396685347320705,-56.188208014568339,-51.979730681812541,-47.771253349053119,-43.630620932696083,-39.87444731784948,-36.118273702999318,-32.362100088145468,-28.605926473287994,-24.849752858426911,-21.093579243562164,-17.337405628693791,-13.581232013821802,-9.8250583989461635,-6.180713711763568,-2.9836900204894232,0.21333367078826965,3.4103573620695493,6.6073810533543691,9.80440474464279,13.001428435934766,16.198452127230329,19.395475818529441,22.592499509832106,25.630887654040894,28.1933631591702,30.755838664303113,33.3183141694396,35.880789674579653,38.443265179723333,41.005740684870574,43.568216190021396,46.130691695175734,48.693167200333704,51.052364912499982,52.937239768464934,54.822114624433539,56.706989480405696,58.5918643363815,60.476739192360846,62.361614048343846,64.24648890433032,66.1313637603205,68.016238616314183,69.659616093834558,70.85449191798908,72.049367742147226,73.244243566309,74.43911939047436,75.633995214643349,76.828871038815933,78.023746862992127,79.218622687171944,80.413498511355371,81.338080472220966,81.857215250964074,82.376350029710835,82.895484808461234,83.414619587215242,83.933754365972888,84.452889144734144,84.9720239234991,85.491158702267739,86.010293481039909,86.24134394433581,86.120285304236631,85.9992266641412,85.878168024049387,85.757109383961222,85.63605074387678,85.514992103796047,85.393933463719037,85.272874823645623,85.15181618357596,83.315187883388276,82.604747177158714,81.894306470932847,81.183865764710845,80.4734250584924,79.762984352277712,79.052543646066866,78.342102939859629,77.340578483821545,76.100889593621176,74.8612007034246,73.621511813231791,72.381822923042776,71.142134032857555,69.9024451426761,68.662756252498539,67.42306736232473,66.183378472154743,64.6645871349719,62.959723102921309,61.254859070874545,59.549995038831646,57.845131006792656,56.140266974757473,54.435402942726157,52.730538910698741,51.025674878675176,49.320810846655505,47.354867248095509,45.248338547921485,43.141809847751382,41.03528114758528,38.928752447423115,36.8222237472649,34.715695047110657,32.6091663469604,30.502637646814044,28.396108946671674,26.050036723397671,23.601298946990131,21.152561170586544,18.703823394187136,16.255085617791696,13.806347841400354,11.35761006501307,8.9088722886297553,6.4601345122505656,4.0113967358754081,1.345611373227164,-1.3925259202595235,-4.1306632137420989,-6.8688005072205565,-9.6069378006948352,-12.345075094165093,-15.083212387631097,-17.821349681093,-20.559486974550868,-23.297624268004519,-26.23153338582588,-29.214387772812579,-32.197242159795017,-35.180096546773036,-38.162950933746771,-41.14580532071605,-44.12865970768101,-47.11151409464162,-50.0943684815979,-53.077222868549846,-56.238321740451845,-59.430877503565341,-62.623433266674496,-65.81598902977953,-69.008544792880144,-72.201100555976623,-75.393656319068739,-78.586212082156692,-81.77876784524031,-84.971323608319764,-88.329490879076729,-91.706061167773484,-95.082631456465549,-98.45920174515291,-101.83577203383581,-105.21234232251402,-108.58891261118774,-111.9654828998565,-115.34205318852091,-118.71862347718071,-122.25569266706472,-125.80121076443685,-129.34672886180434,-132.89224695916707,-136.43776505652508,-139.98328315387849,-143.52880125122704,-147.0743193485709,-150.61983744590995,-154.16535554324426,0.69958600928840575,0.69958600928840575,0.69958600928840575,0.69958600928840575,0.69958600928840575,0.69958600928840575,0.69958600928840575,0.69958600928840575,0.69958600928840575,0.69958600928840575,0.69958600928840575,0.69958600928840575
DP 460,84.911986015502748,0.0016015598563627797,-32.049380314026585,-31.321642306733537,-30.593904299439512,-29.8661662921444,-29.138428284848317,-28.410690277551197,-27.682952270253072,-26.955214262953941,-26.227476255653752,-25.49973824835255,-24.772807650434704,-24.061217983454636,-23.349628316473556,-22.638038649491474,-21.926448982508358,-21.21485931552423,-20.503269648539089,-19.791679981552932,-19.080090314565744,-18.368500647577537,-17.660253161815493,-16.982085623005908,-16.30391808419532,-15.625750545383742,-14.947583006571149,-14.269415467757554,-13.591247928942938,-12.913080390127329,-12.234912851310716,-11.556745312493094,-10.885946161419893,-10.256901671885041,-9.6278571823491443,-8.9988126928122245,-8.3697682032742886,-7.7407237137352967,-7.11167922419529,-6.4826347346542494,-5.8535902451121844,-5.2245457555690855,-4.6082370565850148,-4.04287212174387,-3.4775071869017022,-2.9121422520585103,-2.3467773172142992,-1.7814123823690546,-1.2160474475227914,-0.65068251267550026,-0.085317577827188129,0.48004735702214907,1.0262320012565758,1.514875048463973,2.0035180956724088,2.4921611428818808,2.9808041900923912,3.4694472373039456,3.958090284516536,4.4467333317301652,4.9353763789448291,5.424019426160533,5.8862382653506939,6.2867995784584307,6.6873608915672351,7.0879222046770778,7.4884835177879827,7.8890448308999312,8.2896061440129287,8.6901674571269876,9.0907287702421,9.4912900833582512,9.8576861658141954,10.160631611514964,10.463577057216806,10.766522502919718,11.069467948623702,11.372413394328753,11.67535884003488,11.978304285742068,12.281249731450325,12.584195177159648,12.845025944694941,13.042683699783213,13.240341454872578,13.437999209963037,13.635656965054574,13.833314720147202,14.030972475240931,14.228630230335742,14.426287985431646,14.623945740528628,14.771589205048889,14.858103041658589,14.944616878269391,15.031130714881321,15.117644551494344,15.2041583881085,15.29067222472376,15.377186061340138,15.463699897957634,15.550213734576232,15.521493164245307,15.49270195081708,15.463910737389995,15.435119523964062,15.406328310539271,15.377537097115598,15.348745883693079,15.319954670271697,15.226290491500793,15.079547317101099,14.932804142702574,14.786060968305236,14.639317793909044,14.492574619514048,14.3458314451202,14.19908827072754,14.052345096336028,13.905601921945706,13.687270866886353,13.421213430283194,13.155155993681239,12.889098557080493,12.623041120480934,12.35698368388258,12.090926247285456,11.824868810689505,11.558811374094777,11.292753937501235,10.948921918993376,10.5632101484762,10.177498377960282,9.79178660744559,9.4060748369321416,9.0203630664199448,8.6346512959089861,8.2489395253992814,7.8632277548907936,7.4775159843835617,7.0083380477113231,6.5033874881555267,5.9984369286009827,5.4934863690477487,4.9885358094957786,4.4835852499451034,3.9786346903957019,3.4736841308475674,2.9687335713007341,2.4637830117551722,1.8700617982686185,1.2467492480399198,0.62343669781253019,0.00012414758645239434,-0.62318840263830344,-1.2465009528617683,-1.8698135030838927,-2.4931260533047128,-3.1164386035242417,-3.7397511537424331,-4.4568230652014122,-5.1973359247520152,-5.93784878430124,-6.6783616438490547,-7.4188745033954762,-8.1593873629404889,-8.89990022248411,-9.6404130820263312,-10.380925941567149,-11.121438801106583,-11.960695718840372,-12.81737915665645,-13.674062594471128,-14.530746032284473,-15.38742947009643,-16.244112907907049,-17.100796345716269,-17.957479783524121,-18.814163221330627,-19.670846659135773,-20.631144082970987,-21.602955260111525,-22.574766437250577,-23.546577614388092,-24.518388791524188,-25.490199968658679,-26.462011145791728,-27.433822322923206,-28.405633500053245,-29.377444677181781,-30.458120674946585,-31.544527483274603,-32.630934291601065,-33.717341099925974,-34.803747908249356,-35.890154716571217,-36.976561524891558,-38.062968333210272,-39.149375141527507,-40.235781949843151,0.22379011017229064,0.22379011017229064,0.22379011017229064,0.22379011017229064,0.22379011017229064,0.22379011017229064,0.22379011017229064,0.22379011017229064,0.22379011017229064,0.22379011017229064,0.22379011017229064,0.22379011017229064
DP 461,53.153020103230475,0.0030181446984050941,-44.292037439483707,-43.370777520148287,-42.449517600811554,-41.528257681473583,-40.606997762134306,-39.685737842793777,-38.764477923451921,-37.843218004108827,-36.921958084764405,-36.000698165418704,-35.080318250067464,-34.176658576993695,-33.272998903918626,-32.369339230842215,-31.465679557764506,-30.56201988468553,-29.658360211605196,-28.754700538523561,-27.851040865440673,-26.947381192356406,-26.047390270231165,-25.180418453524052,-24.31344663681563,-23.446474820105827,-22.579503003394716,-21.712531186682266,-20.8455593699685,-19.978587553253377,-19.11161573653693,-18.244643919819158,-17.385851249726372,-16.573407592586239,-15.760963935444753,-14.948520278301903,-14.136076621157667,-13.323632964012074,-12.511189306865104,-11.698745649716772,-10.886301992567077,-10.073858335416011,-9.2757648134777391,-8.53507251059369,-7.7943802077082518,-7.0536879048214187,-6.3129956019331921,-5.5723032990435515,-4.83161099615253,-4.0909186932601012,-3.3502263903662834,-2.6095340874710682,-1.8908671185656754,-1.2382769843799482,-0.58568685019278488,0.066903283995815854,0.7194934181858571,1.3720835523773323,2.0246736865702482,2.6772638207645989,3.3298539549603832,3.9824440891576121,4.6039935967516259,5.1531137531042663,5.7022339094583883,6.2513540658139881,6.8004742221710739,7.3495943785296385,7.8987145348896837,8.4478346912512183,8.9969548476142229,9.5460750039787179,10.053994307350141,10.485396628200089,10.916798949051563,11.348201269904573,11.779603590759111,12.211005911615176,12.64240823247278,13.0738105533319,13.505212874192566,13.936615195054751,14.315716064053859,14.616363519354961,14.917010974657659,15.217658429961922,15.518305885267784,15.818953340575227,16.119600795884239,16.420248251194838,16.720895706507036,17.0215431618208,17.258052072375282,17.41616808100818,17.574284089642681,17.732400098278841,17.890516106916632,18.048632115556082,18.206748124197169,18.36486413283988,18.522980141484233,18.681096150130259,18.772896685887268,18.777993409194252,18.783090132502927,18.788186855813326,18.79328357912539,18.79838030243921,18.803477025754695,18.808573749071883,18.724441808260341,18.567303063339747,18.410164318420922,18.253025573503876,18.09588682858859,17.93874808367508,17.781609338763339,17.624470593853353,17.467331848945168,17.310193104038738,17.050932997958341,16.723590375652986,16.396247753349492,16.068905131047831,15.741562508748029,15.414219886450038,15.086877264153904,14.759534641859609,14.432192019567173,14.104849397276562,13.662464740397734,13.15813269967434,12.653800658952886,12.149468618233334,11.645136577515711,11.140804536799996,10.636472496086194,10.132140455374346,9.627808414664381,9.1234763739563451,8.4912936309108087,7.804315571748063,7.1173375125872873,6.4303594534285526,5.7433813942717915,5.0564033351170536,4.3694252759643089,3.682447216813546,2.9954691576648047,2.3084910985180622,1.4810450015576573,0.60677445503067262,-0.26749609149424769,-1.1417666380171008,-2.01603718453787,-2.8903077310566019,-3.7645782775732251,-4.6388488240877948,-5.5131193706003208,-6.3873899171107373,-7.4143531390214541,-8.4794913338699729,-9.5446295287162766,-10.609767723560333,-11.674905918402166,-12.740044113241735,-13.805182308079067,-14.870320502914174,-15.935458697747039,-17.000596892577693,-18.230452267855256,-19.489377212537345,-20.748302157217196,-22.007227101894959,-23.266152046570475,-24.525076991243829,-25.784001935915011,-27.04292688058403,-28.301851825250843,-29.5607767699155,-30.9956693446317,-32.450115726317151,-33.904562108000206,-35.359008489680775,-36.813454871358971,-38.267901253034665,-39.722347634708022,-41.176794016378807,-42.631240398047261,-44.085686779713249,-45.727094253764712,-47.378343645498013,-49.029593037228828,-50.6808424289571,-52.332091820682983,-53.983341212406295,-55.634590604127133,-57.285839995845286,-58.9370893875611,-60.588338779274295,0.34858068739916925,0.34858068739916925,0.34858068739916925,0.34858068739916925,0.34858068739916925,0.34858068739916925,0.34858068739916925,0.34858068739916925,0.34858068739916925,0.34858068739916925,0.34858068739916925,0.34858068739916925
DP 462,77.776634871618072,0.0058329190303026491,-109.75016025259985,-107.29782042555475,-104.84548059850601,-102.39314077145379,-99.940800944398148,-97.488461117338829,-95.036121290276185,-92.583781463209917,-90.1314416361402,-87.679101809066964,-85.22938901608687,-82.829590367567064,-80.4297917190437,-78.029993070516781,-75.630194421986374,-73.230395773452443,-70.830597124915016,-68.430798476374036,-66.030999827829532,-63.631201179281526,-61.242294915057016,-58.951421139339423,-56.660547363618392,-54.369673587893878,-52.078799812165812,-49.787926036434342,-47.497052260699348,-45.206178484960844,-42.91530470921888,-40.624430933473484,-38.357636177656687,-36.227290718779237,-34.096945259898213,-31.966599801013661,-29.836254342125528,-27.705908883233832,-25.575563424338533,-23.445217965439678,-21.314872506537281,-19.184527047631306,-17.09594360314534,-15.174410190056625,-13.252876776964376,-11.331343363868548,-9.4098099507691764,-7.4882765376662137,-5.566743124559701,-3.6452097114496116,-1.7236762983359692,0.19785711478123691,2.0562127312014931,3.72503256885869,5.3938524065195068,7.0626722441839451,8.7314920818520054,10.400311919523688,12.069131757198996,13.737951594877906,15.40677143256042,17.075591270246615,18.656906254084245,20.034039799324919,21.411173344569274,22.788306889817306,24.165440435068998,25.54257398032437,26.919707525583423,28.296841070846181,29.6739746161126,31.051108161382679,32.314393029957579,33.36624156719644,34.41809010443901,35.4699386416854,36.521787178935519,37.573635716189365,38.625484253446942,39.677332790708284,40.729181327973357,41.781029865242196,42.691541930413493,43.390045947603546,44.0885499647974,44.787053981995122,45.485557999196665,46.184062016402009,46.882566033611184,47.581070050824195,48.279574068040993,48.978078085261636,49.507415764798772,49.8299910338661,50.152566302937373,50.475141572012561,50.797716841091614,51.120292110174596,51.442867379261514,51.765442648352341,52.088017917447054,52.4105931865457,52.3950144758105,52.324267194161813,52.253519912517092,52.182772630876443,52.112025349239779,52.041278067607067,51.970530785978461,51.899783504353906,51.605750918198879,51.129026518292669,50.652302118390516,50.1755777184925,49.69885331859868,49.222128918708947,48.745404518823314,48.268680118941838,47.791955719064511,47.31523131919127,46.589798737291616,45.698556782666707,44.8073148280461,43.916072873429691,43.024830918817585,42.133588964209707,41.242347009606128,40.351105055006727,39.459863100411617,38.568621145820714,37.404623721590454,36.093754001212531,34.78288428083907,33.472014560470029,32.1611448401054,30.850275119745223,29.539405399389409,28.228535679038067,26.9176659586911,25.606796238348593,24.000493975524197,22.267572779360297,20.534651583200876,18.801730387046089,17.06880919089576,15.335887994750015,13.6029667986088,11.870045602472093,10.137124406339963,8.40420321021236,6.3543178934590516,4.1987738751843029,2.0432298569141985,-0.11231416135125526,-2.267858179612015,-4.42340219786819,-6.5789462161196113,-8.7344902343664117,-10.890034252608626,-13.045578270846102,-15.538542548070581,-18.115865876714693,-20.6931892053539,-23.270512533988093,-25.847835862617348,-28.425159191241576,-31.002482519860862,-33.579805848475175,-36.157129177084478,-38.734452505688907,-41.669499046273067,-44.667677190433814,-47.665855334589629,-50.664033478740748,-53.662211622886836,-56.660389767028235,-59.658567911164624,-62.656746055296225,-65.654924199422965,-68.653102343544859,-72.028541813764733,-75.445903171239152,-78.863264528708356,-82.280625886171933,-85.697987243630422,-89.115348601083326,-92.532709958531044,-95.950071315973219,-99.3674326734102,-102.78479403084171,-106.59978385090484,-110.43570544103427,-114.2716270311582,-118.10754862127658,-121.94347021138942,-125.7793918014972,-129.6153133915991,-133.45123498169553,-137.28715657178654,-141.12307816187177,0.7935578690347983,0.7935578690347983,0.7935578690347983,0.7935578690347983,0.7935578690347983,0.7935578690347983,0.7935578690347983,0.7935578690347983,0.7935578690347983,0.7935578690347983,0.7935578690347983,0.7935578690347983
DP 463,197.35167027703019,0.0032608886703326032,-125.0298384455799,-121.73408539025604,-118.43833233492963,-115.14257927960058,-111.84682622426894,-108.55107316893462,-105.25532011359773,-101.9595670582582,-98.663814002916212,-95.368060947571522,-92.0778474487362,-88.8928865708504,-85.707925692962036,-82.522964815071077,-79.338003937177675,-76.153043059281472,-72.968082181382769,-69.783121303481536,-66.59816042557766,-63.413199547671141,-60.250644324061042,-57.289742106960112,-54.328839889856653,-51.36793767275072,-48.407035455642244,-45.446133238531289,-42.485231021417832,-39.52432880430181,-36.563426587183315,-33.602524370062341,-30.689364510850503,-28.046747688263252,-25.404130865673455,-22.761514043081103,-20.118897220486193,-17.47628039788874,-14.833663575288696,-12.191046752686114,-9.5484299300809816,-6.9058131074733,-4.3418899840087057,-2.0927453762518953,0.15639923150740936,2.4055438392692361,4.6546884470335517,6.903833054800403,9.1529776625697483,11.402122270341618,13.651266878115983,15.900411485892873,18.037931505649528,19.8405735409693,21.643215576291578,23.44585761161639,25.248499646943721,27.051141682273546,28.853783717605921,30.656425752940816,32.459067788278205,34.261709823618091,35.921319825069951,37.247182780946524,38.573045736825669,39.89890869270733,41.224771648591492,42.550634604478162,43.876497560367412,45.202360516259155,46.528223472153485,47.854086428050287,49.0100347660029,49.850422796176211,50.690810826352113,51.531198856530494,52.371586886711462,53.21197491689496,54.052362947080972,54.892750977269564,55.733139007460672,56.573527037654287,57.223751749824,57.588726991327007,57.953702232832569,58.31867747434066,58.683652715851359,59.048627957364538,59.413603198880338,59.778578440398711,60.1435536819196,60.508528923443087,60.670837524146755,60.58543819577033,60.50003886739642,60.414639539025146,60.3292402106564,60.243840882290264,60.158441553926728,60.073042225565814,59.987642897207444,59.902243568851695,58.609554873539807,58.109558477331468,57.609562081125823,57.10956568492275,56.609569288722327,56.109572892524461,55.609576496329339,55.109580100136732,54.404839253024171,53.532576700115378,52.660314147209263,51.788051594305806,50.915789041405027,50.043526488506913,49.171263935611478,48.299001382718735,47.426738829828615,46.55447627694123,45.485914055088827,44.286482294839672,43.087050534593232,41.887618774349519,40.688187014108578,39.488755253870238,38.289323493634718,37.089891733401863,35.890459973171808,34.69102821294436,33.30799006930696,31.826084280029018,30.344178490753926,28.862272701481569,27.380366912211983,25.898461122945236,24.416555333681231,22.934649544420047,21.452743755161592,19.970837965905961,18.320488795590716,16.597946761690171,14.875404727792381,13.152862693897559,11.430320660005497,9.7077786261163332,7.9852365922300077,6.2626945583464959,4.540152524465868,2.81761049058808,0.94246018472440318,-0.98356146843085457,-2.9095831215832209,-4.8356047747326878,-6.76162642787922,-8.687648081022914,-10.613669734163626,-12.539691387301465,-14.465713040436462,-16.391734693568456,-18.455389459842468,-20.553454130557764,-22.651518801270083,-24.749583471979303,-26.847648142685482,-28.945712813388564,-31.043777484088597,-33.141842154785571,-35.23990682547948,-37.33797149617039,-39.561332901891241,-41.806806889463296,-44.052280877032352,-46.29775486459851,-48.543228852161583,-50.78870283972168,-53.034176827278749,-55.279650814832877,-57.525124802383992,-59.770598789932109,-62.132477219695062,-64.5072906988901,-66.8821041780819,-69.256917657270463,-71.6317311364559,-74.00654461563785,-76.3813580948168,-78.756171573992233,-81.13098505316465,-83.505798532333671,-85.993414889151964,-88.486969361872426,-90.980523834589647,-93.474078307303415,-95.967632780014,-98.461187252721274,-100.95474172542521,-103.44829619812576,-105.94185067082306,-108.43540514351703,0.49200725670360662,0.49200725670360662,0.49200725670360662,0.49200725670360662,0.49200725670360662,0.49200725670360662,0.49200725670360662,0.49200725670360662,0.49200725670360662,0.49200725670360662,0.49200725670360662,0.49200725670360662
DP 464,222.12167407695773,0.0039348015048729923,-164.72285733940066,-160.28846357350588,-155.85406980760806,-151.41967604170725,-146.98528227580294,-142.55088850989597,-138.11649474398553,-133.6821009780721,-129.24770721215546,-124.81331344623564,-120.38689086971608,-116.11192239876607,-111.83695392781301,-107.56198545685658,-103.28701698589715,-99.012048514934733,-94.7370800439691,-90.462111573000428,-86.187143102028529,-81.91217463105356,-77.66930414622081,-73.715318570651348,-69.761332995078774,-65.807347419503216,-61.8533618439246,-57.899376268342976,-53.945390692758345,-49.991405117170686,-46.03741954158,-42.083433965986274,-38.197377755670161,-34.696258895809457,-31.195140035945691,-27.69402117607882,-24.192902316208912,-20.691783456335909,-17.19066459645979,-13.689545736580616,-10.188426876698369,-6.6873080168130565,-3.2970939092536056,-0.35050405245501692,2.5960858043465773,5.54267566115121,8.489265517958831,11.435855374769513,14.382445231583205,17.32903508839992,20.275624945219636,23.222214802042409,26.013353878470507,28.338134736329753,30.662915594192018,32.987696452057321,35.312477309925661,37.637258167797008,39.962039025671437,42.286819883548858,44.611600741429307,46.936381599312774,49.064801029054991,50.735036059640272,52.405271090228638,54.075506120820037,55.745741151414478,57.415976182011924,59.08621121261244,60.75644624321594,62.426681273822545,64.096916304432156,65.537698503746327,66.552347819731224,67.5669971357192,68.5816464517101,69.596295767704177,70.610945083701282,71.6255943997014,72.640243715704614,73.65489303171087,74.669542347720125,75.432121155497882,75.816588244407527,76.201055333320156,76.5855224222359,76.969989511154708,77.354456600076617,77.738923689001581,78.1233907779296,78.507857866860675,78.892324955794862,79.013607388154355,78.81321415656609,78.612820924980738,78.412427693398627,78.212034461819485,78.0116412302435,77.811247998670737,77.610854767101046,77.410461535534424,77.210068303970914,75.29275463646195,74.565906820560514,73.839059004662275,73.112211188767148,72.3853633728751,71.658515556986288,70.931667741100568,70.204819925218061,69.2242313624561,68.036032373349286,66.847833384245632,65.659634395145275,64.471435406048059,63.283236416954033,62.09503742786319,60.906838438775623,59.718639449691167,58.530440460609988,57.105262937127776,55.522095990787584,53.938929044450639,52.355762098116877,50.772595151786376,49.189428205459166,47.606261259135238,46.023094312814514,44.439927366497123,42.856760420182923,41.058110586622334,39.143428372584573,37.228746158550216,35.314063944519148,33.399381730491378,31.484699516466982,29.570017302445876,27.655335088428163,25.740652874413705,23.825970660402632,21.719517726602479,19.530874104594091,17.342230482588995,15.153586860587438,12.9649432385892,10.776299616594429,8.587655994603054,6.3990123726150188,4.2103687506304563,2.0217251286492792,-0.33509928830905544,-2.7479860898137596,-5.160872891315007,-7.5737596928127919,-9.9866464943070667,-12.399533295797962,-14.812420097285276,-17.225306898769166,-19.638193700249641,-22.051080501726574,-24.610527710204497,-27.206616752065486,-29.80270579392289,-32.398794835776606,-34.9948838776267,-37.590972919473096,-40.187061961315806,-42.7831510031549,-45.379240044990333,-47.975329086822192,-50.700334705871654,-53.44809174270538,-56.195848779535467,-58.943605816362087,-61.691362853185012,-64.43911989000442,-67.1868769268202,-69.934633963632422,-72.682391000441044,-75.430148037246184,-78.293945983986163,-81.170638583864118,-84.047331183738279,-86.9240237836086,-89.800716383474921,-92.677408983337386,-95.554101583196072,-98.430794183050779,-101.30748678290169,-104.18417938274857,-107.17081224091773,-110.16323252233123,-113.15565280374098,-116.14807308514668,-119.14049336654847,-122.13291364794634,-125.12533392934027,-128.11775421073017,-131.11017449211624,-134.10259477349814,0.58714282324218758,0.58714282324218758,0.58714282324218758,0.58714282324218758,0.58714282324218758,0.58714282324218758,0.58714282324218758,0.58714282324218758,0.58714282324218758,0.58714282324218758,0.58714282324218758,0.58714282324218758
DP 465,135.31865230309012,0.0047111517133924937,-134.48709548496217,-131.16758779149453,-127.84808009802315,-124.52857240454843,-121.20906471106994,-117.88955701758786,-114.57004932410229,-111.25054163061306,-107.93103393712025,-104.61152624362401,-101.29659251282139,-98.068564937949645,-94.840537363074318,-91.61250978819541,-88.384482213312978,-85.156454638426965,-81.928427063537356,-78.700399488644081,-75.47237191374731,-72.244344338847029,-69.035035473355478,-65.994196761897982,-62.95335805043694,-59.912519338972444,-56.871680627504396,-53.830841916032938,-50.790003204557948,-47.749164493079505,-44.708325781597573,-41.667487070112116,-38.667247596396756,-35.89707302840182,-33.126898460403318,-30.356723892401302,-27.586549324395722,-24.816374756386558,-22.04620018837387,-19.276025620357597,-16.505851052337793,-13.73567648431443,-11.034093634144934,-8.6068808971015862,-6.1796681600547538,-3.7524554230043914,-1.3252426859505511,1.1019700511068253,3.5291827881676952,5.95639552523208,8.38360826229996,10.81082099937135,13.137664191395318,15.163394953436391,17.189125715480987,19.214856477529132,21.240587239580769,23.266318001635959,25.292048763694694,27.317779525756936,29.343510287822706,31.369241049892,33.261449955365464,34.842102603496336,36.42275525163079,38.003407899768746,39.5840605479103,41.164713196055374,42.745365844204031,44.3260184923562,45.906671140511939,47.487323788671233,48.902280084264696,50.009510107413881,51.116740130566718,52.223970153723116,53.331200176883094,54.438430200046675,55.545660223213808,56.652890246384558,57.760120269558904,58.867350292736781,59.7796968279835,60.399713526162742,61.019730224345629,61.639746922532112,62.259763620722239,62.879780318915969,63.499797017113288,64.119813715314265,64.7398304135189,65.359847111727191,65.760309109933544,65.892421863107373,66.024534616284768,66.1566473694658,66.288760122650615,66.420872875839066,66.552985629031085,66.685098382226911,66.817211135426376,66.9493238886295,66.151754028795125,65.80630263143415,65.460851234076884,65.115399836723356,64.76994843937355,64.424497042027568,64.079045644685266,63.733594247346659,63.135917203047747,62.331869385648567,61.527821568253309,60.723773750861831,59.919725933474147,59.11567811609028,58.311630298710256,57.507582481333991,56.703534663961634,55.89948684659295,54.835288693925044,53.59765288609514,52.360017078269145,51.122381270447015,49.884745462628828,48.647109654814457,47.409473847004087,46.17183803919756,44.93420223139492,43.696566423596174,42.19562965709018,40.5529116224235,38.910193587760851,37.26747555310218,35.624757518447481,33.982039483796846,32.33932144915012,30.696603414507511,29.05388537986877,27.411167345234091,25.505635465979406,23.487464645891766,21.469293825808172,19.45112300572875,17.432952185653381,15.414781365582147,13.396610545515028,11.378439725451944,9.3602689053930117,7.3420980853381721,5.063764491908576,2.6987066952327141,0.33364889856102814,-2.0314088981064811,-4.3964666947697557,-6.7615244914289363,-9.12658228808382,-11.491640084734554,-13.856697881381162,-16.221755678023506,-18.843583769791227,-21.529607469120755,-24.215631168445906,-26.901654867766595,-29.587678567082886,-32.273702266394693,-34.959725965702049,-37.64574966500502,-40.331773364303515,-43.017797063597669,-45.958566449482063,-48.944293789337138,-51.9300211291877,-54.91574846903417,-57.901475808876143,-60.887203148713851,-63.872930488547183,-66.858657828376252,-69.844385168200944,-72.830112508021259,-76.0707642954911,-79.339743698894665,-82.6087231022936,-85.877702505687722,-89.14668190907733,-92.4156613124619,-95.684640715842022,-98.9536201192171,-102.22259952258793,-105.49157892595369,-109.02039900314962,-112.56289749059316,-116.10539597803199,-119.64789446546592,-123.190392952895,-126.73289144031939,-130.27538992773876,-133.81788841515336,-137.36038690256319,-140.90288538996805,0.71274895049199694,0.71274895049199694,0.71274895049199694,0.71274895049199694,0.71274895049199694,0.71274895049199694,0.71274895049199694,0.71274895049199694,0.71274895049199694,0.71274895049199694,0.71274895049199694,0.71274895049199694
DP 466,81.366636068448912,0.0037576093115304749,-72.959057319611119,-71.315261711900533,-69.671466104187516,-68.027670496472268,-66.383874888754647,-64.740079281034681,-63.096283673312413,-61.452488065587808,-59.808692457860872,-58.164896850131647,-56.522893661209281,-54.914946768506994,-53.306999875802418,-51.699052983095555,-50.091106090386312,-48.483159197674752,-46.875212304960876,-45.267265412244662,-43.659318519526082,-42.0513716268052,-40.45085015123567,-38.917158131910632,-37.383466112583285,-35.849774093253636,-34.316082073921649,-32.782390054587388,-31.248698035250815,-29.715006015911928,-28.181313996570733,-26.647621977227264,-25.130321787327709,-23.705909663877648,-22.281497540425207,-20.857085416970406,-19.432673293513258,-18.008261170053746,-16.583849046591858,-15.159436923127608,-13.735024799661016,-12.310612676192065,-10.914582687976676,-9.6320825821452676,-8.3495824763115341,-7.0670823704754318,-5.7845822646369829,-4.5020821587961724,-3.2195820529530166,-1.9370819471075016,-0.65458184125964192,0.627918264590571,1.8675812008022961,2.9787310084797394,4.0898808161595746,5.2010306238417892,6.3121804315263956,7.4233302392133869,8.5344800469027629,9.6456298545945245,10.756779662288668,11.86792946998521,12.919905464517417,13.833806897836128,14.747708331157259,15.661609764480831,16.5755111978068,17.489412631135195,18.403314064466027,19.317215497799257,20.231116931134942,21.145018364473032,21.982173137074035,22.676796324244467,23.371419511417365,24.066042698592732,24.760665885770567,25.455289072950869,26.149912260133611,26.844535447318851,27.539158634506528,28.233781821696677,28.8334676794476,29.29074529963431,29.748022919823448,30.205300540015173,30.662578160209396,31.119855780406116,31.577133400605341,32.034411020807113,32.491688641011393,32.948966261218182,33.293057848975685,33.498808575181251,33.704559301389388,33.910310027600111,34.116060753813372,34.32181148002924,34.527562206247659,34.733312932468635,34.93906365869222,35.144814384918334,35.106943006759714,35.050643814873162,34.994344622989281,34.93804543110798,34.881746239229322,34.825447047353315,34.769147855479943,34.712848663609215,34.508451529806749,34.182880807436725,33.857310085069436,33.531739362704819,33.206168640342909,32.880597917983692,32.555027195627254,32.229456473273473,31.903885750922374,31.578315028574032,31.088548081759544,30.489314398624856,29.890080715492971,29.290847032363811,28.691613349237503,28.09237966611396,27.4931459829932,26.89391229987519,26.29467861676002,25.695444933647575,24.916982018990726,24.042008450272522,23.167034881557196,22.292061312844734,21.417087744135156,20.542114175428431,19.667140606724587,18.792167038023642,17.917193469325532,17.042219900630304,15.973999306520788,14.822955296874873,13.671911287231875,12.520867277591902,11.369823267954862,10.218779258320813,9.0677352486897167,7.916691239061568,6.7656472294364187,5.6146032198142244,4.2571224537232553,2.8308268337878615,1.4045312138555,-0.021764406073824228,-1.4480600260000813,-2.8743556459233459,-4.3006512658435074,-5.7269468857606425,-7.15324250567478,-8.5795381255858363,-10.224744548413618,-11.924681258435777,-13.624617968454732,-15.324554678470419,-17.02449138848289,-18.724428098492073,-20.42436480849803,-22.124301518500722,-23.824238228500196,-25.524174938496444,-27.455440540547158,-29.427531460664767,-31.399622380779167,-33.371713300890477,-35.343804220998543,-37.3158951411035,-39.28798606120521,-41.260076981303804,-43.232167901399208,-45.204258821491464,-47.419710015509771,-49.6622037958203,-51.904697576127482,-54.147191356431016,-56.389685136731188,-58.632178917027751,-60.874672697320875,-63.117166477610446,-65.359660257896664,-67.602154038179279,-70.100752044524924,-72.6128317687977,-75.124911493066932,-77.6369912173325,-80.149070941594559,-82.661150665853143,-85.173230390108017,-87.685310114359226,-90.197389838607023,-92.709469562851112,0.51854336748950969,0.51854336748950969,0.51854336748950969,0.51854336748950969,0.51854336748950969,0.51854336748950969,0.51854336748950969,0.51854336748950969,0.51854336748950969,0.51854336748950969,0.51854336748950969,0.51854336748950969
DP 467,52.7182366920166,0.0039019707418666023,-56.9670156963846,-55.784046182200981,-54.601076668015736,-53.418107153828913,-52.235137639640421,-51.052168125450194,-49.869198611258362,-48.6862290970649,-47.503259582869738,-46.320290068672954,-45.138448533119352,-43.97803880505294,-42.817629076984858,-41.657219348915113,-40.496809620843671,-39.336399892770572,-38.17599016469584,-37.0155804366194,-35.855170708541294,-34.69476098046146,-33.539054331238482,-32.425675836283212,-31.312297341326204,-30.19891884636754,-29.085540351407161,-27.972161856445066,-26.858783361481237,-25.745404866515717,-24.632026371548488,-23.518647876579561,-22.41575680483119,-21.372295125533856,-20.328833446234754,-19.285371766933913,-18.241910087631322,-17.198448408326954,-16.154986729020827,-15.111525049712965,-14.068063370403344,-13.024601691091965,-11.999541443576529,-11.048087792916633,-10.09663414225496,-9.1451804915914821,-8.1937268409262209,-7.24227319025916,-6.2908195395903226,-5.3393658889196765,-4.3879122382472486,-3.4364585875730285,-2.5132551999001445,-1.674803669338184,-0.83635213877438186,0.0020993917912664538,0.84055092235876228,1.6790024529281014,2.517453983499284,3.3559055140723166,4.1943570446471785,5.0328085752239025,5.8314356415282589,6.537137389421912,7.2428391373174748,7.9485408852149346,8.6542426331143023,9.3599443810155734,10.065646128918747,10.771347876823823,11.4770496247308,12.182751372639675,12.835577600929934,13.390205007677483,13.94483241442698,14.499459821178462,15.054087227931898,15.608714634687294,16.163342041444668,16.717969448203995,17.2725968549653,17.82722426172856,18.3147078833794,18.701474240728164,19.088240598078944,19.475006955431773,19.861773312786646,20.248539670143547,20.63530602750248,21.022072384863431,21.40883874222644,21.795605099591466,22.100007171723451,22.303740054082741,22.507472936444138,22.711205818807638,22.91493870117327,23.118671583540973,23.322404465910825,23.526137348282766,23.729870230656822,23.933603113032976,24.053330753795755,24.060474861995505,24.067618970197479,24.074763078401606,24.081907186607978,24.089051294816507,24.096195403027217,24.103339511240137,23.995811624316055,23.79445922519621,23.59310682607865,23.391754426963352,23.190402027850325,22.9890496287396,22.787697229631121,22.586344830524951,22.384992431421058,22.183640032319406,21.850995085784682,21.430819705968691,21.010644326155063,20.590468946343815,20.17029356653493,19.750118186728418,19.329942806924294,18.90976742712251,18.489592047323118,18.069416667526102,17.501285818006338,16.853484487104478,16.20568315620509,15.557881825308149,14.910080494413675,14.262279163521653,13.614477832632058,12.96667650174496,12.318875170860284,11.671073839978076,10.858785692999538,9.9760004199168222,9.0932151468366218,8.2104298737590629,7.3276446006840423,6.4448593276116162,5.5620740545417648,4.679288781474467,3.7965035084097738,2.913718235347647,1.8501586269794958,0.72633862857373,-0.39748136982937632,-1.5213013682298242,-2.645121366627587,-3.7689413650227306,-4.89276136341516,-6.0165813618049411,-7.1404013601920964,-8.2642213585765383,-9.58459935141455,-10.954119165229248,-12.323638979041107,-13.69315879285006,-15.06267860665614,-16.432198420459319,-17.801718234259614,-19.171238048057031,-20.540757861851549,-21.910277675643265,-23.491882140588032,-25.110915667089138,-26.729949193587373,-28.348982720082887,-29.96801624657552,-31.587049773065377,-33.206083299552425,-34.825116826036691,-36.444150352518093,-38.063183878996739,-39.90882176417243,-41.779640291305128,-43.650458818434707,-45.52127734556111,-47.392095872684486,-49.262914399804608,-51.133732926921674,-53.004551454035507,-54.875369981146292,-56.746188508253937,-58.857796348324115,-60.98207970588625,-63.106363063445265,-65.230646421001055,-67.354929778553554,-69.479213136103056,-71.603496493649175,-73.727779851192054,-75.852063208731835,-77.976346566268234,0.44866470813764686,0.44866470813764686,0.44866470813764686,0.44866470813764686,0.44866470813764686,0.44866470813764686,0.44866470813764686,0.44866470813764686,0.44866470813764686,0.44866470813764686,0.44866470813764686,0.44866470813764686
DP 468,291.87976227344478,0.003785938467905944,-191.44127905410511,-186.01733340325498,-180.59338775240212,-175.16944210154603,-169.74549645068711,-164.3215507998253,-158.89760514896051,-153.47365949809262,-148.04971384722185,-142.62576819634822,-137.21333406787346,-132.01962104122606,-126.82590801457569,-121.63219498792239,-116.43848196126619,-111.24476893460704,-106.05105590794493,-100.85734288127986,-95.6636298546119,-90.469916827940892,-85.322006857333221,-80.58632872070379,-75.850650584071531,-71.114972447436372,-66.379294310798372,-61.643616174157572,-56.907938037513873,-52.17225990086731,-47.436581764217934,-42.700903627565715,-38.060317912319427,-33.95859524392197,-29.856872575521631,-25.755149907118344,-21.653427238712197,-17.551704570303158,-13.449981901891201,-9.3482592334763481,-5.2465365650586326,-1.1448138966380201,2.8056988097751621,6.15136452184502,9.497030233917684,12.842695945993196,16.188361658071546,19.534027370152749,22.879693082236752,26.225358794323625,29.571024506413337,32.916690218505828,36.057300010663873,38.582734290132194,41.10816856960335,43.633602849077356,46.159037128554196,48.684471408033872,51.209905687516411,53.73533996700175,56.260774246489994,58.786208525980982,61.06260933501698,62.757922238393895,64.453235141773632,66.1485480451563,67.843860948541732,69.539173851930059,71.234486755321228,72.929799658715183,74.625112562112008,76.320425465511718,77.737566567153365,78.638095381752834,79.53862419635513,80.439153010960212,81.33968182556815,82.240210640178972,83.140739454792637,84.041268269409088,84.94179708402848,85.842325898650714,86.4522763063847,86.626352237309547,86.800428168237389,86.974504099167973,87.148580030101556,87.322655961037853,87.496731891977021,87.670807822919116,87.8448837538642,88.018959684811975,87.9059500663111,87.442052079427924,86.978154092547584,86.5142561056702,86.050358118795657,85.5864601319241,85.1225621450554,84.65866415818958,84.194766171326634,83.730868184466658,80.986772604304292,79.981912946976081,78.977053289650769,77.972193632328441,76.967333975009,75.962474317692539,74.957614660378965,73.952755003068333,72.703331977715152,71.253807448239684,69.804282918767214,68.354758389297686,66.905233859831156,65.45570933036764,64.006184800907093,62.556660271449509,61.107135741994853,59.657611212543173,57.994749770624729,56.189660359577609,54.384570948533543,52.579481537492434,50.774392126454423,48.969302715419339,47.16421330438741,45.359123893358394,43.55403448233244,41.748945071309493,39.763469951533708,37.680861442382543,35.598252933234519,33.515644424089515,31.433035914947578,29.35042740580873,27.267818896672942,25.18521038754028,23.102601878410617,21.019993369284048,18.78883165176369,16.494001766094346,14.199171880428052,11.904341994765019,9.609512109105081,7.31468222344834,5.0198523377947577,2.7250224521442719,0.43019256649700494,-1.8646373191471255,-4.2793680637800371,-6.7340672724988675,-9.188766481214504,-11.643465689926936,-14.098164898636101,-16.552864107342145,-19.007563316044873,-21.462262524744407,-23.916961733440822,-26.371660942133936,-28.921962784325935,-31.496166414451142,-34.070370044573018,-36.6445736746915,-39.218777304806615,-41.792980934918276,-44.367184565026605,-46.941388195131509,-49.5155918252331,-52.089795455331341,-54.740720642594127,-57.405185781332932,-60.069650920068376,-62.734116058800694,-65.398581197529552,-68.063046336255141,-70.727511474977419,-73.391976613696343,-76.056441752411985,-78.720906891124358,-81.448528539623652,-84.183168241388955,-86.9178079431507,-89.652447644908818,-92.387087346663463,-95.1217270484144,-97.8563667501618,-100.59100645190563,-103.32564615364599,-106.06028585538255,-108.85087923974638,-111.64441811148868,-114.43795698322749,-117.23149585496252,-120.02503472669396,-122.81857359842174,-125.61211247014597,-128.40565134186633,-131.19919021358322,-133.99272908529639,0.54218508035977764,0.54218508035977764,0.54218508035977764,0.54218508035977764,0.54218508035977764,0.54218508035977764,0.54218508035977764,0.54218508035977764,0.54218508035977764,0.54218508035977764,0.54218508035977764,0.54218508035977764
DP 469,137.86962442379686,0.0027977523676724217,-81.057650058599847,-79.050386689492029,-77.043123320382023,-75.035859951269913,-73.028596582155629,-71.021333213039256,-69.0140698439207,-67.006806474799973,-64.999543105677219,-62.992279736552213,-60.9878080693258,-59.03637926596712,-57.084950462606258,-55.133521659243293,-53.182092855878167,-51.230664052510974,-49.279235249141543,-47.327806445770094,-45.3763776423964,-43.424948839020686,-41.484939706314229,-39.647708689056159,-37.810477671796043,-35.9732466545338,-34.136015637269544,-32.298784620003183,-30.461553602734742,-28.6243225854642,-26.787091568191638,-24.949860550916966,-23.137379101227943,-21.465146760782364,-19.792914420334672,-18.120682079884855,-16.448449739432917,-14.776217398978869,-13.10398505852271,-11.431752718064404,-9.759520377603998,-8.087288037141473,-6.4568252831987376,-4.993442849405902,-3.5300604156109863,-2.0666779818139736,-0.60329554801488594,0.86008688578630665,2.323469319589583,3.7868517533949526,5.2502341872024072,6.713616621011945,8.11596121986377,9.3351900060821649,10.554418792302668,11.773647578525267,12.992876364749991,14.212105150976802,15.431333937205697,16.650562723436728,17.869791509669835,19.089020295905065,20.227180897731159,21.176179209816777,22.125177521904487,23.074175833994335,24.023174146086244,24.972172458180321,25.921170770276508,26.870169082374808,27.819167394475226,28.768165706577737,29.61675240761215,30.278857690645442,30.940962973680854,31.603068256718405,32.265173539758088,32.927278822799892,33.589384105843841,34.2514893888899,34.913594671938121,35.575699954988487,36.11996389542508,36.487463037305538,36.854962179188142,37.222461321072885,37.589960462959809,37.957459604848886,38.32495874674008,38.692457888633506,39.059957030529041,39.427456172426744,39.662521641249768,39.735720950130833,39.808920259014123,39.882119567899537,39.955318876787139,40.028518185676994,40.101717494568952,40.174916803463155,40.248116112359583,40.321315421258141,39.822723126883183,39.608645804286077,39.394568481691216,39.180491159098594,38.966413836508174,38.752336513919985,38.538259191333992,38.32418186875028,37.958832399783269,37.469712211328122,36.98059202287525,36.491471834424665,36.002351645976312,35.51323145753026,35.02411126908644,34.534991080644915,34.045870892205677,33.556750703768671,32.912114163470008,32.163797605326252,31.41548104718477,30.667164489045625,29.918847930908818,29.170531372774271,28.422214814642135,27.673898256512231,26.925581698384679,26.177265140259447,25.272097935079039,24.282470408293712,23.292842881510786,22.303215354730195,21.313587827952,20.323960301176182,19.334332774402725,18.34470524763168,17.355077720862976,16.365450194096653,15.219838462704629,14.007373725067374,12.794908987432489,11.58244424980013,10.369979512170158,9.15751477454265,7.9450500369175812,6.732585299294918,5.5201205616747195,4.3076558240569556,2.941363188612617,1.5237926485587656,0.10622210850739755,-1.3113484315414841,-2.728918971587853,-4.1464895116317821,-5.5640600516731569,-6.9816305917120669,-8.3992011317485336,-9.8167716717824423,-11.385600636535679,-12.992245994610244,-14.598891352682205,-16.205536710751524,-17.812182068818224,-19.41882742688226,-21.025472784943673,-22.63211814300243,-24.23876350105855,-25.845408859112087,-27.601609165799577,-29.384203185317944,-31.166797204833685,-32.949391224346918,-34.7319852438575,-36.514579263365583,-38.297173282871029,-40.079767302373931,-41.862361321874261,-43.644955341372025,-45.576789676339494,-47.525207835955577,-49.473625995568909,-51.422044155179329,-53.370462314787083,-55.318880474391875,-57.267298633994,-59.215716793593181,-61.164134953189667,-63.112553112783289,-65.212808752547062,-67.321057349356764,-69.429305946163666,-71.537554542967683,-73.645803139768773,-75.754051736567078,-77.862300333362526,-79.97054893015499,-82.078797526944683,-84.187046123731363,0.42376289260555017,0.42376289260555017,0.42376289260555017,0.42376289260555017,0.42376289260555017,0.42376289260555017,0.42376289260555017,0.42376289260555017,0.42376289260555017,0.42376289260555017,0.42376289260555017,0.42376289260555017
DP 470,282.19445398259825,0.0049126476384762337,-242.96922287173618,-236.13037439290679,-229.29152591407396,-222.45267743523689,-215.61382895639619,-208.77498047755137,-201.93613199870273,-195.09728351985046,-188.25843504099402,-181.41958656213387,-174.5949447892271,-168.04023311520589,-161.48552144118102,-154.93080976715231,-148.37609809311965,-141.8213864190831,-135.26667474504293,-128.71196307099888,-122.15725139695087,-115.60253972289912,-109.10445031826775,-103.11596669048672,-97.127483062701856,-91.138999434913444,-85.150515807121224,-79.162032179325337,-73.1735485515257,-67.185064923722351,-61.196581295915323,-55.208097668104621,-49.337479248181083,-44.134771100186526,-38.932062952188247,-33.72935480418613,-28.526646656180329,-23.323938508170695,-18.121230360157313,-12.918522212140129,-7.7158140641192192,-2.5131059160945366,2.5014977100297577,6.7636743585695251,11.025851007112975,15.288027655660136,19.550204304210961,23.812380952765512,28.074557601323761,32.336734249885708,36.598910898451351,40.861087547020674,44.867010606489288,48.104163210054757,51.341315813623957,54.578468417196831,57.815621020773357,61.052773624353634,64.28992622793767,67.52707883152533,70.764231435116713,74.001384038711848,76.9256431682991,79.119805202209761,81.313967236124057,83.50812927004209,85.702291303963847,87.896453337889241,90.09061537181843,92.284777405751257,94.478939439687878,96.673101473628151,98.515596712674409,99.7049869783235,100.89437724397624,102.08376750963274,103.27315777529294,104.46254804095685,105.65193830662456,106.84132857229585,108.03071883797095,109.22010910364976,110.0396180328673,110.30429621695809,110.5689744010529,110.8336525851513,111.09833076925348,111.36300895335934,111.62768713746885,111.89236532158236,112.15704350569943,112.42172168982025,112.31821757444672,111.76470513721614,111.21119269998923,110.65768026276626,110.10416782554695,109.55065538833146,108.99714295111976,108.44363051391173,107.89011807670757,107.33660563950725,103.92759872644896,102.67469712653873,101.42179552663248,100.16889392672981,98.915992326831045,97.66309072693619,96.410189127045044,95.157287527157933,93.585473316958058,91.752725126670484,89.919976936386732,88.087228746106987,86.254480555830924,84.421732365558853,82.588984175290619,80.756235985026308,78.923487794765876,77.0907396045093,74.977256451095172,72.676612232998863,70.375968014906476,68.075323796818,65.774679578733469,63.474035360652877,61.173391142576357,58.872746924503616,56.57210270643494,54.271458488370158,51.73114885917677,49.06178513883664,46.392421418500611,43.723057698168518,41.053693977840453,38.384330257516396,35.714966537196254,33.0456028168803,30.376239096568227,27.7068753762602,24.838118699388037,21.883904532748588,18.929690366113118,15.975476199481928,13.021262032854732,10.067047866231743,7.1128336996128665,4.1586195329980269,1.2044053663873913,-1.7498088002191516,-4.8667138722432526,-8.0378512964384878,-11.208988720629545,-14.380126144816424,-17.551263568999047,-20.72240099317759,-23.893538417351806,-27.064675841521847,-30.235813265687813,-33.406950689849445,-36.709330908383393,-40.044523376162395,-43.379715843937127,-46.714908311707354,-50.050100779473283,-53.385293247234635,-56.720485714991639,-60.055678182744266,-63.390870650492424,-66.7260631182363,-70.167870873957924,-73.628494277838854,-77.089117681715337,-80.54974108558774,-84.010364489455611,-87.470987893319275,-90.931611297178549,-94.3922347010335,-97.8528581048842,-101.31348150873063,-104.86295339203679,-108.42229826173147,-111.98164313142159,-115.54098800110697,-119.10033287078772,-122.65967774046374,-126.2190226101352,-129.77836747980169,-133.33771234946389,-136.89705721912114,-140.53586743121082,-144.17886082038885,-147.82185420956247,-151.4648475987311,-155.10784098789503,-158.75083437705445,-162.39382776620883,-166.03682115535838,-169.67981454450336,-173.3228079336435,0.70787434290492335,0.70787434290492335,0.70787434290492335,0.70787434290492335,0.70787434290492335,0.70787434290492335,0.70787434290492335,0.70787434290492335,0.70787434290492335,0.70787434290492335,0.70787434290492335,0.70787434290492335
DP 471,154.20176678367142,0.0038882846955428916,-123.1040862634684,-119.99563265467134,-116.88717904587158,-113.77872543706845,-110.67027182826244,-107.56181821945344,-104.45336461064134,-101.34491100182613,-98.236457393007967,-95.1280037841867,-92.024127573229464,-89.007222787074539,-85.990318000916574,-82.9734132147555,-79.956508428591434,-76.939603642424458,-73.922698856254314,-70.905794070081214,-67.888889283905087,-64.87198449772589,-61.873743264610432,-59.0434757732037,-56.213208281793996,-53.38294079038139,-50.552673298965871,-47.722405807547361,-44.89213831612593,-42.061870824701543,-39.231603333274258,-36.401335841844023,-33.611324166409204,-31.04943131832907,-28.48753847024593,-25.92564562215982,-23.363752774070726,-20.801859925978604,-18.239967077883485,-15.678074229785366,-13.116181381684262,-10.55428853358017,-8.059884172998327,-5.8354369520749252,-3.6109897311485892,-1.386542510219287,0.83790471071294725,3.0623519316481529,5.2867991525862994,7.511246373527408,9.73569359447145,11.960140815418445,14.086793481360049,15.920058784802718,17.753324088248327,19.586589391696926,21.41985469514848,23.253119998603008,25.086385302060503,26.91965060552096,28.752915908984367,30.586181212450768,32.290874995551164,33.695563500808156,35.100252006068153,36.504940511331114,37.909629016597073,39.314317521865945,40.719006027137873,42.123694532412784,43.528383037690631,44.933071542971447,46.180397073522123,47.135472829804748,48.090548586090428,49.045624342379021,50.00070009867067,50.955775854965346,51.910851611262991,52.865927367563636,53.821003123867328,54.776078880174,55.54897339472155,56.048591741618758,56.548210088519049,57.047828435422396,57.547446782328777,58.047065129238085,58.546683476150505,59.046301823065974,59.545920169984434,60.04553851690595,60.3435233172104,60.395062880826593,60.446602444445858,60.498142008068179,60.549681571693569,60.601221135322085,60.652760698953657,60.704300262588276,60.755839826226016,60.807379389866782,59.886945091359571,59.508462646315145,59.129980201273824,58.751497756235615,58.373015311200547,57.994532866168633,57.61605042113974,57.237567976114036,56.636833873271577,55.85425368538899,55.071673497509437,54.28909330963323,53.506513121760158,52.723932933890232,51.941352746023526,51.158772558159995,50.376192370299592,49.593612182442442,48.587138494075589,47.431398944914221,46.275659395756122,45.119919846601235,43.964180297449651,42.808440748301251,41.652701199156148,40.496961650014249,39.341222100875669,38.185482551740265,36.808817052035913,35.313188212452182,33.817559372871763,32.321930533294669,30.826301693720879,29.330672854150457,27.835044014583335,26.339415175019571,24.843786335459072,23.348157495901933,21.637866462802673,19.835573723505412,18.033280984211462,16.230988244921019,14.42869550563392,12.626402766350283,10.824110027070052,9.0218172877931657,7.219524548519753,5.4172318092497322,3.408275443473495,1.3304285976480883,-0.74741824817385,-2.8252650939923174,-4.90311193980727,-6.9809587856188164,-9.0588056314267931,-11.136652477231324,-13.214499323032429,-15.292346168829983,-17.568593680052555,-19.8944437017655,-22.220293723474853,-24.546143745180487,-26.871993766882476,-29.197843788580716,-31.523693810275322,-33.849543831966251,-36.175393853653489,-38.501243875337117,-41.018943927776235,-43.570502001394729,-46.122060075009522,-48.673618148620832,-51.225176222228484,-53.776734295832576,-56.328292369433008,-58.879850443029866,-61.431408516623222,-63.982966590212833,-66.722437287000233,-69.482789137666856,-72.243140988329642,-75.003492838988407,-77.763844689643449,-80.524196540294355,-83.284548390941552,-86.044900241584642,-88.805252092223952,-91.565603942859354,-94.514789305913581,-97.473915153700972,-100.43304100148434,-103.39216684926372,-106.35129269703907,-109.31041854481056,-112.26954439257788,-115.22867024034119,-118.18779608810051,-121.14692193585591,0.59129804068138514,0.59129804068138514,0.59129804068138514,0.59129804068138514,0.59129804068138514,0.59129804068138514,0.59129804068138514,0.59129804068138514,0.59129804068138514,0.59129804068138514,0.59129804068138514,0.59129804068138514
DP 472,231.84803790655468,0.001853656881409031,-80.043743926782042,-77.872158055800838,-75.700572184818256,-73.528986313834167,-71.357400442848572,-69.185814571861556,-67.014228700873019,-64.842642829883019,-62.671056958891555,-60.49947108789862,-58.331887473481004,-56.240347490626768,-54.148807507771068,-52.057267524913925,-49.965727542055312,-47.874187559195228,-45.78264757633368,-43.691107593470655,-41.599567610606208,-39.508027627740248,-37.432577787570722,-35.50194075254911,-33.571303717526106,-31.640666682501692,-29.710029647475846,-27.779392612448571,-25.848755577419876,-23.918118542389763,-21.98748150735824,-20.05684447232527,-18.160166546629714,-16.455925713769087,-14.751684880907018,-13.047444048043483,-11.343203215178519,-9.6389623823120925,-7.9347215494442214,-6.2304807165749034,-4.526239883704144,-2.8219990508319404,-1.1729970025843821,0.25504729653064989,1.6830915956470955,3.1111358947649683,4.5391801938842482,5.9672244930049665,7.3952687921270925,8.8233130912506486,10.251357390375622,11.679401689502015,13.030379051022166,14.150152685926461,15.269926320832191,16.389699955739331,17.509473590647911,18.629247225557918,19.749020860469336,20.86879449538219,21.988568130296457,23.108341765212149,24.131306334016955,24.928379269170318,25.72545220432507,26.522525139481264,27.319598074638904,28.116671009797923,28.913743944958409,29.710816880120326,30.507889815283619,31.3049627504484,31.989632202427543,32.465549292905131,32.941466383384167,33.417383473864625,33.893300564346532,34.369217654829868,34.845134745314631,35.321051835800837,35.79696892628845,36.272886016777548,36.626202751293349,36.795616054756749,36.965029358221635,37.134442661687928,37.303855965155648,37.473269268624833,37.642682572095474,37.812095875567557,37.981509179041062,38.150922482515995,38.19333795356787,38.08053118409736,37.967724414628265,37.854917645160619,37.7421108756945,37.629304106229796,37.516497336766527,37.403690567304743,37.290883797844444,37.178077028385587,36.2100040685214,35.845335762347972,35.480667456176079,35.115999150005614,34.751330843836683,34.386662537669189,34.021994231503179,33.657325925338633,33.172385924755794,32.589039743602839,32.005693562451377,31.422347381301432,30.839001200152964,30.255655019006017,29.672308837860562,29.088962656716635,28.505616475574154,27.92227029443324,27.22771077939553,26.459007289753206,25.690303800112446,24.92160031047316,24.152896820835448,23.384193331199221,22.615489841564543,21.846786351931382,21.078082862299777,20.309379372669675,19.440625221571505,18.517996182463413,17.59536714335691,16.672738104251938,15.750109065148552,14.827480026046713,13.904850986946434,12.982221947847744,12.059592908750586,11.136963869654986,10.12630956097864,9.0779286510019119,8.0295477410267289,6.9811668310531942,5.9327859210812308,4.8844050111108821,3.8360241011421268,2.7876431911749417,1.7392622812093839,0.69088137124541416,-0.43375267021377933,-1.5838053831766048,-2.7338580961378112,-3.8839108090973911,-5.033963522055326,-6.1840162350116783,-7.334068947966343,-8.4841216609194081,-9.6341743738708825,-10.784227086820684,-11.99986634940889,-13.231903024321399,-14.463939699232226,-15.695976374141322,-16.928013049048729,-18.160049723954383,-19.392086398858339,-20.624123073760568,-21.856159748661089,-23.088196423559936,-24.3771621852568,-25.676174889447513,-26.975187593636484,-28.274200297823857,-29.573213002009467,-30.872225706193479,-32.17123841037575,-33.470251114556362,-34.7692638187353,-36.068276522912619,-37.417895618630226,-38.773138178226567,-40.128380737821125,-41.483623297413828,-42.838865857004762,-44.194108416593842,-45.549350976181096,-46.90459353576653,-48.259836095350117,-49.615078654931928,-51.0178324539325,-52.42308731719794,-53.828342180461632,-55.233597043723414,-56.638851906983376,-58.044106770241477,-59.449361633497844,-60.854616496752136,-62.2598713600047,-63.665126223255328,0.27519749687803458,0.27519749687803458,0.27519749687803458,0.27519749687803458,0.27519749687803458,0.27519749687803458,0.27519749687803458,0.27519749687803458,0.27519749687803458,0.27519749687803458,0.27519749687803458,0.27519749687803458
DP 473,184.70951551855225,0.0050079062436964592,-182.56196364392952,-177.80522467040751,-173.04848569688144,-168.29174672335142,-163.53500774981734,-158.77826877627928,-154.02152980273729,-149.26479082919138,-144.50805185564138,-139.75131288208738,-135.00228279331162,-130.39972297271561,-125.79716315211549,-121.19460333151156,-116.59204351090376,-111.98948369029188,-107.38692386967604,-102.78436404905624,-98.181804228432512,-93.579244407804822,-89.007936390501868,-84.717897557128566,-80.427858723751442,-76.137819890370437,-71.847781056985625,-67.557742223596961,-63.26770339020446,-58.977664556808051,-54.687625723407876,-50.397586890003808,-46.174376163948018,-42.329862257356751,-38.485348350761548,-34.640834444162451,-30.796320537559406,-26.9518066309525,-23.107292724341622,-19.262778817726836,-15.41826491110813,-11.57375100448551,-7.8399279635387247,-4.5488736166466772,-1.2578192697507971,2.03323507714895,5.3242894240525152,8.61534377095997,11.906398117871246,15.197452464786403,18.488506811705388,21.779561158628212,24.912630171921627,27.571737211112225,30.2308442503067,32.889951289505021,35.549058328707225,38.20816536791326,40.86727240712321,43.526379446336982,46.185486485554584,48.844593524776172,51.299763137866336,53.279070724784262,55.258378311706096,57.237685898631881,59.216993485561453,61.196301072494954,63.175608659432264,65.1549162463735,67.134223833318615,69.113531420267691,70.848485438238058,72.129633371912746,73.410781305591243,74.6919292392736,75.973077172959933,77.254225106650125,78.535373040344282,79.8165209740422,81.097668907744122,82.378816841450032,83.383833475780577,83.974646635961449,84.565459796146285,85.156272956335087,85.747086116527782,86.337899276724471,86.928712436924982,87.519525597129544,88.110338757337971,88.7011519175504,88.994493845091966,88.924253573275237,88.854013301462516,88.783773029653787,88.713532757848981,88.6432924860481,88.573052214251319,88.502811942458422,88.432571670669674,88.362331398884763,86.612199273231724,85.926193313283648,85.240187353339678,84.554181393399546,83.868175433463648,83.18216947353163,82.4961635136038,81.810157553679943,80.816127576070627,79.570072654014851,78.3240177319632,77.077962809915675,75.831907887872134,74.585852965832743,73.339798043797529,72.0937431217664,70.847688199739309,69.601633277716417,68.056113249814643,66.310945100349926,64.5657769508894,62.820608801432989,61.07544065198087,59.330272502532793,57.585104353089072,55.839936203649422,54.094768054214022,52.349599904782757,50.320080836817247,48.137445600834674,45.954810364856456,43.772175128882481,41.589539892912754,39.406904656947361,37.224269420986154,35.041634185029331,32.858998949076735,30.676363713128424,28.228596311805976,25.66719636448207,23.105796417162495,20.544396469847413,17.982996522536617,15.421596575230289,12.860196627928335,10.298796680630696,7.7373967333375182,5.1759967860487066,2.3702018837963954,-0.5170610835122309,-3.4043240508163977,-6.2915870181160996,-9.1788499854112846,-12.066112952702081,-14.953375919988289,-17.840638887270071,-20.727901854547451,-23.615164821820283,-26.726848076503305,-29.894639054598372,-33.06243003268883,-36.230221010774514,-39.39801198885548,-42.565802966931727,-45.73359394500325,-48.90138492307009,-52.069175901132169,-55.236966879189623,-58.612715559572464,-62.025164970530788,-65.437614381484281,-68.850063792433446,-72.262513203377722,-75.674962614317508,-79.087412025252689,-82.499861436183139,-85.912310847109126,-89.324760258030437,-92.933500170918734,-96.564052201091854,-100.19460423126003,-103.82515626142303,-107.4557082915812,-111.08626032173423,-114.71681235188231,-118.34736438202526,-121.97791641216325,-125.60846844229626,-129.43136126995387,-133.26437921119259,-137.09739715242611,-140.93041509365452,-144.76343303487778,-148.59645097609609,-152.42946891730921,-156.26248685851698,-160.09550479971981,-163.92852274091746,0.75879698464416478,0.75879698464416478,0.75879698464416478,0.75879698464416478,0.75879698464416478,0.75879698464416478,0.75879698464416478,0.75879698464416478,0.75879698464416478,0.75879698464416478,0.75879698464416478,0.75879698464416478
DP 474,61.710229686114978,0.0037239959984968949,-60.082037380343991,-58.795926670825878,-57.509815961305833,-56.223705251783969,-54.937594542260236,-53.651483832734662,-52.365373123207235,-51.079262413677952,-49.793151704146752,-48.507040994613753,-47.222204701358542,-45.961582558336609,-44.700960415312707,-43.440338272286972,-42.179716129259347,-40.919093986229868,-39.658471843198512,-38.397849700165239,-37.137227557130096,-35.876605414093078,-34.621288845732629,-33.413722950968427,-32.206157056202393,-30.998591161434405,-29.791025266664555,-28.583459371892825,-27.37589347711922,-26.168327582343682,-24.960761687566297,-23.753195792787007,-22.557425342107209,-21.428496484617245,-20.299567627125349,-19.170638769631488,-18.041709912135726,-16.912781054638025,-15.783852197138357,-14.654923339636762,-13.525994482133228,-12.397065624627775,-11.288753919483955,-10.262911798175796,-9.23706967686569,-8.2112275555536218,-7.1853854342395982,-6.159543312923617,-5.13370119160568,-4.1078590702857909,-3.0820169489639504,-2.0561748276401515,-1.0618297817189235,-0.16197715287015022,0.73787547598062064,1.6377281048333912,2.5375807336881637,3.4374333625449349,4.3372859914037063,5.2371386202644743,6.1369912491272327,7.0368438779919993,7.8925525787265931,8.6452570419310888,9.3979615051376246,10.150665968346207,10.903370431556835,11.656074894769528,12.408779357984249,13.161483821201024,13.914188284419838,14.666892747640722,15.361378680839405,15.947742914594578,16.534107148351872,17.120471382111251,17.706835615872734,18.293199849636316,18.879564083402006,19.46592831716978,20.052292550939665,20.638656784711635,21.151632862840739,21.554524973315189,21.957417083791821,22.360309194270595,22.763201304751551,23.166093415234659,23.56898552571991,23.971877636207335,24.37476974669692,24.777661857188654,25.091241393289852,25.295659240256462,25.50007708722519,25.704494934196198,25.908912781169448,26.11333062814488,26.317748475122574,26.522166322102454,26.726584169084589,26.931002016068948,27.015793132974359,27.008825610738107,27.001858088504125,26.994890566272449,26.987923044043054,26.980955521815989,26.973987999591191,26.96702047736866,26.837798888723597,26.608549144709364,26.379299400697526,26.150049656688061,25.920799912680945,25.691550168676219,25.46230042467386,25.233050680673873,25.003800936676292,24.774551192681059,24.406525993656334,23.945981638403623,23.485437283153356,23.024892927905544,22.564348572660212,22.1038042174173,21.64325986217689,21.182715506938912,20.722171151703403,20.261626796470363,19.645997433768077,18.946858504144213,18.247719574522897,17.548580644904103,16.849441715287824,16.150302785674093,15.451163856062884,14.752024926454224,14.052885996848063,13.353747067244448,12.483557602770178,11.54005787907152,10.596558155375451,9.6530584316820818,8.7095587079913415,7.7660589843032639,6.822559260617842,5.8790595369350456,4.9355598132549208,3.9920600895774454,2.8619276840009222,1.6695820323573327,0.47723638071646962,-0.71510927092166821,-1.9074549225570538,-3.099800574189751,-4.2921462258196614,-5.4844918774468585,-6.6768375290713662,-7.8691831806930894,-9.2631915031503347,-10.707617875992309,-12.152044248831395,-13.596470621667526,-15.040896994500727,-16.485323367330963,-17.929749740158314,-19.374176112982692,-20.818602485804142,-22.26302885862269,-23.923915628515822,-25.623003699080911,-27.322091769643063,-29.021179840202475,-30.720267910758924,-32.419355981312577,-34.118444051863307,-35.817532122411166,-37.516620192956211,-39.215708263498364,-41.145206172901609,-43.100307595357684,-45.055409017810639,-47.0105104402603,-48.965611862706965,-50.920713285150221,-52.875814707590564,-54.830916130027454,-56.786017552461296,-58.741118974891975,-60.940472052695533,-63.152682910987991,-65.364893769277217,-67.577104627563145,-69.78931548584579,-72.001526344125324,-74.213737202401518,-76.425948060674344,-78.638158918943972,-80.85036977721029,0.46304690378616969,0.46304690378616969,0.46304690378616969,0.46304690378616969,0.46304690378616969,0.46304690378616969,0.46304690378616969,0.46304690378616969,0.46304690378616969,0.46304690378616969,0.46304690378616969,0.46304690378616969
DP 475,112.03489953257358,0.0019217983896175886,-47.296429916588735,-46.167307713043186,-45.0381855094962,-43.909063305947932,-42.779941102398155,-41.650818898847028,-40.521696695294537,-39.392574491740596,-38.263452288185313,-37.134330084628594,-36.006626605336621,-34.905879155302529,-33.805131705267009,-32.704384255230124,-31.603636805191833,-30.502889355152181,-29.40214190511114,-28.301394455068682,-27.200647005024891,-26.099899554979682,-25.004986908639818,-23.962588047174954,-22.92018918570874,-21.877790324241172,-20.835391462772254,-19.792992601301989,-18.750593739830357,-17.708194878357379,-16.665796016883036,-15.623397155407357,-14.593745070713926,-13.636325524357948,-12.678905978000616,-11.721486431641873,-10.764066885281773,-9.8066473389202731,-8.8492277925573983,-7.8918082461931345,-6.9343886998274833,-5.976969153460459,-5.0413023226811413,-4.1926473823077055,-3.3439924419329032,-2.4953375015567341,-1.6466825611792026,-0.79802762080029377,0.050627319579977625,0.899282259961621,1.7479372003446256,2.596592140729,3.4130110279523032,4.13272053688908,4.8524300458272354,5.57213955476677,6.2918490637076845,7.0115585726499825,7.7312680815936634,8.4509775905387219,9.1706870994851464,9.89039660843297,10.5665552880499,11.141093650691332,11.715632013334151,12.29017037597837,12.864708738623964,13.439247101270974,14.013785463919367,14.58832382656915,15.162862189220323,15.737400551872899,16.256906705967346,16.674208700816628,17.091510695667306,17.508812690519417,17.926114685372909,18.343416680227843,18.760718675084156,19.178020669941873,19.595322664800992,20.012624659661526,20.363843824793012,20.615937183768505,20.868030542745409,21.120123901723744,21.372217260703504,21.624310619684696,21.8764039786673,22.128497337651336,22.380590696636816,22.632684055623727,22.808566265610693,22.891299914910761,22.974033564212267,23.056767213515229,23.139500862819652,23.222234512125553,23.304968161432868,23.387701810741625,23.470435460051849,23.55316910936352,23.376051267422255,23.288657079174222,23.201262890927662,23.113868702682577,23.026474514438966,22.939080326196873,22.851686137956218,22.764291949717055,22.584451341156885,22.328971163576234,22.073490985997115,21.818010808419512,21.562530630843405,21.307050453268797,21.051570275695706,20.796090098124157,20.540609920554093,20.28512974298555,19.931321635411315,19.511960025484338,19.092598415558896,18.673236805634989,18.253875195712673,17.834513585791868,17.415151975872615,16.995790365954914,16.576428756038769,16.15706714612417,15.634878051766645,15.057318816648239,14.479759581531459,13.902200346416262,13.32464111130264,12.747081876190622,12.169522641080169,11.591963405971343,11.014404170864065,10.436844935758408,9.753094930832825,9.0238328036062558,8.2945706763812925,7.5653085491579919,6.8360464219363148,6.10678429471628,5.37752216749788,4.6482600402810963,3.9189979130659638,3.189735785852466,2.3516789027466682,1.4773557298878985,0.60303255703079672,-0.271290615824637,-1.1456137886783841,-2.0199369615304912,-2.8942601343808843,-3.7685833072296266,-4.642906480076717,-5.5172296529221079,-6.5025482572621742,-7.5156170309040951,-8.5286858045442724,-9.5417545781826654,-10.554823351819291,-11.567892125454126,-12.580960899087197,-13.59402967271849,-14.607098446348006,-15.620167219975773,-16.74668342947955,-17.89322103627763,-19.039758643073981,-20.18629624986864,-21.33283385666153,-22.47937146345269,-23.625909070242106,-24.772446677029791,-25.918984283815735,-27.06552189060001,-28.3283554785988,-29.604112063669575,-30.879868648738483,-32.155625233805473,-33.431381818870612,-34.707138403933783,-35.982894988995135,-37.258651574054504,-38.534408159112061,-39.810164744167679,-41.206322141245543,-42.608817621106184,-44.0113131009649,-45.413808580821623,-46.816304060676444,-48.218799540529346,-49.621295020380266,-51.023790500229232,-52.426285980076322,-53.828781459921338,0.28495353354808522,0.28495353354808522,0.28495353354808522,0.28495353354808522,0.28495353354808522,0.28495353354808522,0.28495353354808522,0.28495353354808522,0.28495353354808522,0.28495353354808522,0.28495353354808522,0.28495353354808522
DP 476,84.199857383969515,0.0048983074506985151,-97.43558913404425,-95.22654801266323,-93.017506891279155,-90.808465769891967,-88.599424648501625,-86.390383527108227,-84.1813424057116,-81.97230128431201,-79.7632601629093,-77.554219041503458,-75.347619871136,-73.187418232191817,-71.027216593244447,-68.867014954294049,-66.7068133153405,-64.54661167638389,-62.386410037424206,-60.226208398461338,-58.066006759495387,-55.905805120526317,-53.755715366471151,-51.696633532458691,-49.637551698443161,-47.578469864424626,-45.519388030402965,-43.460306196378291,-41.401224362350554,-39.342142528319741,-37.28306069428583,-35.22397886024892,-33.187195640072808,-31.276772636925028,-29.366349633774121,-27.455926630620063,-25.545503627462882,-23.63508062430256,-21.724657621139105,-19.81423461797251,-17.903811614802798,-15.993388611629937,-14.121521002990169,-12.403876794651183,-10.686232586309091,-8.9685883779638687,-7.2509441696155505,-5.53329996126408,-3.8156557529095059,-2.0980115445518011,-0.380367336190987,1.3372768721729458,2.9968306780335681,4.4821110800602622,5.9673914820901164,7.4526718841231308,8.9379522861593124,10.423232688198658,11.908513090241168,13.393793492286841,14.879073894335647,16.364354296387646,17.76956201964714,18.987930338814568,20.20629865798519,21.424666977159024,22.643035296336063,23.861403615516274,25.07977193469976,26.29814025388642,27.51650857307629,28.734876892269376,29.8496515177082,30.772035057077861,31.694418596450774,32.616802135826958,33.539185675206376,34.4615692145891,35.383952753975031,36.30633629336424,37.22871983275671,38.151103372152463,38.945697243121259,39.548603591730974,40.151509940344006,40.754416288960407,41.357322637580019,41.96022898620302,42.563135334829333,43.166041683458957,43.768948032091927,44.371854380728216,44.822883347358427,45.088281212497563,45.353679077640066,45.619076942785938,45.884474807935177,46.149872673087849,46.415270538243917,46.6806684034034,46.946066268566241,47.21146413373247,47.131553029916304,47.046508352881652,46.961463675850524,46.876418998822807,46.791374321798585,46.70632964477786,46.621284967760594,46.536240290746782,46.253850912457409,45.809994296160234,45.366137679866604,44.92228106357652,44.478424447290074,44.0345678310071,43.590711214727747,43.146854598451945,42.702997982179717,42.259141365911084,41.597304196022463,40.790143223082666,39.982982250146591,39.175821277214141,38.368660304285406,37.561499331360288,36.754338358438893,35.947177385521137,35.140016412607075,34.33285543969663,33.28865239319029,32.116807860048773,30.944963326911104,29.773118793777183,28.601274260647074,27.429429727520741,26.257585194398178,25.085740661279452,23.913896128164492,22.74205159505334,21.315574455145146,19.779964757275632,18.244355059409994,16.708745361548324,15.173135663690534,13.637525965836652,12.101916267986683,10.566306570140584,9.0306968722984386,7.495087174460183,5.6884203362263417,3.7913977017725022,1.8943750673226574,-0.002647567123189384,-1.8996702015649987,-3.7966928360028707,-5.6937154704366488,-7.5907381048664586,-9.4877607392923125,-11.3847833737141,-13.568329976933374,-15.823510957677247,-18.078691938416934,-20.333872919152309,-22.589053899883428,-24.844234880610237,-27.099415861332837,-29.354596842051116,-31.609777822765153,-33.864958803474956,-36.4221055142304,-39.032543652895846,-41.642981791557055,-44.253419930214221,-46.863858068867117,-49.474296207515891,-52.084734346160438,-54.695172484800835,-57.30561062343709,-59.9160487620692,-62.843510290627719,-65.8061999697814,-68.768889648930582,-71.731579328075128,-74.694269007215084,-77.656958686350379,-80.619648365481183,-83.582338044607269,-86.545027723728836,-89.507717402845813,-92.80360680397564,-96.117036347783284,-99.430465891586167,-102.74389543538432,-106.05732497917791,-109.37075452296688,-112.68418406675107,-115.99761361053022,-119.31104315430503,-122.62447269807481,0.68281731152750258,0.68281731152750258,0.68281731152750258,0.68281731152750258,0.68281731152750258,0.68281731152750258,0.68281731152750258,0.68281731152750258,0.68281731152750258,0.68281731152750258,0.68281731152750258,0.68281731152750258
DP 477,113.7686370187775,0.0037201999197826923,-92.653384744072881,-90.435379931650459,-88.2173751192254,-85.999370306797545,-83.781365494367051,-81.5633606819338,-79.3453558694979,-77.127351057059229,-74.909346244617851,-72.691341432173758,-70.476143838007246,-68.314283921853445,-66.1524240056968,-63.990564089537592,-61.828704173375669,-59.666844257211089,-57.504984341043681,-55.343124424873729,-53.181264508700963,-51.019404592525504,-48.86908668083791,-46.822647900532587,-44.776209120224635,-42.729770339914069,-40.683331559600859,-38.636892779285006,-36.590453998966545,-34.544015218645427,-32.497576438321673,-30.4511376579953,-28.429897808923297,-26.551453491536666,-24.6730091741473,-22.794564856755226,-20.916120539360492,-19.03767622196305,-17.159231904562937,-15.280787587160102,-13.402343269754597,-11.523898952346416,-9.68842592239988,-8.0248400731658016,-6.3612542239290786,-4.6976683746896857,-3.0340825254476504,-1.3704966762029345,0.29308917304443088,1.9566750222944629,3.6202608715471443,5.2838467208024831,6.883816114567284,8.29293373660496,9.7020513586453081,11.111168980688351,12.520286602734068,13.929404224782488,15.338521846833565,16.747639468887336,18.156757090943778,19.565874713002909,20.889147425367764,22.012111967534679,23.1350765097043,24.258041051876628,25.381005594051675,26.503970136229391,27.626934678409857,28.749899220592994,29.872863762778827,30.995828304967386,32.010468524788124,32.823932077644663,33.637395630503832,34.450859183365779,35.264322736230447,36.07778628909783,36.891249841967984,37.704713394840844,38.518176947716491,39.331640500594787,40.015235010305041,40.504022886408215,40.99281076251421,41.481598638622948,41.970386514734471,42.459174390848759,42.947962266965796,43.436750143085618,43.925538019208219,44.414325895333583,44.753611407231709,44.910168667032842,45.066725926836845,45.22328318664362,45.3798404464532,45.536397706265639,45.692954966080869,45.84951222589897,46.006069485719784,46.162626745543527,45.79962355055806,45.623110190963331,45.44659683137148,45.270083471782478,45.093570112196332,44.9170567526131,44.740543393032745,44.564030033455246,44.2069212605365,43.702049500313663,43.1971777400938,42.692305979876849,42.187434219662883,41.682562459451809,41.177690699243648,40.672818939038493,40.167947178836194,39.663075418636872,38.96656950681016,38.142304474977031,37.318039443146979,36.493774411319848,35.669509379495736,34.84524434767463,34.020979315856565,33.196714284041477,32.372449252229409,31.5481842204203,30.52400926463477,29.392187596590976,28.260365928550279,27.128544260512648,25.996722592478083,24.864900924446605,23.733079256418197,22.601257588392908,21.469435920370621,20.337614252351457,18.999867445393274,17.573863531681322,16.14785961797244,14.721855704266833,13.295851790564335,11.869847876865041,10.443843963168923,9.0178400494759341,7.5918361357861528,6.1658322220995352,4.5293859974373429,2.8227896836138653,1.1161933697936217,-0.59040294402338411,-2.2969992578371152,-4.0035955716476659,-5.710191885454897,-7.4167881992589058,-9.12338451305973,-10.829980826857243,-12.750762207658012,-14.725092385839277,-16.699422564017137,-18.673752742191542,-20.648082920362548,-22.622413098530032,-24.596743276694134,-26.571073454854748,-28.545403633011944,-30.51973381116575,-32.712518746388795,-34.943856950342372,-37.175195154292531,-39.406533358239471,-41.63787156218293,-43.8692097661231,-46.100547970059857,-48.331886173993276,-50.563224377923305,-52.794562581850009,-55.2494636569205,-57.729207398943196,-60.208951140962256,-62.688694882977607,-65.168438624989392,-67.648182366997318,-70.127926109001677,-72.607669851002271,-75.087413592999312,-77.567157334992572,-80.278105937892988,-83.0012255180784,-85.72434509825996,-88.44746467843774,-91.170584258611811,-93.893703838782244,-96.616823418948684,-99.3399429991114,-102.06306257927042,-104.78618215942562,0.55283971846489743,0.55283971846489743,0.55283971846489743,0.55283971846489743,0.55283971846489743,0.55283971846489743,0.55283971846489743,0.55283971846489743,0.55283971846489743,0.55283971846489743,0.55283971846489743,0.55283971846489743
DP 478,69.213502756628159,0.0031060959324072561,-54.007935169259753,-52.8268144641779,-51.645693759094272,-50.464573054008937,-49.283452348921877,-48.102331643833139,-46.921210938742632,-45.74009023365047,-44.558969528556545,-43.377848823460859,-42.197940823634305,-41.04107445320745,-39.884208082778819,-38.727341712348505,-37.570475341916428,-36.413608971482631,-35.256742601047158,-34.099876230609873,-32.94300986017091,-31.786143489730211,-30.634318134707087,-29.527862394941334,-28.421406655173847,-27.314950915404641,-26.20849517563375,-25.102039435861091,-23.995583696086761,-22.889127956310677,-21.782672216532887,-20.676216476753371,-19.580936106458413,-18.548983534127562,-17.517030961794962,-16.485078389460593,-15.453125817124466,-14.421173244786569,-13.389220672446907,-12.357268100105472,-11.325315527762305,-10.293362955417361,-9.2808768391312544,-8.3462574670862,-7.41163809503939,-6.47701872299081,-5.5423993509404577,-4.6077799788883347,-3.673160606834446,-2.7385412347787819,-1.8039218627213593,-0.86930249066216314,0.035711811322935834,0.85190978375548077,1.6681077561898254,2.4843057286259733,3.3005037010639247,4.1167016735036794,4.9328996459452323,5.7490976183885945,6.5652955908337516,7.3814935632807135,8.1564237666257444,8.8350608834470528,9.5136980002701872,10.192335117095178,10.870972233921989,11.549609350750655,12.228246467581128,12.906883584413469,13.585520701247622,14.26415781808363,14.88870301361059,15.412790323033816,15.936877632458895,16.460964941885848,16.985052251314688,17.509139560745414,18.033226870178012,18.55731417961249,19.081401489048829,19.605488798487059,20.061862540191719,20.416664330198451,20.771466120207098,21.126267910217688,21.481069700230194,21.835871490244617,22.190673280260988,22.545475070279242,22.900276860299446,23.255078650321568,23.528090011281545,23.701133574286988,23.874177137294375,24.047220700303786,24.220264263315133,24.393307826328488,24.566351389343779,24.739394952361074,24.912438515380344,25.085482078401579,25.12450565452232,25.105506009328995,25.0865063641377,25.067506718948458,25.048507073761233,25.029507428576046,25.01050778339291,24.991508138211767,24.862357759326681,24.643082159846646,24.42380656036871,24.204530960892878,23.985255361419114,23.765979761947452,23.5467041624779,23.327428563010439,23.108152963545059,22.888877364081779,22.545609850022057,22.119679106249869,21.693748362479827,21.267817618711952,20.841886874946255,20.415956131182707,19.990025387421323,19.564094643662102,19.138163899905045,18.712233156150159,18.148882039052509,17.511533337976108,16.874184636901944,16.236835935830005,15.599487234760309,14.962138533692846,14.324789832627582,13.6874411315646,13.050092430503836,12.412743729445287,11.625021829643611,10.77285173511109,9.9206816405808418,9.06851154605296,8.2163414515273647,7.3641713570041123,6.51200126248317,5.6598311679645352,4.8076610734482328,3.9554909789342481,2.9404442825095627,1.8711033327411959,0.80176238297520519,-0.26757856678840664,-1.3369195165496153,-2.4062604663084772,-3.475601416064912,-4.544942365818974,-5.6142833155706917,-6.683624265319982,-7.9278306423276943,-9.2157554422122736,-10.503680242094324,-11.791605041973822,-13.079529841850762,-14.367454641725134,-15.655379441596958,-16.943304241466254,-18.231229041332966,-19.519153841197177,-20.993782605055451,-22.501361203440343,-24.008939801822702,-25.516518400202663,-27.024096998580049,-28.531675596955012,-30.039254195327405,-31.546832793697334,-33.0544113920648,-34.561989990429758,-36.267518957948695,-37.995044489874324,-39.722570021797225,-41.450095553717325,-43.177621085634755,-44.90514661754932,-46.632672149461193,-48.360197681370209,-50.087723213276618,-51.815248745180121,-53.752101981726923,-55.69997454861317,-57.647847115496631,-59.595719682377187,-61.543592249254964,-63.491464816130005,-65.439337383002112,-67.387209949871334,-69.335082516737771,-71.282955083601337,0.40530202283939148,0.40530202283939148,0.40530202283939148,0.40530202283939148,0.40530202283939148,0.40530202283939148,0.40530202283939148,0.40530202283939148,0.40530202283939148,0.40530202283939148,0.40530202283939148,0.40530202283939148
DP 479,144.97502485778955,0.0038074325770859,-114.7961930121279,-111.9284363933624,-109.06067977459388,-106.19292315582241,-103.3251665370481,-100.45740991827073,-97.589653299490323,-94.721896680707175,-91.854140061921072,-88.986383443131913,-86.1227179579243,-83.336784784224179,-80.550851610520979,-77.764918436815,-74.978985263106068,-72.193052089394214,-69.407118915679376,-66.621185741961654,-63.835252568240982,-61.04931939451739,-58.2800980381006,-55.661284617098623,-53.04247119609385,-50.423657775086184,-47.804844354075705,-45.186030933062327,-42.567217512046135,-39.948404091027065,-37.32959067000516,-34.710777248980428,-32.128106596851644,-29.750247245998736,-27.372387895142943,-24.994528544284179,-22.616669193422563,-20.238809842558009,-17.860950491690541,-15.483091140820173,-13.105231789946894,-10.727372439070725,-8.4103329933238253,-6.33657604250064,-4.2628190916745989,-2.189062140845683,-0.11530519001391833,1.9584517608207319,4.0322087116582415,6.1059656624986216,8.179722613341859,10.253479564187968,12.238688050576295,13.958247795690564,15.677807540807716,17.397367285927739,19.116927031050665,20.836486776176475,22.556046521305174,24.27560626643675,25.995166011571182,27.714725756708518,29.317203677131594,30.646486062075404,31.975768447022119,33.305050831971734,34.634333216924226,35.963615601879674,37.292897986837978,38.622180371799224,39.951462756763284,41.280745141730328,42.465767185451092,43.382873270939911,44.299979356431656,45.217085441926351,46.134191527423894,47.0512976129244,47.968403698427842,48.885509783934204,49.802615869443493,50.719721954955673,51.468538975189354,51.964918420770729,52.461297866355125,52.957677311942405,53.454056757532733,53.950436203125932,54.446815648722122,54.943195094321311,55.439574539923392,55.935953985528442,56.244474351191691,56.323385228766092,56.402296106343449,56.481206983923805,56.56011786150723,56.639028739093582,56.717939616682941,56.796850494275269,56.875761371870645,56.954672249468942,56.180248404727642,55.85469592671425,55.52914344870387,55.203590970696638,54.87803849269239,54.552486014691205,54.226933536693068,53.901381058697915,53.364593700073854,52.654974172530991,51.945354644991184,51.235735117454482,50.526115589920892,49.816496062390392,49.106876534862991,48.397257007338723,47.687637479817475,46.97801795229941,46.053172827472757,44.984840580536058,43.916508333602579,42.848176086672183,41.779843839745034,40.711511592820969,39.643179345900151,38.574847098982481,37.506514852067973,36.438182605156619,35.154860188779558,33.755770708664478,32.356681228552695,30.957591748444134,29.558502268338824,28.159412788236743,26.760323308137881,25.361233828042366,23.96214434794997,22.56305486786092,20.952329614425686,19.250899743101936,17.549469871781451,15.848040000464383,14.146610129150583,12.445180257840155,10.743750386533049,9.0423205152292283,7.3408906439287893,5.6394607726316588,3.7315023048961362,1.7546983688357669,-0.22210556722121552,-2.1989095032748085,-4.1757134393249657,-6.152517375371791,-8.12932131141514,-10.106125247455106,-12.082929183491757,-14.059733119524919,-16.2375136605631,-18.465540727421892,-20.693567794277143,-22.921594861128767,-25.149621927976806,-27.377648994821229,-29.605676061662074,-31.833703128499344,-34.061730195332977,-36.289757262163064,-38.714600232207836,-41.174177609087273,-43.633754985963087,-46.093332362835525,-48.55290973970434,-51.01248711656973,-53.47206449343151,-55.931641870289837,-58.39121924714464,-60.85079662399599,-63.505214486461085,-66.181283338055209,-68.85735218964561,-71.533421041232089,-74.2094898928149,-76.885558744393734,-79.5616275959688,-82.237696447539975,-84.913765299107382,-87.589834150670924,-90.463093502040167,-93.346733262732883,-96.23037302342162,-99.114012784106521,-101.99765254478746,-104.88129230546453,-107.76493206613775,-110.64857182680682,-113.53221158747219,-116.41585134813336,0.57808809465010591,0.57808809465010591,0.57808809465010591,0.57808809465010591,0.57808809465010591,0.57808809465010591,0.57808809465010591,0.57808809465010591,0.57808809465010591,0.57808809465010591,0.57808809465010591,0.57808809465010591
DP 480,67.054511620794145,0.0032122072693329083,-54.69689181744598,-53.507715034177011,-52.318538250906293,-51.129361467633878,-49.940184684359721,-48.751007901083831,-47.561831117806229,-46.372654334526835,-45.183477551245737,-43.994300767962891,-42.806332629845521,-41.641328978391,-40.476325326934749,-39.311321675476769,-38.146318024016992,-36.981314372555531,-35.816310721092336,-34.65130706962735,-33.486303418160638,-32.3212997666922,-31.161320605532481,-30.046562332088783,-28.931804058643383,-27.817045785196211,-26.702287511747318,-25.5875292382967,-24.4727709648443,-23.3580126913902,-22.243254417934352,-21.128496144476763,-20.024887484532186,-18.984460670423324,-17.944033856312732,-16.903607042200328,-15.863180228086145,-14.822753413970196,-13.782326599852466,-12.741899785732924,-11.701472971611633,-10.661046157488549,-9.640059609140474,-8.6968350426604761,-7.7536104761786993,-6.8103859096951282,-5.8671613432097747,-4.923936776722619,-3.9807122102336727,-3.0374876437429315,-2.0942630772504076,-1.151038510756093,-0.23741903153305002,0.58738406654521413,1.4121871646253032,2.2369902627072191,3.0617933607909644,3.8865964588765349,4.7113995569639284,5.53620265505316,6.3610057531442017,7.1858088512370735,7.96927836634632,8.65630122661601,9.3433240868875629,10.030346947160975,10.717369807436253,11.404392667713404,12.091415527992401,12.77843838827328,13.465461248556005,14.152484108840607,14.785232048684922,15.31718224195391,15.8491324352248,16.381082628497609,16.913032821772322,17.444983015048933,17.976933208327463,18.508883401607889,19.040833594890231,19.572783788174458,20.036651477603698,20.398393802434757,20.76013612726776,21.121878452102731,21.483620776939638,21.845363101778492,22.207105426619318,22.568847751462091,22.930590076306839,23.292332401153526,23.571654383466441,23.7502386603505,23.928822937236571,24.10740721412466,24.285991491014741,24.46457576790683,24.643160044800933,24.821744321697054,25.000328598595175,25.178912875495303,25.229719226708575,25.214324545117165,25.198929863527884,25.183535181940609,25.168140500355435,25.152745818772313,25.137351137191246,25.121956455612274,24.995025649139951,24.776836096381576,24.558646543625326,24.3404569908712,24.122267438119177,23.904077885369336,23.685888332621591,23.467698779876002,23.249509227132549,23.031319674391231,22.687263537226229,22.259294360931168,21.831325184638349,21.403356008347707,20.975386832059311,20.547417655773067,20.119448479489073,19.691479303207256,19.263510126927663,18.835540950650259,18.267724755208526,17.624604285057913,16.981483814909613,16.338363344763543,15.695242874619778,15.052122404478274,14.40900193433904,13.765881464202103,13.1227609940674,12.479640523934988,11.68312691012464,10.820870788494613,9.9586146668669038,9.0963585452416122,8.23410242361866,7.3718463019980947,6.50959018037989,5.6473340587640344,4.7850779371505654,3.9228218155394563,2.8940502857776194,1.8097715213994783,0.72549275702376625,-0.35878600734951288,-1.4430647717203366,-2.5273435360887637,-3.6116223004547057,-4.6959010648182273,-5.7801798291793567,-6.8644585935379956,-8.1278580053435547,-9.4360396953492,-10.744221385352276,-12.052403075352721,-13.360584765350561,-14.668766455345773,-15.976948145338405,-17.285129835328387,-18.593311525315773,-19.901493215300615,-21.40123248172771,-22.93477815649813,-24.468323831265966,-26.00186950603133,-27.535415180794068,-29.06896085555432,-30.602506530311974,-32.136052205067081,-33.669597879819669,-35.203143554569692,-36.94003122973335,-38.6995145960685,-40.458997962400836,-42.218481328730292,-43.977964695057047,-45.737448061380888,-47.496931427701945,-49.256414794020145,-51.015898160335546,-52.775381526648125,-54.750055657252922,-56.736057758619133,-58.722059859982494,-60.708061961342906,-62.694064062700477,-64.680066164055177,-66.666068265406921,-68.6520703667557,-70.638072468101655,-72.6240745694447,0.41390004868486,0.41390004868486,0.41390004868486,0.41390004868486,0.41390004868486,0.41390004868486,0.41390004868486,0.41390004868486,0.41390004868486,0.41390004868486,0.41390004868486,0.41390004868486
DP 481,170.86068249050706,0.0036425434007677122,-125.00707677476925,-121.79386645892167,-118.58065614307121,-115.36744582721781,-112.15423551136149,-108.94102519550233,-105.72781487964049,-102.51460456377546,-99.301394247907808,-96.088183932037012,-92.879966985569624,-89.766625001783353,-86.653283017994255,-83.539941034202172,-80.426599050407276,-77.3132570666095,-74.199915082808928,-71.0865730990054,-67.973231115199027,-64.859889131389821,-61.766842155959459,-58.856452174281536,-55.946062192600749,-53.035672210917269,-50.125282229230976,-47.214892247541883,-44.304502265850005,-41.394112284155341,-38.483722302457906,-35.5733323207577,-32.706509598991154,-30.086570762230803,-27.466631925467638,-24.846693088701638,-22.2267542519328,-19.606815415161119,-16.986876578386603,-14.366937741609247,-11.746998904829068,-9.1270600680460419,-6.5796788873126077,-4.3225317599194568,-2.0653846325235272,0.19176249487520547,2.4489096222767075,4.7060567496810233,6.9632038770881133,9.22035100449801,11.477498131910684,13.734645259326138,15.88752771209028,17.727612198791771,19.567696685496056,21.407781172203158,23.247865658913049,25.087950145625733,26.92803463234122,28.768119119059548,30.608203605780638,32.448288092504534,34.15266914475243,35.540403505349765,36.928137865949914,38.3158722265529,39.70360658715871,41.091340947767314,42.479075308378754,43.866809668992957,45.254544029610059,46.642278390229933,47.865858889004329,48.784577782615486,49.703296676229485,50.622015569846269,51.540734463465917,52.459453357088435,53.378172250713746,54.29689114434192,55.215610037972851,56.134328931606717,56.865529596287033,57.31544848641061,57.7653673765371,58.215286266666311,58.665205156798471,59.115124046933481,59.565042937071375,60.014961827212147,60.464880717355662,60.914799607502147,61.160259725841989,61.155821495140934,61.151383264442821,61.146945033747556,61.142506803055213,61.138068572365782,61.133630341679215,61.1291921109956,61.124753880314763,61.120315649636929,60.034782673336125,59.60145631818115,59.168129963029145,58.734803607880039,58.301477252733939,57.868150897590695,57.434824542450436,57.001498187313118,56.350492406979342,55.521381537781011,54.692270668585607,53.863159799393259,53.0340489302039,52.2049380610175,51.375827191834063,50.546716322653694,49.717605453476224,48.888494584301768,47.844390305360939,46.656953699662608,45.469517093967291,44.282080488275056,43.094643882585856,41.9072072768997,40.719770671216608,39.532334065536531,38.344897459859581,37.157460854185572,35.762366526102049,34.255453481629679,32.748540437160436,31.241627392694333,29.734714348231336,28.227801303771496,26.720888259314762,25.213975214861151,23.707062170410669,22.200149125963279,20.49602945975726,18.707389341318681,16.918749222883221,15.130109104451043,13.341468986022011,11.552828867596222,9.7641887491736163,7.9755486307541608,6.1869085123379559,4.39826839392493,2.4242770966234342,0.38849973707598484,-1.6472776224682124,-3.6830549820091596,-5.7188323415468041,-7.7546097010812636,-9.7903870606123764,-11.826164420140243,-13.861941779664939,-15.897719139186266,-18.107146489974419,-20.359988390280197,-22.612830290582597,-24.865672190881547,-27.118514091177076,-29.371355991469109,-31.624197891757735,-33.877039792042922,-36.129881692324645,-38.382723592602972,-40.799633491735008,-43.245498391593976,-45.691363291449541,-48.137228191301872,-50.583093091150644,-53.028957990996183,-55.47482289083824,-57.920687790677079,-60.366552690512378,-62.812417590344523,-65.415812300252,-68.036711976822843,-70.65761165339012,-73.278511329953645,-75.899411006513546,-78.520310683069809,-81.141210359622434,-83.762110036171237,-86.383009712716571,-89.003909389258112,-91.7809941749224,-94.566300783465437,-97.351607392004908,-100.13691400054043,-102.92222060907244,-105.70752721760073,-108.49283382612518,-111.27814043464588,-114.06344704316295,-116.84875365167618,0.5535918443179384,0.5535918443179384,0.5535918443179384,0.5535918443179384,0.5535918443179384,0.5535918443179384,0.5535918443179384,0.5535918443179384,0.5535918443179384,0.5535918443179384,0.5535918443179384,0.5535918443179384
DP 482,87.179189370515729,0.0026317196288416327,-53.668225755827045,-52.44372074782823,-51.219215739827661,-49.994710731825435,-48.770205723821491,-47.545700715815862,-46.321195707808513,-45.09669069979946,-43.872185691788751,-42.647680683776279,-41.424549069373796,-40.227512193223284,-39.030475317071016,-37.833438440917107,-36.636401564761492,-35.439364688604137,-34.24232781244514,-33.045290936284417,-31.848254060121992,-30.651217183957876,-29.459863647480077,-28.319660705392113,-27.17945776330248,-26.039254821211191,-24.899051879118218,-23.758848937023572,-22.618645994927242,-21.478443052829256,-20.338240110729586,-19.198037168628229,-18.070352533245227,-17.013605758108724,-15.956858982970513,-14.900112207830599,-13.843365432688957,-12.786618657545604,-11.729871882400531,-10.673125107253755,-9.6163783321052581,-8.5596315569550576,-7.5244982361883386,-6.5758197544300172,-5.6271412726699994,-4.6784627909082719,-3.7297843091448497,-2.7811058273797151,-1.8324273456128777,-0.88374886384433382,0.064929617925910385,1.0136080996978576,1.92978187113023,2.7484402825823433,3.5670986940361837,4.3857571054917459,5.2044155169490374,6.023073928408059,6.8417323398688064,7.660390751331275,8.4790491627954676,9.297707574261393,10.071660564165136,10.741299143082149,11.410937722000897,12.080576300921395,12.750214879843659,13.419853458767671,14.089492037693411,14.759130616620926,15.428769195550174,16.098407774481181,16.7103593302785,17.215176285208027,17.719993240139303,18.224810195072383,18.729627150007218,19.234444104943844,19.739261059882239,20.24407801482241,20.748894969764343,21.25371192470806,21.687578713119812,22.015018575154016,22.342458437190022,22.669898299227839,22.997338161267461,23.324778023308916,23.652217885352169,23.979657747397216,24.307097609444074,24.634537471492749,24.877929166643192,25.018593559060658,25.159257951479944,25.299922343901091,25.440586736324075,25.581251128748928,25.721915521175585,25.862579913604129,26.003244306034524,26.143908698466742,26.082798616167896,26.030221339458748,25.977644062751445,25.925066786046081,25.8724895093426,25.819912232641006,25.767334955941305,25.71475767924348,25.553774366884568,25.304093344131431,25.054412321380191,24.804731298630962,24.555050275883616,24.30536925313821,24.055688230394768,23.806007207653259,23.55632618491369,23.306645162176064,22.937696269025047,22.489233583370776,22.0407708977185,21.5923082120682,21.143845526419927,20.695382840773615,20.24692015512932,19.798457469487,19.3499947838467,18.90153209820836,18.323895154833327,17.67670096348801,17.029506772144735,16.38231258080349,15.7351183894643,15.087924198127173,14.440730006792039,13.793535815459006,13.146341624127979,12.499147432799013,11.713745579959893,10.869109539401371,10.02447349884493,9.1798374582906632,8.3352014177384834,7.4905653771884495,6.6459293366405161,5.80129329609469,4.9566572555510051,4.112021215009432,3.1208216489012544,2.0807657271550921,1.0407098054110986,0.00065388366927478085,-1.0394020380703595,-2.0794579598078586,-3.1195138815431394,-4.1595698032762609,-5.1996257250072411,-6.2396816467360141,-7.4341319567776782,-8.6671826880912288,-9.9002334194025075,-11.133284150711466,-12.366334882018124,-13.599385613322433,-14.832436344624433,-16.065487075924121,-17.298537807221507,-18.531588538516598,-19.926879470970718,-21.350802831292953,-22.774726191612849,-24.19864955193059,-25.622572912246003,-27.046496272559182,-28.470419632870055,-29.894342993178704,-31.318266353485079,-32.74218971378923,-34.336063648449247,-35.948822765141159,-37.561581881830612,-39.174340998517508,-40.787100115202065,-42.399859231883987,-44.012618348563471,-45.625377465240454,-47.238136581915015,-48.850895698587038,-50.6420280858721,-52.442550314773904,-54.243072543673208,-56.043594772569975,-57.8441170014642,-59.644639230355857,-61.445161459245007,-63.245683688131535,-65.0462059170156,-66.846728145897,0.37041476650542837,0.37041476650542837,0.37041476650542837,0.37041476650542837,0.37041476650542837,0.37041476650542837,0.37041476650542837,0.37041476650542837,0.37041476650542837,0.37041476650542837,0.37041476650542837,0.37041476650542837
DP 483,262.860852550119,0.0019399131834533919,-91.472166675105129,-88.932149298533062,-86.392131921959418,-83.852114545384211,-81.312097168807412,-78.772079792229135,-76.232062415649267,-73.69204503906785,-71.152027662484969,-68.612010285900539,-66.077041422157578,-63.637995256824524,-61.198949091489887,-58.759902926153806,-56.320856760816184,-53.88181059547707,-51.442764430136421,-49.003718264794216,-46.564672099450512,-44.125625934105273,-41.706766965699551,-39.4695946778907,-37.232422390080394,-34.995250102268621,-32.758077814455369,-30.520905526640611,-28.283733238824379,-26.0465609510067,-23.809388663187526,-21.5722163753669,-19.377290043869984,-17.42176012698901,-15.466230210106531,-13.510700293222543,-11.555170376337049,-9.59964045945007,-7.6441105425615765,-5.68858062567159,-3.7330507087801039,-1.7775207918871199,0.11009532141930209,1.7260530107137673,3.342010700009697,4.9579683893071049,6.5739260786059734,8.189883767906327,9.8058414572081425,11.421799146511448,13.037756835816198,14.653714525122416,16.176306206972932,17.418796336413759,18.661286465856065,19.903776595299849,21.146266724745086,22.388756854191829,23.631246983640011,24.873737113089703,26.116227242540848,27.358717371993468,28.485963416325657,29.344302056605873,30.202640696887567,31.060979337170771,31.919317977455407,32.777656617741535,33.635995258029176,34.494333898318267,35.352672538608829,36.211011178900861,36.938210135028449,37.421860421844109,37.905510708661268,38.389160995479877,38.872811282299985,39.356461569121564,39.840111855944649,40.323762142769219,40.807412429595217,41.291062716422744,41.634861986214567,41.768881425720785,41.902900865228574,42.036920304737819,42.170939744248564,42.304959183760751,42.438978623274465,42.572998062789672,42.707017502306378,42.841036941824548,42.833728481750164,42.653682953613064,42.4736374254775,42.293591897343433,42.11354636921088,41.933500841079848,41.753455312950273,41.573409784822239,41.393364256695705,41.213318728570663,39.991005057125413,39.538088178335713,39.085171299547525,38.632254420760887,38.179337541975748,37.726420663192137,37.273503784410082,36.820586905629519,36.241059385464972,35.557939164637204,34.874818943810986,34.191698722986345,33.508578502163196,32.825458281341653,32.142338060521617,31.459217839703133,30.776097618886229,30.092977398070854,29.296324778000873,28.423982103220879,27.551639428442375,26.679296753665529,25.806954078890211,24.934611404116474,24.062268729344339,23.189926054573768,22.317583379804773,21.445240705037328,20.474055848168469,19.449646840522082,18.425237832877308,17.400828825234139,16.37641981759257,15.352010809952588,14.327601802314199,13.303192794677441,12.278783787042263,11.254374779408694,10.146000632650644,9.0016400090322346,7.8572793854154126,6.7129187618002941,5.56855813818678,4.42419751457494,3.2798368909647442,2.1354762673561578,0.99111564374925265,-0.15324497985601945,-1.3676584471703526,-2.6054237452516427,-3.8431890433312619,-5.080954341409214,-6.3187196394854643,-7.5564849375600867,-8.7942502356329815,-10.032015533704216,-11.26978083177382,-12.5075461298417,-13.803190626504707,-15.113305606667502,-16.423420586828581,-17.733535566987882,-19.043650547145408,-20.353765527301185,-21.663880507455207,-22.973995487607443,-24.284110467757912,-25.594225447906659,-26.952543876735866,-28.319369332537125,-29.686194788336579,-31.053020244134373,-32.419845699930406,-33.786671155724719,-35.153496611517312,-36.520322067308193,-37.88714752309734,-39.253972978884768,-40.661972997125865,-42.074548399179484,-43.48712380123122,-44.899699203281052,-46.312274605329115,-47.724850007375231,-49.137425409419507,-50.55000081146185,-51.962576213502423,-53.3751516155411,-54.82525296326903,-56.277329734136742,-57.72940650500265,-59.18148327586664,-60.633560046728761,-62.085636817588984,-63.537713588447289,-64.989790359303569,-66.4418671301581,-67.893943901010644,0.282895578916067,0.282895578916067,0.282895578916067,0.282895578916067,0.282895578916067,0.282895578916067,0.282895578916067,0.282895578916067,0.282895578916067,0.282895578916067,0.282895578916067,0.282895578916067
DP 484,288.3466134108981,0.0029835663905199805,-149.67211856795535,-145.44164378997269,-141.21116901198778,-136.98069423400042,-132.75021945601088,-128.51974467801898,-124.28926990002458,-120.05879512202792,-115.82832034402884,-111.59784556602749,-107.37628004659032,-103.32399212415987,-99.2717042017271,-95.219416279292048,-91.167128356854619,-87.114840434414845,-83.062552511972967,-79.0102645895286,-74.957976667081937,-70.90568874463294,-66.888870947549933,-63.191287631477962,-59.493704315403619,-55.796120999327123,-52.0985376832483,-48.400954367167323,-44.703371051084055,-41.005787734998485,-37.308204418910726,-33.61062110282073,-29.986748764613647,-26.780576612614443,-23.574404460612968,-20.368232308609173,-17.162060156603122,-13.955888004594774,-10.749715852584133,-7.5435437005712123,-4.3373715485560176,-1.1311993965385403,1.957606084355376,4.5769393339045337,7.1962725834559116,9.81560583300954,12.434939082565403,15.05427233212351,17.673605581683837,20.292938831246431,22.912272080811238,25.531605330378298,27.991513679607039,29.973141300181439,31.954768920758074,33.936396541336961,35.918024161918041,37.899651782501394,39.881279403087,41.862907023674843,43.844534644264918,45.826162264857246,47.613793201881265,48.948757570217168,50.283721938555267,51.61868630689569,52.953650675238258,54.288615043583157,55.623579411930223,56.958543780279584,58.293508148631133,59.628472516985013,60.746253172355559,61.460686781175916,62.175120389998483,62.889553998823366,63.603987607650417,64.318421216479791,65.032854825311375,65.74728843414519,66.461722042981307,67.176155651819627,67.66315152212384,67.808985410187788,67.954819298253923,68.100653186322361,68.246487074393073,68.392320962466073,68.538154850541261,68.683988738618737,68.829822626698473,68.975656514780511,68.89617332747288,68.54129787084355,68.1864224142165,67.831546957591769,67.476671500969289,67.121796044349125,66.766920587731249,66.41204513111569,66.057169674502333,65.70229421789135,63.573126751559144,62.792434051382429,62.011741351208229,61.231048651036119,60.450355950866381,59.669663250699024,58.88897055053399,58.108277850371152,57.134475308257137,56.002670485815813,54.8708656633768,53.739060840940084,52.607256018505737,51.475451196073777,50.343646373644127,49.2118415512169,48.080036728792,46.948231906369408,45.647416351289834,44.233924311916937,42.820432272546476,41.406940233178325,39.993448193812654,38.579956154449313,37.1664641150884,35.752972075729836,34.339480036373715,32.925987997019895,31.369090245142747,29.734971947306075,28.100853649471851,26.466735351640068,24.832617053810687,23.198498755983739,21.564380458159214,19.93026216033714,18.29614386251744,16.662025564700205,14.909370892295845,13.105912915738237,11.302454939183027,9.4989969626304,7.6955389860802237,5.8920810095325633,4.0886230329874023,2.2851650564446837,0.48170707990450962,-1.3217508966331888,-3.2212598739798959,-5.1527870621103471,-7.0843142502382683,-9.0158414383636512,-10.947368626486476,-12.878895814606823,-14.810423002724542,-16.741950190839752,-18.673477378952509,-20.60500456706264,-22.613442422230328,-24.641108852872705,-26.668775283512463,-28.696441714149511,-30.724108144783941,-32.751774575415652,-34.779441006044692,-36.807107436671082,-38.83477386729475,-40.862440297915825,-42.952101742059419,-45.052704172098935,-47.153306602135793,-49.253909032170178,-51.354511462201863,-53.45511389223099,-55.555716322257325,-57.656318752281159,-59.756921182302456,-61.857523612321039,-64.0093883685075,-66.166949477085808,-68.324510585661386,-70.482071694234037,-72.639632802803931,-74.797193911370911,-76.954755019935163,-79.1123161284965,-81.269877237055084,-83.42743834561081,-85.630572830885257,-87.836106368369045,-90.041639905849948,-92.247173443328,-94.452706980803171,-96.65824051827552,-98.863774055744969,-101.06930759321145,-103.27484113067507,-105.48037466813587,0.42823878168908913,0.42823878168908913,0.42823878168908913,0.42823878168908913,0.42823878168908913,0.42823878168908913,0.42823878168908913,0.42823878168908913,0.42823878168908913,0.42823878168908913,0.42823878168908913,0.42823878168908913
DP 485,72.08208208725182,0.0014321910279167507,-25.587052022287452,-25.023261402661024,-24.459470783033776,-23.895680163405732,-23.33188954377685,-22.76809892414715,-22.204308304516655,-21.640517684885346,-21.076727065253209,-20.512936445620269,-19.949732923854327,-19.397684372563646,-18.845635821272158,-18.293587269979835,-17.741538718686691,-17.189490167392734,-16.637441616097956,-16.085393064802357,-15.533344513505934,-14.981295962208701,-14.431685823320686,-13.904021626605244,-13.376357429889001,-12.848693233171945,-12.321029036454066,-11.793364839735373,-11.265700643015862,-10.738036446295533,-10.210372249574398,-9.682708052852453,-9.1604443764655876,-8.6687839889590936,-8.1771236014517772,-7.6854632139436259,-7.19380282643464,-6.702142438924807,-6.2104820514141572,-5.7188216639026583,-5.2271612763903272,-4.7355008888771657,-4.2532348264949356,-3.8085465086223254,-3.363858190748882,-2.9191698728745972,-2.47448155499948,-2.0297932371235228,-1.5851049192467295,-1.1404166013690962,-0.69572828349062965,-0.25103996561132574,0.17938772389215485,0.56703298909186517,0.95467825429242559,1.342323519493839,1.7299687846961029,2.1176140498992195,2.5052593151031872,2.8929045803080085,3.2805498455136766,3.6681951107202,4.0360028918185691,4.357522428720233,4.6790419656227682,5.0005615025261685,5.3220810394304365,5.6436005763355723,5.9651201132415714,6.2866396501484445,6.6081591870561809,6.929678723964785,7.2252608317398108,7.4726727277961915,7.7200846238534542,7.9674965199116059,8.2149084159706476,8.4623203120305686,8.7097322080913742,8.95714410415306,9.2045560002156428,9.4519678962790934,9.6669995698514466,9.83346014453007,9.9999207192096016,10.166381293890041,10.332841868571373,10.499302443253612,10.66576301793677,10.832223592620826,10.998684167305781,11.165144741991652,11.2926109038537,11.372416408751056,11.452221913649323,11.532027418548525,11.611832923448659,11.691638428349712,11.771443933251698,11.851249438154618,11.931054943058458,12.01086044796323,12.022122094680288,12.01066547986475,11.999208865050173,11.987752250236548,11.97629563542387,11.964839020612164,11.9533824058014,11.941925790991595,11.878299680999621,11.771988542015867,11.665677403033088,11.559366264051302,11.4530551250705,11.346743986090667,11.240432847111828,11.13412170813397,11.027810569157094,10.921499430181195,10.756664418764682,10.552812570428044,10.34896072209242,10.145108873757803,9.9412570254242141,9.7374051770916132,9.533553328760048,9.3297014804294971,9.125849632099948,8.9219977837714168,8.6535053929509971,8.3502056161867966,8.0469058394236512,7.7436060626615379,7.44030628590047,7.137006509140452,6.8337067323814624,6.5304069556235325,6.2271071788666346,5.9238074021107847,5.5500064809331411,5.1459895935964965,4.7419727062609152,4.3379558189264431,3.9339389315930426,3.529922044260736,3.125905156929512,2.7218882695993654,2.3178713822703139,1.9138544949423462,1.4337080705914198,0.92818417445158041,0.42266027831285574,-0.082863617824755528,-0.58838751396124289,-1.0939114100966327,-1.5994353062308864,-2.1049592023640309,-2.6104830984960747,-3.1160069946269879,-3.7030423041596507,-4.3104564301127937,-4.9178705560647638,-5.5252846820155348,-6.1326988079651183,-6.7401129339134958,-7.3475270598606812,-7.954941185806689,-8.5623553117514923,-9.1697694376951144,-9.8640175629340678,-10.573590300713947,-11.283163038492642,-11.992735776270216,-12.702308514046596,-13.411881251821821,-14.121453989595857,-14.831026727368751,-15.540599465140486,-16.250172202911038,-17.051654271844434,-17.863349453949272,-18.675044636052846,-19.486739818155097,-20.298435000256116,-21.110130182355789,-21.921825364454211,-22.7335205465513,-23.545215728647161,-24.356910910741686,-25.265696034317536,-26.179592120819411,-27.093488207319997,-28.007384293819229,-28.921280380317143,-29.835176466813788,-30.749072553309095,-31.662968639803022,-32.576864726295682,-33.490760812787023,0.18977230078066384,0.18977230078066384,0.18977230078066384,0.18977230078066384,0.18977230078066384,0.18977230078066384,0.18977230078066384,0.18977230078066384,0.18977230078066384,0.18977230078066384,0.18977230078066384,0.18977230078066384
DP 486,138.09733145053886,0.001967439945579469,-57.076138026173773,-55.662330819608165,-54.248523613041129,-52.834716406472552,-51.420909199902539,-50.007101993330963,-48.593294786757866,-47.17948758018327,-45.765680373607175,-44.351873167029595,-42.940034014235309,-41.565588255401025,-40.191142496565249,-38.8166967377279,-37.442250978889184,-36.067805220048875,-34.693359461207116,-33.318913702363808,-31.944467943519026,-30.570022184672752,-29.203625787293984,-27.909674403974709,-26.615723020653974,-25.3217716373318,-24.027820254008152,-22.733868870683054,-21.439917487356471,-20.145966104028425,-18.85201472069895,-17.55806333736799,-16.281557212151423,-15.10390864889408,-13.926260085635265,-12.748611522374938,-11.57096295911313,-10.39331439584983,-9.2156658325850369,-8.0380172693187522,-6.8603687060509779,-5.6827201427817196,-4.5345093989182734,-3.5040513239377034,-2.4735932489556656,-1.4431351739721554,-0.41267709898718463,0.61778097599926585,1.6482390509871827,2.6786971259765693,3.7091552009674222,4.73961327595975,5.7270574681239665,6.5854583855055475,7.4438593028885975,8.3022602202731246,9.1606611376591438,10.019062055046641,10.877462972435609,11.735863889826051,12.59426480721798,13.452665724611389,14.253946102328715,14.92194297116902,15.589939840010777,16.257936708854047,16.925933577698789,17.593930446545031,18.261927315392761,18.929924184241965,19.597921053092676,20.265917921944855,20.863176952910258,21.329063803157283,21.794950653405778,22.2608375036558,22.726724353907322,23.192611204160336,23.658498054414849,24.124384904670858,24.590271754928374,25.056158605187377,25.439045628506769,25.69743095009936,25.955816271693422,26.214201593289,26.472586914886143,26.730972236484742,26.989357558084926,27.247742879686591,27.506128201289798,27.764513522894511,27.929640007357133,27.980781509765198,28.031923012174804,28.083064514585942,28.134206016998611,28.185347519412836,28.236489021828614,28.287630524245884,28.338772026664731,28.389913529085121,28.037719240535264,27.886612842302021,27.735506444070392,27.584400045840297,27.433293647611791,27.282187249384865,27.131080851159471,26.979974452935657,26.722398293923213,26.377708682688461,26.033019071455254,25.688329460223684,25.343639848993703,24.998950237765282,24.654260626538491,24.309571015313296,23.964881404089684,23.620191792867683,23.166076877958449,22.6390100367522,22.111943195547582,21.584876354344591,21.057809513143233,20.530742671943486,20.003675830745404,19.476608989548925,18.949542148354094,18.422475307160884,17.785078539594945,17.088271745745732,16.391464951898204,15.694658158052357,14.997851364208156,14.301044570365622,13.604237776524757,12.907430982685575,12.210624188848039,11.513817395012181,10.707326323823208,9.8538258538523422,9.0003253838831423,8.1468249139157081,7.2933244439499525,6.43982397398594,5.5863235040236274,4.7328230340630153,3.8793225641041427,3.0258220941469771,2.0641899836652193,1.0665126302435848,0.068835276823695141,-0.9288420765944464,-1.92651943001082,-2.9241967834254772,-3.9218741368383387,-4.9195514902494661,-5.9172288436588723,-6.9149061970664913,-8.01887346425373,-9.1494144657175127,-10.279955467179475,-11.410496468639561,-12.541037470097818,-13.671578471554197,-14.802119473008728,-15.932660474461397,-17.063201475912205,-18.19374247736123,-19.429344512087123,-20.683487897449385,-21.937631282809818,-23.191774668168495,-24.445918053525311,-25.700061438880336,-26.954204824233535,-28.208348209584937,-29.462491594934505,-30.716634980282297,-32.075591830682477,-33.446195722431867,-34.816799614179253,-36.187403505924706,-37.558007397668227,-38.928611289409652,-40.299215181149215,-41.669819072886725,-43.04042296462228,-44.4110268563559,-45.88825058766519,-47.371086950302555,-48.853923312938,-50.336759675571258,-51.819596038202633,-53.30243240083194,-54.785268763459264,-56.268105126084464,-57.750941488707731,-59.233777851328895,0.29802772375520475,0.29802772375520475,0.29802772375520475,0.29802772375520475,0.29802772375520475,0.29802772375520475,0.29802772375520475,0.29802772375520475,0.29802772375520475,0.29802772375520475,0.29802772375520475,0.29802772375520475
DP 487,124.65703566027021,0.0049093391934248382,-131.33969432058888,-128.14425207875632,-124.94880983691998,-121.75336759508011,-118.55792535323647,-115.36248311138924,-112.16704086953827,-108.97159862768363,-105.77615638582535,-102.58071414396335,-99.389499394748029,-96.2786078050686,-93.167716215385482,-90.056824625698667,-86.945933036008228,-83.835041446314222,-80.724149856616492,-77.613258266915082,-74.502366677210091,-71.391475087501334,-68.297923239252526,-65.360430703154776,-62.422938167053466,-59.485445630948639,-56.547953094840238,-53.610460558728214,-50.672968022612693,-47.7354754864936,-44.797982950370923,-41.860490414244673,-38.960726691841352,-36.274761958013528,-33.588797224182052,-30.902832490346942,-28.216867756508194,-25.530903022665822,-22.844938288819787,-20.158973554970107,-17.473008821116824,-14.787044087259883,-12.165111618042237,-9.79931123360923,-7.4335108491726327,-5.0677104647324445,-2.7019100802886706,-0.33610969584128453,2.0296906886096822,4.3954910730642522,6.7612914575224012,9.1270918419841447,11.398661946353329,13.38753764772113,15.376413349092561,17.365289050467606,19.354164751846259,21.343040453228543,23.331916154614419,25.320791856003961,27.309667557397084,29.29854325879386,31.161191396703842,32.729303581804523,34.297415766908756,35.865527952016684,37.433640137128236,39.001752322243405,40.569864507362269,42.137976692484806,43.706088877610917,45.274201062740708,46.684393490578167,47.801302104352324,48.918210718130176,50.03511933191168,51.152027945696908,52.26893655948583,53.385845173278376,54.502753787074624,55.619662400874532,56.736571014678184,57.666006632629994,58.314228326746168,58.962450020866015,59.610671714989664,60.258893409116929,60.907115103248,61.555336797382772,62.203558491521228,62.851780185663465,63.500001879809417,63.934789581641233,64.108709031956067,64.2826284822747,64.456547932597118,64.630467382923214,64.804386833253233,64.97830628358696,65.152225733924467,65.326145184265783,65.500064634610837,64.847615138492387,64.55185056208623,64.256085985683967,63.960321409285442,63.66455683289086,63.368792256500136,63.073027680113263,62.777263103730192,62.230239191271544,61.477635140316288,60.725031089364862,59.972427038417422,59.219822987473833,58.467218936534309,57.714614885598614,56.962010834666849,56.209406783739063,55.45680273281522,54.441427478509794,53.250867282366166,52.060307086226565,50.869746890090987,49.679186693959451,48.488626497831852,47.298066301708396,46.10750610558889,44.916945909473455,43.726385713361964,42.265899795403222,40.660065332795831,39.054230870192626,37.4483964075935,35.842561944998522,34.236727482407716,32.630893019821016,31.025058557238488,29.41922409466008,27.813389632085784,25.933910719349875,23.937150994883659,21.940391270421575,19.943631545963825,17.946871821510246,15.950112097060961,13.953352372615903,11.956592648175038,9.95983292373846,7.9630731993061126,5.6911111110495005,3.3274114331886024,0.963711755332023,-1.3999879225202345,-3.7636876003681206,-6.1273872782117609,-8.4910869560509674,-10.85478663388588,-13.218486311716527,-15.582185989542756,-18.2217134603317,-20.930201138309183,-23.63868881628218,-26.347176494250494,-29.0556641722143,-31.764151850173413,-34.472639528127978,-37.181127206077953,-39.889614884023359,-42.5981025619642,-45.584091794482873,-48.619054975430451,-51.654018156373418,-54.688981337312008,-57.723944518246078,-60.758907699175694,-63.793870880100741,-66.828834061021325,-69.863797241937476,-72.898760422849222,-76.214607477717692,-79.561666801856148,-82.908726125989759,-86.25578545011841,-89.602844774242328,-92.949904098361159,-96.296963422475244,-99.644022746584227,-102.99108207068853,-106.33814139478774,-109.97363539597214,-113.62431303944307,-117.27499068290892,-120.92566832636972,-124.57634596982561,-128.22702361327666,-131.87770125672259,-135.52837890016335,-139.17905654359927,-142.82973418702994,0.73766875244174324,0.73766875244174324,0.73766875244174324,0.73766875244174324,0.73766875244174324,0.73766875244174324,0.73766875244174324,0.73766875244174324,0.73766875244174324,0.73766875244174324,0.73766875244174324,0.73766875244174324
DP 488,91.936389599638829,0.0026105135229309217,-55.331596559124286,-54.056872800685063,-52.782149042244065,-51.507425283801389,-50.2327015253569,-48.957977766910695,-47.683254008462804,-46.408530250013115,-45.133806491561707,-43.859082733108579,-42.585821702850488,-41.340352784850836,-40.094883866849479,-38.849414948846331,-37.60394603084152,-36.358477112834947,-35.113008194826627,-33.867539276816629,-32.622070358804812,-31.376601440791326,-30.137177954532646,-28.952163925506245,-27.767149896478138,-26.582135867448326,-25.397121838416812,-24.212107809383607,-23.027093780348693,-21.842079751312081,-20.657065722273753,-19.472051693233741,-18.300333557165221,-17.203959652443967,-16.107585747720961,-15.011211842996216,-13.91483793826974,-12.81846403354151,-11.722090128811532,-10.625716224079804,-9.5293423193463518,-8.4329684146111443,-7.3594959764681969,-6.377630487041225,-5.3957649976125248,-4.4138995081820935,-3.4320340187499392,-2.4501685293160462,-1.4683030398804262,-0.4864375504430713,0.4954279389960089,1.4772934284368227,2.4248174300459984,3.26931566975266,4.1138139094610668,4.9583121491712339,5.8028103888831462,6.6473086285968215,7.491806868312235,8.3363051080294124,9.1808033477483253,10.025301587469009,10.822733826647188,11.510343544248826,12.197953261852239,12.885562979457415,13.573172697064379,14.260782414673109,14.948392132283596,15.636001849895882,16.323611567509918,17.011221285125742,17.638349261886226,18.153152372249771,18.667955482615127,19.182758592982282,19.697561703351226,20.212364813721958,20.72716792409452,21.241971034468861,21.756774144845007,22.271577255222926,22.712340715278128,23.042042950263962,23.371745185251605,23.701447420241124,24.031149655232458,24.360851890225593,24.690554125220594,25.020256360217363,25.349958595216034,25.679660830216513,25.9221134635505,26.057925862189272,26.193738260829925,26.329550659472432,26.465363058116818,26.601175456763066,26.736987855411176,26.872800254061172,27.008612652713012,27.144425051366682,27.053222635000147,26.98957881167156,26.925934988344896,26.862291165020149,26.798647341697258,26.7350035183763,26.67135969505728,26.607715871740162,26.43285988613918,26.167010220136426,25.901160554135647,25.635310888136821,25.369461222139954,25.103611556145033,24.837761890152063,24.571912224161068,24.306062558172,24.040212892184933,23.652792566329389,23.184323218723378,22.715853871119396,22.247384523517429,21.778915175917454,21.310445828319491,20.841976480723552,20.373507133129582,19.905037785537647,19.436568437947724,18.837291334209549,18.167577382679376,17.497863431151281,16.828149479625232,16.158435528101251,15.488721576579316,14.819007625059456,14.149293673541663,13.479579722025917,12.809865770512236,12.001107320288634,11.13275602370668,10.264404727126822,9.39605343054914,8.52770213397356,7.6593508374001331,6.7909995408288344,5.9226482442596478,5.0542969476926194,4.1859456511277111,3.1710635332937613,2.10733596166653,1.043608390041475,-0.020119181581398776,-1.083846753202071,-2.1475743248205958,-3.2113018964368916,-4.2750294680510148,-5.3387570396629922,-6.4024846112727483,-7.6196939185375232,-8.8752754731265888,-10.130857027713375,-11.386438582297819,-12.642020136879944,-13.897601691459718,-15.153183246037198,-16.408764800612335,-17.664346355185156,-18.919927909755682,-20.336007604320116,-21.780412284822109,-23.224816965321786,-24.669221645819281,-26.113626326314407,-27.558031006807308,-29.00243568729794,-30.446840367786276,-31.891245048272349,-33.335649728756195,-34.947551969785117,-36.578066809993416,-38.208581650199278,-39.83909649040254,-41.469611330603421,-43.100126170801722,-44.730641010997594,-46.361155851190851,-47.991670691381728,-49.622185531570146,-51.42808795670318,-53.243223052395649,-55.058358148085532,-56.873493243772941,-58.6886283394578,-60.503763435140073,-62.318898530819759,-64.134033626496915,-65.949168722171436,-67.764303817843469,0.37245098390318787,0.37245098390318787,0.37245098390318787,0.37245098390318787,0.37245098390318787,0.37245098390318787,0.37245098390318787,0.37245098390318787,0.37245098390318787,0.37245098390318787,0.37245098390318787,0.37245098390318787
DP 489,107.66960902746472,0.001917418530160574,-45.763942411965182,-44.679140929915988,-43.594339447865408,-42.509537965813486,-41.424736483760192,-40.339935001705541,-39.255133519649505,-38.170332037592082,-37.08553055553331,-36.000729073473167,-34.917265188990122,-33.859215911362924,-32.801166633734361,-31.743117356104445,-30.685068078473172,-29.627018800840538,-28.568969523206512,-27.51092024557116,-26.452870967934409,-25.394821690296318,-24.34227951490719,-23.339301780310805,-22.336324045713077,-21.333346311114028,-20.330368576513628,-19.327390841911907,-18.324413107308843,-17.321435372704457,-16.318457638098742,-15.315479903491688,-14.324549381029199,-13.40188715320787,-12.479224925385202,-11.55656269756115,-10.633900469735755,-9.71123824190898,-8.78857601408085,-7.8659137862513555,-6.9432515584204983,-6.0205893305882867,-5.1185270412683579,-4.2988654795713828,-3.4792039178730692,-2.6595423561734,-1.8398807944723916,-1.0202192327700268,-0.20055767106631781,0.61910389063874338,1.4387654523451472,2.258427014052899,3.0474855390255788,3.7447337967318548,4.4419820544394888,5.1392303121484879,5.8364785698588513,6.5337268275705682,7.2309750852836512,7.9282233429980948,8.6254716007138956,9.3227198584310589,9.9784974055701312,10.537508328080303,11.096519250591845,11.655530173104761,12.214541095619053,12.7735520181347,13.332562940651751,13.891573863170171,14.450584785689953,15.009595708211101,15.516016217757898,15.924767397229957,16.3335185767034,16.742269756178239,17.151020935654454,17.559772115132073,17.968523294611071,18.377274474091454,18.786025653573233,19.194776833056391,19.540119350857566,19.790347377764924,20.040575404673667,20.290803431583846,20.5410314584954,20.7912594854084,21.041487512322806,21.291715539238609,21.541943566155819,21.792171593074432,21.968936903508403,22.055912906282138,22.142888909057287,22.229864911833872,22.316840914611891,22.403816917391357,22.490792920172229,22.577768922954558,22.66474492573834,22.751720928523522,22.600580184728177,22.522728375063,22.4448765653993,22.367024755737059,22.28917294607627,22.211321136416966,22.133469326759105,22.0556175171027,21.887702007901666,21.646096469445954,21.404490930991731,21.16288539253901,20.921279854087814,20.67967431563806,20.438068777189844,20.196463238743107,19.954857700297886,19.713252161854136,19.375284346724655,18.973073495755106,18.5708626447871,18.168651793820622,17.76644094285567,17.36423009189226,16.962019240930395,16.55980838997003,16.157597539011221,15.755386688053923,15.25177495275849,14.693561266734617,14.13534758071232,13.577133894691618,13.018920208672467,12.460706522654906,11.9024928366389,11.344279150624493,10.786065464611632,10.227851778600346,9.564249425630555,8.8554787222675149,8.1467080189060574,7.4379373155462609,6.7291666121880569,6.0203959088314987,5.3116252054765516,4.6028545021232068,3.8940837987715047,3.1853130954214115,2.3678871824784662,1.5142414969743632,0.66059581147191115,-0.1930498740288849,-1.0466955595280096,-1.9003412450255088,-2.75398693052131,-3.607632616015469,-4.4612783015079973,-5.3149239869988332,-6.2800859713732029,-7.2731283480507924,-8.266170724726642,-9.25921310140072,-10.252255478073051,-11.245297854743601,-12.238340231412405,-13.23138260807945,-14.224424984744727,-15.217467361408261,-16.325087949352753,-17.452929495766838,-18.58077104217918,-19.708612588589865,-20.836454134998764,-21.964295681406004,-23.092137227811481,-24.219978774215249,-25.347820320617306,-26.47566186701766,-27.721446607354295,-28.980337385698355,-30.239228164040551,-31.498118942380845,-32.757009720719289,-34.0159004990558,-35.274791277390484,-36.533682055723204,-37.792572834054134,-39.051463612383124,-40.432783904298418,-41.820549072947806,-43.208314241595296,-44.596079410240854,-45.983844578884479,-47.371609747526236,-48.759374916166017,-50.14714008480383,-51.534905253439788,-52.922670422073764,0.28252943294780669,0.28252943294780669,0.28252943294780669,0.28252943294780669,0.28252943294780669,0.28252943294780669,0.28252943294780669,0.28252943294780669,0.28252943294780669,0.28252943294780669,0.28252943294780669,0.28252943294780669
DP 490,307.27819273399257,0.0012293969496752816,-64.2584380735218,-62.419301045246506,-60.58016401697018,-58.74102698869293,-56.901889960414671,-55.062752932135524,-53.223615903855446,-51.384478875574324,-49.545341847292292,-47.706204819009258,-45.871102229070104,-44.112654730370096,-42.354207231669243,-40.595759732967352,-38.8373122342646,-37.078864735560835,-35.320417236856144,-33.561969738150538,-31.803522239443922,-30.045074740736386,-28.302638748780748,-26.704307831035624,-25.10597691328957,-23.507645995542575,-21.90931507779467,-20.310984160045845,-18.712653242296113,-17.114322324545451,-15.515991406793894,-13.917660489041404,-12.352431787797268,-10.974784399357807,-9.5971370109174181,-8.2194896224760932,-6.8418422340338356,-5.4641948455906473,-4.0865474571465192,-2.7089000687014573,-1.3312526802554703,0.046394708191448676,1.3717086387733781,2.4876862645710651,3.6036638903696638,4.7196415161691734,5.8356191419695982,6.951596767770944,8.0675743935731941,9.1835520193763713,10.299529645180449,11.415507270985451,12.461025237963453,13.295161564476466,14.129297890990388,14.963434217505228,15.797570544020973,16.631706870537641,17.465843197055221,18.299979523573729,19.134115850093142,19.968252176613468,20.717545913222178,21.268870265264511,21.820194617307795,22.371518969351985,22.922843321397082,23.474167673443091,24.025492025490021,24.576816377537881,25.128140729586644,25.679465081636319,26.136939191732225,26.420117460808946,26.703295729886563,26.98647399896516,27.269652268044634,27.552830537125026,27.836008806206355,28.119187075288615,28.402365344371766,28.685543613455827,28.871742715473086,28.912470775235921,28.953198834999743,28.99392689476446,29.034654954530119,29.075383014296683,29.116111074064168,29.156839133832591,29.197567193601941,29.238295253372222,29.184334425506396,29.014640746055569,28.844947066605688,28.675253387156694,28.505559707708642,28.335866028261552,28.166172348815365,27.996478669370127,27.826784989925809,27.657091310482453,26.707573790424775,26.361705185248841,26.015836580073863,25.669967974899809,25.324099369726706,24.978230764554535,24.632362159383327,24.286493554213042,23.862045058619834,23.37330257495622,22.884560091293547,22.39581760763183,21.907075123971097,21.418332640311309,20.929590156652463,20.440847672994618,19.952105189337676,19.463362705681735,18.907043461524829,18.305671979125581,17.70430049672731,17.102929014330019,16.501557531933695,15.90018604953833,15.298814567143967,14.697443084750557,14.096071602358144,13.494700119966677,12.837041276213043,12.149073034747689,11.461104793283349,10.773136551819986,10.085168310357616,9.3972000688962449,8.7092318274358629,8.021263585976488,7.3332953445180884,6.6453271030606924,5.9117345784776347,5.15858801961192,4.4054414607471868,3.6522949018835109,2.8991483430208254,2.14600178415917,1.3928552252985276,0.639708666438883,-0.11343789241972488,-0.86658445127732453,-1.6559394704720058,-2.4573644327745994,-3.25878939507616,-4.0602143573766929,-4.8616393196761756,-5.6630642819746511,-6.46448924427206,-7.2659142065684446,-8.0673391688638265,-8.8687641311581391,-9.6985413104761076,-10.535406879035326,-11.372272447593474,-12.209138016150526,-13.046003584706499,-13.882869153261371,-14.719734721815161,-15.556600290367861,-16.39346585891947,-17.230331427470023,-18.089521539058577,-18.952651524140627,-19.815781509221594,-20.678911494301541,-21.54204147938038,-22.405171464458178,-23.268301449534892,-24.131431434610544,-24.994561419685137,-25.8576914047587,-26.7388465576331,-27.622004696235731,-28.505162834837215,-29.3883209734375,-30.27147911203674,-31.154637250634728,-32.037795389231633,-32.920953527827315,-33.804111666421917,-34.687269805015333,-35.586158084773409,-36.4858744232057,-37.385590761636855,-38.285307100066795,-39.185023438495577,-40.084739776923215,-40.984456115349694,-41.884172453774909,-42.783888792199029,-43.68360513062192,0.17433135244727521,0.17433135244727521,0.17433135244727521,0.17433135244727521,0.17433135244727521,0.17433135244727521,0.17433135244727521,0.17433135244727521,0.17433135244727521,0.17433135244727521,0.17433135244727521,0.17433135244727521
DP 491,167.37660081601481,0.00495966766388558,-167.48979019915532,-163.19997159900868,-158.91015299885808,-154.62033439870356,-150.33051579854504,-146.04069719838282,-141.75087859821647,-137.46105999804621,-133.17124139787236,-128.8814227976944,-124.5981981972198,-120.44026083773936,-116.28232347825509,-112.12438611876691,-107.96644875927488,-103.80851139977895,-99.650574040279167,-95.492636680775334,-91.3346993212677,-87.176761961756256,-83.045641867107136,-79.155879691065934,-75.266117515020852,-71.3763553389721,-67.486593162919561,-63.59683098686321,-59.707068810803065,-55.81730663473914,-51.927544458671427,-48.037782282599942,-44.205647741802416,-40.700073432285066,-37.194499122763858,-33.688924813238785,-30.183350503709882,-26.677776194177092,-23.172201884640447,-19.666627575099948,-16.161053265555605,-12.655478956007421,-9.2460081941978824,-6.2209561652858154,-3.1959041363699763,-0.17085210745032556,2.854199921473092,5.8792519504003309,8.90430397933134,11.929356008266167,14.954408037204775,17.979460066147162,20.866169467348325,23.337845754774797,25.809522042205103,28.28119832963921,30.752874617077104,33.224550904518836,35.696227191964375,38.167903479413745,40.6395797668669,43.11125605432386,45.40250308251639,47.272741399738621,49.142979716964646,51.013218034194495,52.88345635142818,54.753694668665709,56.623932985907047,58.494171303152257,60.36440962040124,62.234647937654067,63.88609620685299,65.131214192416877,66.3763321779846,67.621450163556233,68.866568149131652,70.111686134710979,71.356804120294129,72.601922105881215,73.847040091471982,75.092158077066685,76.086654237425975,76.705211737643509,77.323769237865051,77.942326738090429,78.560884238319744,79.179441738552882,79.7979992387899,80.416556739030867,81.035114239275714,81.653671739524455,81.998124108321718,82.007553336717407,82.016982565117019,82.026411793520566,82.035841021928093,82.045270250339485,82.0546994787548,82.06412870717412,82.073557935597393,82.082987164024516,80.668913924370045,80.101397692165051,79.533881459964093,78.966365227767071,78.398848995574113,77.831332763385134,77.263816531200135,76.696300299019086,75.834864327451584,74.732943517892267,73.631022708337127,72.5291018987861,71.427181089238971,70.32526027969601,69.223339470157086,68.121418660622268,67.019497851091458,65.917577041564726,64.524181546060746,62.936465001472186,61.3487484568879,59.76103191230775,58.1733153677317,56.585598823159806,54.997882278592193,53.410165734028524,51.82244918946914,50.234732644913848,48.364249037653394,46.34150213085438,44.318755224059672,42.296008317269205,40.273261410482966,38.250514503700991,36.227767596923258,34.205020690149816,32.18227378338063,30.159526876615665,27.866975154031682,25.458788242101122,23.0506013301748,20.642414418252972,18.234227506335404,15.826040594422219,13.417853682513414,11.009666770608884,8.6014798587087817,6.1932929468130142,3.5302569854005816,0.78226812899610931,-1.9657207274039374,-4.7137095837995506,-7.4616984401906787,-10.209687296577455,-12.957676152959674,-15.705665009337496,-18.453653865710958,-21.201642722079885,-24.189608974919818,-27.237572412246898,-30.285535849569374,-33.333499286887111,-36.381462724200176,-39.4294261615085,-42.4773895988122,-45.525353036111156,-48.573316473405448,-51.621279910695151,-54.897086740515071,-58.213103761490274,-61.529120782460708,-64.845137803426766,-68.161154824388078,-71.477171845344884,-74.793188866297,-78.109205887244727,-81.42522290818772,-84.741239929126209,-88.276948232137471,-91.837068984875515,-95.397189737608684,-98.957310490336766,-102.51743124305987,-106.07755199577802,-109.63767274849124,-113.19779350119936,-116.75791425390258,-120.31803500660072,-124.09659952126883,-127.8866632494663,-131.67672697765877,-135.46679070584619,-139.25685443402855,-143.04691816220597,-146.83698189037827,-150.62704561854511,-154.41710934670721,-158.2071730748641,0.75409692233166259,0.75409692233166259,0.75409692233166259,0.75409692233166259,0.75409692233166259,0.75409692233166259,0.75409692233166259,0.75409692233166259,0.75409692233166259,0.75409692233166259,0.75409692233166259,0.75409692233166259
DP 492,73.507644453097157,0.0015412437936745658,-27.901535024443735,-27.284521670775639,-26.667508317106577,-26.050494963436677,-25.433481609765888,-24.816468256094186,-24.1994549024216,-23.582441548748154,-22.965428195073766,-22.34841484139854,-21.732048560759154,-21.127976790142643,-20.523905019525227,-19.919833248906908,-19.3157614782877,-18.7116897076676,-18.107617937046609,-17.503546166424723,-16.899474395801935,-16.295402625178252,-15.694017422501942,-15.116811585298263,-14.539605748093697,-13.962399910888246,-13.385194073681888,-12.807988236474657,-12.230782399266529,-11.653576562057525,-11.076370724847617,-10.499164887636825,-9.92790566947645,-9.3903443339957953,-8.85278299851423,-8.3152216630317533,-7.7776603275483724,-7.2400989920640777,-6.7025376565788681,-6.1649763210927544,-5.62741498560573,-5.0898536501178,-4.5626297795653095,-4.076756257314269,-3.5908827350623214,-3.1050092128094535,-2.6191356905556837,-2.1332621683009938,-1.6473886460453977,-1.1615151237888854,-0.67564160153146657,-0.18976807927313447,0.28042705460340972,0.70358643055459669,1.1267458065067106,1.5499051824597505,1.9730645584137187,2.3962239343686149,2.8193833103244388,3.2425426862811846,3.6657020622388607,4.0888614381974673,4.4902346572111078,4.8407726519957635,5.1913106467813712,5.5418486415679107,5.8923866363554005,6.2429246311438353,6.5934626259332143,6.9440006207235312,7.294538615514794,7.6450766103070045,7.9671638571278773,8.2364132322277452,8.50566260732857,8.7749119824303587,9.0441613575331239,9.3134107326368341,9.5826601077415052,9.85190948284715,10.121158857953752,10.390408233061327,10.624189595895571,10.804768102197137,10.985346608499697,11.165925114803231,11.346503621107757,11.527082127413257,11.707660633719755,11.888239140027208,12.068817646335672,12.249396152645112,12.387326645211191,12.473130891834479,12.558935138458775,12.644739385084096,12.730543631710413,12.816347878337739,12.902152124966067,12.987956371595416,13.073760618225757,13.159564864857131,13.167845533643362,13.153996763448065,13.140147993253812,13.126299223060597,13.112450452868407,13.098601682677268,13.084752912487152,13.070904142298073,13.000187290751313,12.882941031684215,12.765694772618186,12.64844851355322,12.531202254489326,12.413955995426502,12.296709736364734,12.179463477304038,12.062217218244404,11.94497095918584,11.764041289419026,11.540655009272539,11.317268729127152,11.093882448982864,10.870496168839676,10.647109888697589,10.423723608556593,10.200337328416703,9.9769510482779253,9.7535647681402313,9.4599615539155089,9.1285482002591429,8.7971348466039245,8.4657214929498288,8.1343081392968646,7.80289478564503,7.4714814319943361,7.1400680783447763,6.8086547246963347,6.4772413710490335,6.0693741011643807,5.6287395767238442,5.1881050522844676,4.7474705278462919,4.3068360034092672,3.8662014789734394,3.4255669545387843,2.984932430105292,2.5442979056729946,2.1036633812418639,1.5806007734368419,1.0300610990130656,0.47952142459049568,-0.071018249830868282,-0.62155792425101442,-1.1720975986699724,-1.7226372730876971,-2.2731769475042207,-2.8237166219195546,-3.3742562963336611,-4.0129285479177144,-4.6736349850943721,-5.3343414222697625,-5.9950478594438525,-6.6557542966166512,-7.3164607337881513,-7.9771671709583689,-8.6378736081272862,-9.2985800452949174,-9.9592864824612821,-10.713769711897875,-11.484802829840534,-12.255835947781907,-13.026869065722062,-13.797902183660918,-14.568935301598533,-15.339968419534859,-16.111001537469953,-16.882034655403775,-17.65306777333635,-18.5232733090038,-19.404499043741346,-20.285724778477515,-21.16695051321226,-22.048176247945644,-22.929401982677618,-23.810627717408209,-24.691853452137369,-25.573079186865172,-26.454304921591582,-27.440235430814109,-28.431677759412221,-29.423120088008869,-30.414562416604092,-31.406004745197873,-32.39744707379031,-33.38888940238126,-34.380331730970745,-35.371774059558881,-36.363216388145531,0.20567520382951288,0.20567520382951288,0.20567520382951288,0.20567520382951288,0.20567520382951288,0.20567520382951288,0.20567520382951288,0.20567520382951288,0.20567520382951288,0.20567520382951288,0.20567520382951288,0.20567520382951288
DP 493,200.2910887795226,0.0024227706204957987,-93.936613494131535,-91.454004335041915,-88.971395175950164,-86.488786016856523,-84.0061768577609,-81.523567698663342,-79.04095853956386,-76.558349380462488,-74.0757402213591,-71.593131062253818,-69.114729430457274,-66.71627161297242,-64.317813795485677,-61.919355977997043,-59.5208981605065,-57.12244034301397,-54.723982525519546,-52.3255247080232,-49.927066890524976,-47.528609073024739,-45.147159504100266,-42.918785780021693,-40.690412055941181,-38.462038331858878,-36.233664607774692,-34.005290883688637,-31.77691715960075,-29.548543435510936,-27.320169711419297,-25.091795987325806,-22.899634724652969,-20.912679691949538,-18.925724659244228,-16.938769626537002,-14.951814593827891,-12.964859561116874,-10.977904528403959,-8.9909494956891383,-7.0039944629724253,-5.017039430253817,-3.0897052927544224,-1.4008575538692509,0.28799018501777751,1.9768379239066787,3.6656856627974306,5.3545334016900634,7.0433811405845477,8.732228879480914,10.421076618379134,12.109924357279212,13.7143223327312,15.065367824906446,16.416413317083549,17.767458809262525,19.11850430144337,20.469549793626086,21.820595285810683,23.171640777997144,24.522686270185488,25.873731762375691,27.116750217823032,28.107701333003156,29.098652448185181,30.089603563369085,31.080554678554833,32.071505793742475,33.062456908932013,34.053408024123421,35.044359139316661,36.035310254511806,36.898184366244294,37.52319772696471,38.148211087686988,38.773224448411177,39.398237809137242,40.023251169865205,40.64826453059505,41.273277891326764,41.898291252060361,42.523304612795904,43.005297322560047,43.272755676235313,43.540214029912526,43.807672383591573,44.07513073727258,44.342589090955478,44.610047444640266,44.877505798326936,45.144964152015511,45.412422505706047,45.5278329538131,45.457403879141772,45.386974804472317,45.316545729804794,45.246116655139275,45.175687580475589,45.105258505813858,45.034829431154066,44.964400356496206,44.893971281840216,43.907171492301458,43.5265368050041,43.145902117708708,42.765267430415264,42.384632743123753,42.003998055834217,41.623363368546649,41.242728681260992,40.709352738424784,40.051004052443176,39.392655366463565,38.734306680485886,38.075957994510219,37.417609308536562,36.759260622564838,36.100911936595111,35.442563250627352,34.784214564661625,33.97988937156164,33.078244207388067,32.176599043216484,31.274953879046947,30.373308714879464,29.471663550713913,28.570018386550469,27.668373222388986,26.766728058229564,25.865082894072131,24.827369341883767,23.716386217467736,22.605403093053805,21.494419968641935,20.383436844232122,19.272453719824355,18.161470595418653,17.050487471015067,15.939504346613488,14.828521222213993,13.593167236578216,12.304509354032238,11.015851471488302,9.7271935889465446,8.4385357064068618,7.1498778238693239,5.8612199413338946,4.5725620588005462,3.2839041762693455,1.9952462937402526,0.59435420830948993,-0.84395069255719191,-2.2822555934217279,-3.7205604942841117,-5.15886539514432,-6.59717029600242,-8.0354751968582967,-9.473780097712055,-10.912084998563691,-12.350389899413111,-13.889497185833342,-15.4538062596415,-17.01811533344743,-18.582424407251061,-20.146733481052465,-21.711042554851527,-23.275351628648362,-24.8396607024429,-26.403969776235179,-27.968278850025229,-29.623978890002203,-31.295807763821475,-32.9676366376384,-34.639465511453281,-36.3112943852658,-37.983123259076137,-39.654952132884262,-41.326781006690155,-42.998609880493788,-44.670438754295276,-46.42685717179107,-48.192675315863468,-49.958493459933521,-51.724311604001109,-53.490129748066309,-55.255947892129065,-57.021766036189426,-58.787584180247407,-60.553402324302922,-62.319220468356065,-64.166795947357841,-66.01867525743998,-67.870554567519619,-69.722433877596757,-71.574313187671436,-73.4261924977437,-75.2780718078135,-77.1299511178808,-78.981830427945638,-80.833709738008025,0.36513348483215169,0.36513348483215169,0.36513348483215169,0.36513348483215169,0.36513348483215169,0.36513348483215169,0.36513348483215169,0.36513348483215169,0.36513348483215169,0.36513348483215169,0.36513348483215169,0.36513348483215169
DP 494,198.89589858419043,0.0023563114828246958,-90.87975720827005,-88.480896127993631,-86.08203504771538,-83.683173967435209,-81.284312887153121,-78.885451806869241,-76.486590726583358,-74.087729646295585,-71.688868566006008,-69.290007485714511,-66.895196183409837,-64.5773314284776,-62.259466673543585,-59.941601918607567,-57.623737163669752,-55.305872408730046,-52.988007653788522,-50.670142898845022,-48.352278143899738,-46.034413388952544,-43.7329230921345,-41.578804466235773,-39.424685840335286,-37.270567214432944,-35.116448588528776,-32.962329962622825,-30.808211336715058,-28.654092710805436,-26.49997408489406,-24.345855458980843,-22.2266138316511,-20.305010727392624,-18.38340762313231,-16.461804518870149,-14.540201414606145,-12.618598310340287,-10.696995206072588,-8.77539210180304,-6.8537889975316482,-4.9321858932584179,-3.0680348687293271,-1.4336948784140644,0.20064511190300119,1.8349851022218886,3.4693250925425754,5.1036650828650973,6.7380050731894165,8.3723450635155618,10.006685053843514,11.64102504417327,13.193930406242188,14.502528804594281,15.811127202948207,17.119725601303962,18.428323999661504,19.736922398020909,21.045520796382107,22.354119194745145,23.662717593109974,24.971315991476636,26.175662008043048,27.136748361202617,28.097834714364019,29.058921067527226,30.020007420692245,30.981093773859126,31.942180127027818,32.90326648019834,33.864352833370681,34.82543918654482,35.662806693329074,36.270407287076253,36.878007880825287,37.485608474576132,38.093209068328804,38.700809662083323,39.3084102558397,39.916010849597889,40.523611443357915,41.131212037119766,41.6005128519358,41.8623607302571,42.124208608580268,42.386056486905282,42.647904365232151,42.909752243560938,43.171600121891515,43.43344800022394,43.695295878558227,43.957143756894318,44.071789746090879,44.006519223285366,43.941248700481772,43.875978177680061,43.810707654880183,43.745437132082195,43.68016660928609,43.614896086491804,43.549625563699415,43.484355040908923,42.536787918379751,42.170814605477304,41.804841292576739,41.438867979678136,41.072894666781366,40.706921353886493,40.340948040993574,39.974974728102474,39.460731532190586,38.825174065683072,38.189616599177477,37.5540591326738,36.918501666172105,36.282944199672293,35.647386733174415,35.0118292666785,34.376271800184462,33.740714333692381,32.963240787766253,32.091154286532934,31.21906778530154,30.346981284072115,29.474894782844647,28.602808281619158,27.730721780395637,26.858635279174091,25.986548777954518,25.114462276736848,24.109875909724458,23.033941534350259,21.958007158978127,20.882072783607981,19.806138408239843,18.730204032873715,17.6542696575096,16.578335282147517,15.502400906787415,14.426466531429327,13.229211177177444,11.979959069926386,10.730706962677328,9.4814548554303943,8.23220274818547,6.9829506409426338,5.733698533701852,4.4844464264630934,3.2351943192264248,1.9859422119918066,0.62700266670953086,-0.76850074029421933,-2.1640041472958815,-3.5595075542954486,-4.9550109612928992,-6.3505143682883007,-7.7460177752815484,-9.1415211822727134,-10.537024589261824,-11.932527996248798,-13.426740120574891,-14.94563059049403,-16.464521060410995,-17.983411530325732,-19.502302000238267,-21.021192470148566,-22.540082940056664,-24.058973409962565,-25.577863879866232,-27.096754349767757,-28.705312240045973,-30.329694789857321,-31.954077339666465,-33.578459889473557,-35.202842439278406,-36.82722498908111,-38.451607538881667,-40.075990088680051,-41.70037263847626,-43.324755188270359,-45.032278759199343,-46.749041094541106,-48.465803429880538,-50.182565765217539,-51.899328100552253,-53.616090435884622,-55.332852771214654,-57.049615106542269,-58.766377441867583,-60.483139777190551,-62.280359895467335,-64.08181543442096,-65.883270973372248,-67.684726512321063,-69.486182051267591,-71.2876375902117,-73.089093129153412,-74.890548668092592,-76.692004207029569,-78.493459745964,0.35531253584797762,0.35531253584797762,0.35531253584797762,0.35531253584797762,0.35531253584797762,0.35531253584797762,0.35531253584797762,0.35531253584797762,0.35531253584797762,0.35531253584797762,0.35531253584797762,0.35531253584797762
DP 495,56.469367514761117,0.0015937270891567543,-24.298931612785708,-23.787516247799033,-23.276100882811633,-22.764685517823523,-22.253270152834677,-21.741854787845107,-21.230439422854818,-20.719024057863813,-20.207608692872061,-19.696193327879627,-19.185273011901039,-18.683758720785413,-18.18224442966908,-17.680730138551979,-17.179215847434154,-16.67770155631559,-16.176187265196297,-15.674672974076254,-15.173158682955492,-14.67164439183397,-14.172193766805412,-13.691316331680641,-13.210438896555104,-12.729561461428844,-12.248684026301827,-11.767806591174061,-11.286929156045549,-10.806051720916292,-10.325174285786286,-9.8442968506555371,-9.36801470798412,-8.9177728454891625,-8.4675309829934289,-8.0172891204969527,-7.5670472579996844,-7.1168053955016708,-6.6665635330028792,-6.2163216705033291,-5.76607980800301,-5.3158379455019231,-4.8736476142155718,-4.4636637883123047,-4.053679962408264,-3.6436961365034377,-3.2337123105978365,-2.8237284846914537,-2.413744658784295,-2.0037608328763548,-1.5937770069676385,-1.1837931810581446,-0.78614560548521462,-0.42550724734009249,-0.064868889194171872,0.29576946895254774,0.656407827100068,1.0170461852483867,1.3776845433975036,1.7383229015474209,2.098961259698132,2.4595996178496495,2.8028871517354825,3.1056887456585858,3.408490339582511,3.7112919335072547,4.0140935274328191,4.3168951213592042,4.61969671528641,4.92249830921444,5.2252999031432914,5.5281014970729627,5.8079285765330706,6.0450880800960851,6.2822475836599372,6.5194070872246384,6.7565665907901851,6.99372609435658,7.2308855979238169,7.4680451014919011,7.7052046050608292,7.9423641086306009,8.1504338975298758,8.3148684270222617,8.4793029565155233,8.6437374860096625,8.8081720155046668,8.9726065450005486,9.1370410744973,9.3014756039949251,9.4659101334934181,9.6303446629927887,9.7592059312810662,9.8445880219918447,9.9299701127035114,10.015352203416077,10.100734294129555,10.186116384843935,10.2714984755592,10.356880566275382,10.442262656992469,10.527644747710445,10.572237089552521,10.572997448177381,10.573757806803183,10.574518165429913,10.57527852405758,10.576038882686181,10.576799241315712,10.577559599946182,10.529123305470323,10.440434358427879,10.3517454113864,10.263056464345876,10.174367517306333,10.085678570267763,9.9969896232301547,9.908300676193516,9.819611729157856,9.73092278212315,9.586096115423187,9.40384341791042,9.221590720398666,9.0393380228879145,8.8570853253781721,8.6748326278694332,8.4925799303617051,8.3103272328549718,8.12807453534926,7.94582183784454,7.7005124909324856,7.4212486466162986,7.1419848023011729,6.8627209579870794,6.5834571136740232,6.3041932693620115,6.0249294250510328,5.7456655807411092,5.4664017364322151,5.1871378921243654,4.8379880833151878,4.45888596726802,4.0797838512219258,3.7006817351769388,3.3215796191330287,2.9424775030902159,2.563375387048493,2.1842732710078478,1.8051711549683034,1.4260690389298474,0.97037540071603179,0.48915028984018849,0.0079251789654666664,-0.47329993190813313,-0.95452504278060024,-1.4357501536519601,-1.9169752645221751,-2.3982003753912737,-2.8794254862592652,-3.3606505971261131,-3.9249538852317087,-4.5100276992285879,-5.0951015132242778,-5.6801753272187447,-6.2652491412120037,-6.8503229552040361,-7.4353967691948695,-8.0204705831844834,-8.6055443971728831,-9.190618211160082,-9.8651527179786438,-10.55547540070077,-11.245798083421706,-11.936120766141494,-12.626443448860062,-13.316766131577483,-14.007088814293683,-14.697411497008732,-15.387734179722582,-16.078056862435275,-16.86382754119651,-17.660204555280856,-18.45658156936388,-19.25295858344559,-20.049335597526007,-20.845712611605059,-21.642089625682846,-22.438466639759266,-23.234843653834382,-24.031220667908187,-24.9289269584649,-25.831967377022124,-26.735007795578024,-27.638048214132578,-28.541088632685767,-29.444129051237624,-30.347169469788103,-31.250209888337178,-32.153250306884956,-33.056290725431332,0.18995039692207663,0.18995039692207663,0.18995039692207663,0.18995039692207663,0.18995039692207663,0.18995039692207663,0.18995039692207663,0.18995039692207663,0.18995039692207663,0.18995039692207663,0.18995039692207663,0.18995039692207663
DP 496,104.41023923763247,0.0034610863419577581,-80.687405687500984,-78.785288208238256,-76.88317072897317,-74.981053249705624,-73.0789357704356,-71.176818291163215,-69.2747008118884,-67.372583332611143,-65.470465853331419,-63.568348374049293,-61.6685428516157,-59.812664946411452,-57.956787041204741,-56.100909135995657,-54.245031230784136,-52.389153325570135,-50.533275420353796,-48.677397515134977,-46.821519609913679,-44.96564170469005,-43.119289999418989,-41.358674994174294,-39.598059988927233,-37.837444983677813,-36.076829978426012,-34.3162149731718,-32.555599967915235,-30.794984962656262,-29.034369957394937,-27.27375495213122,-25.534000151741537,-23.912454493478023,-22.290908835212054,-20.669363176943648,-19.047817518672836,-17.42627186039957,-15.804726202123883,-14.183180543845753,-12.561634885565203,-10.940089227282233,-9.3542672961631332,-7.9113419620391072,-6.468416627912676,-5.0254912937838379,-3.5825659596525963,-2.1396406255189317,-0.69671529138286559,0.74621004275561686,2.189135376896501,3.6320607110397933,5.0218141347130443,6.2520498166149752,7.4822854985193326,8.71252118042613,9.942756862335365,11.172992544247027,12.403228226161119,13.633463908077648,14.863699589996596,16.093935271917989,17.251953031229309,18.241459460224259,19.230965889221654,20.220472318221507,21.209978747223808,22.19948517622856,23.188991605235792,24.178498034245472,25.168004463257606,26.157510892272203,27.055188759472429,27.782325389080434,28.509462018690918,29.236598648303893,29.963735277919351,30.690871907537264,31.418008537157707,32.145145166780608,32.872281796406,33.599418426033886,34.215493680005473,34.664974246069967,35.114454812136977,35.563935378206544,36.013415944278606,36.462896510353183,36.91237707643031,37.361857642509968,37.811338208592126,38.260818774676821,38.5811813353429,38.743730288402581,38.906279241464844,39.068828194529672,39.231377147597058,39.393926100667031,39.556475053739554,39.719024006814664,39.88157295989231,40.044121912972571,39.804734425252683,39.676469089794281,39.548203754338537,39.419938418885373,39.291673083434873,39.163407747986987,39.0351424125417,38.906877077099054,38.61904824800375,38.200664727343707,37.782281206686349,37.3638976860316,36.945514165379606,36.527130644730249,36.1087471240836,35.690363603439621,35.271980082798315,34.853596562159737,34.263727503464516,33.559532051222682,32.855336598983556,32.151141146747193,31.446945694513644,30.742750242282792,30.038554790054704,29.334359337829348,28.630163885606752,27.925968433386895,27.04048146216704,26.057373344420469,25.074265226676733,24.091157108935786,23.108048991197659,22.124940873462332,21.141832755729823,20.158724638000155,19.175616520273273,18.192508402549212,17.020084375385874,15.766521763027985,14.512959150672962,13.259396538320914,12.005833925971727,10.752271313625476,9.4987087012821263,8.2451460889416577,6.9915834766041289,5.7380208642695,4.2883624277546266,2.773336245149931,1.2583100625482053,-0.25671612005055072,-1.7717423026463066,-3.2867684852391412,-4.8017946678289363,-6.3168208504157741,-7.8318470329996925,-9.34687321558057,-11.064040354433363,-12.831745120680843,-14.599449886925196,-16.367154653166381,-18.134859419404417,-19.902564185639243,-21.670268951870948,-23.437973718099464,-25.205678484324839,-26.973383250547084,-28.949574447459646,-30.962559685833856,-32.975544924204932,-34.988530162573035,-37.001515400937919,-39.0145006392998,-41.02748587765857,-43.040471116014217,-45.053456354366858,-47.066441592716352,-49.294682433069681,-51.546842823225028,-53.799003213377148,-56.051163603525715,-58.303323993671071,-60.555484383812924,-62.807644773951424,-65.059805164086484,-67.311965554218332,-69.564125944346628,-72.0401575893179,-74.527974159341383,-77.015790729361456,-79.503607299378018,-81.991423869391042,-84.479240439400812,-86.967057009407057,-89.45487357940975,-91.94269014940906,-94.430506719404875,0.50726863350232565,0.50726863350232565,0.50726863350232565,0.50726863350232565,0.50726863350232565,0.50726863350232565,0.50726863350232565,0.50726863350232565,0.50726863350232565,0.50726863350232565,0.50726863350232565,0.50726863350232565
DP 497,148.71897941141711,0.0039443125758397406,-121.35102957210235,-118.30604703451424,-115.26106449692294,-112.21608195932863,-109.17109942173117,-106.12611688413068,-103.08113434652724,-100.03615180892062,-96.991169271310937,-93.946186733698255,-90.905605568211755,-87.9486513052339,-84.99169704225308,-82.034742779269124,-79.0777885162822,-76.120834253292131,-73.1638799902991,-70.206925727303,-67.2499714643038,-64.293017201301609,-61.354026490728728,-58.576709449990723,-55.799392409249755,-53.022075368505782,-50.244758327758895,-47.467441287009017,-44.690124246256168,-41.912807205500329,-39.135490164741562,-36.358173123979846,-33.619664545722209,-31.101073033830978,-28.582481521936728,-26.063890010039469,-23.5452984981392,-21.02670698623588,-18.50811547432955,-15.989523962420172,-13.470932450507782,-10.952340938592375,-8.4989552981161918,-6.3063962250882115,-4.1138371520572532,-1.9212780790233051,0.27128099401360284,2.4638400670535119,4.65639914009639,6.8489582131422617,9.0415172861910946,11.234076359242914,13.33188289400756,15.145428231442359,16.958973568880175,18.772518906320958,20.586064243764739,22.399609581211564,24.213154918661346,26.026700256114133,27.840245593569893,29.653790931028702,31.342344670748933,32.73924642641434,34.1361481820828,35.533049937754249,36.929951693428677,38.326853449106196,39.723755204786663,41.120656960470178,42.517558716156657,43.914460471846184,45.157773480732452,46.115846097713643,47.073918714697868,48.03199133168517,48.99006394867547,49.94813656566884,50.906209182665236,51.864281799664617,52.822354416667089,53.780427033672609,54.559885162843905,55.071417339535856,55.582949516230968,56.094481692929129,56.606013869630416,57.117546046334617,57.629078223041986,58.140610399752362,58.652142576465884,59.163674753182413,59.476518918451426,59.546518007442984,59.616517096437661,59.6865161854354,59.75651527443631,59.826514363440296,59.896513452447394,59.966512541457625,60.036511630470969,60.106510719487353,59.251201915351309,58.895077770350454,58.53895362535286,58.182829480358365,57.82670533536708,57.47058119037893,57.114457045393941,56.7583329004121,56.180610047907592,55.421575353643277,54.662540659382181,53.903505965124246,53.14447127086958,52.385436576618119,51.626401882369933,50.867367188124931,50.108332493883104,49.349297799644575,48.365524013058767,47.231920624465694,46.098317235875975,44.964713847289474,43.831110458706284,42.69750707012637,41.563903681549789,40.4303002929764,39.296696904406389,38.163093515839627,36.806117848760856,35.328861552720944,33.851605256684415,32.374348960651254,30.897092664621404,29.419836368594979,27.942580072571875,26.465323776552182,24.98806748053579,23.510811184522794,21.814833896963794,20.025115349839869,18.235396802719318,16.44567825560231,14.655959708488691,12.866241161378575,11.076522614271905,9.2868040671686369,7.4970855200688717,5.7073669729725571,3.7053791563929712,1.6326322414581931,-0.44011467347307359,-2.5128615884008223,-4.585608503325008,-6.6583554182457423,-8.7311023331628625,-10.803849248076489,-12.876596162986658,-14.949343077893214,-17.22752043603035,-19.5570578321672,-21.886595228300376,-24.216132624429804,-26.545670020555537,-28.875207416677487,-31.20474481279577,-33.534282208910305,-35.8638196050211,-38.193357001128241,-40.723046308265914,-43.28805876659662,-45.853071224923632,-48.418083683247147,-50.983096141566918,-53.548108599883072,-56.11312105819551,-58.678133516504367,-61.243145974809579,-63.808158433111188,-66.57046681581572,-69.3546990399693,-72.138931264118881,-74.92316348826445,-77.707395712406154,-80.491627936543807,-83.27586016067761,-86.060092384807291,-88.844324608933064,-91.628556833054887,-94.6118966685513,-97.605717833054371,-100.59953899755349,-103.5933601620485,-106.58718132653944,-109.58100249102635,-112.57482365550925,-115.5686448199879,-118.56246598446265,-121.55628714893328,0.59937128105269111,0.59937128105269111,0.59937128105269111,0.59937128105269111,0.59937128105269111,0.59937128105269111,0.59937128105269111,0.59937128105269111,0.59937128105269111,0.59937128105269111,0.59937128105269111,0.59937128105269111
DP 498,306.72638405811676,0.003007526291449,-157.01850286095447,-152.52609031429526,-148.03367776763363,-143.54126522096979,-139.04885267430353,-134.55644012763483,-130.06402758096388,-125.57161503429055,-121.07920248761489,-116.58678994093682,-112.10422095692778,-107.80868152454335,-103.51314209215657,-99.2176026597675,-94.922063227376086,-90.6265237949824,-86.330984362586335,-82.035444930188,-77.739905497787277,-73.444366065384273,-69.187895478130883,-65.283048190098285,-61.37820090206349,-57.473353614026486,-53.568506325987109,-49.663659037945536,-45.758811749901675,-41.853964461855611,-37.949117173807331,-34.044269885756762,-30.220205518472294,-26.853916126035102,-23.487626733595604,-20.1213373411538,-16.755047948709752,-13.388758556263413,-10.022469163814769,-6.6561797713638393,-3.2898903789106555,0.076399013544813946,3.314946101877736,6.04251793650916,8.770089771142807,11.497661605778704,14.225233440416819,16.952805275057205,19.680377109699805,22.407948944344625,25.135520778991705,27.863092613641019,30.418633327770497,32.458074176077325,34.497515024386367,36.536955872697661,38.576396721011207,40.615837569326978,42.655278417644993,44.694719265965276,46.73416011428769,48.773600962612441,50.605830562803646,51.954559089878693,53.303287616955942,54.652016144035514,56.000744671117282,57.349473198201281,58.698201725287518,60.046930252376072,61.395658779466793,62.744387306559766,63.863826050042086,64.557434717442263,65.251043384844692,65.944652052249353,66.638260719656273,67.331869387065467,68.025478054476864,68.719086721890477,69.4126953893065,70.106304056724611,70.5628856140643,70.663920905246727,70.764956196431484,70.865991487618444,70.96702677880765,71.068062069999186,71.169097361192954,71.27013265238898,71.371167943587267,71.472203234787827,71.341712561931132,70.928240847631585,70.514769133334369,70.101297419039454,69.687825704746842,69.274353990456476,68.8608822761684,68.447410561882592,68.033938847599117,67.62046713331786,65.30264158511514,64.458204893993,63.61376820287321,62.769331511755624,61.924894820640347,61.080458129527457,60.23602143841687,59.391584747308556,58.354831358866711,57.160724640233717,55.9666179216031,54.772511202974847,53.578404484348816,52.384297765725286,51.190191047103966,49.99608432848509,48.801977609868509,47.607870891254308,46.248292382106904,44.778396739166318,43.308501096228206,41.838605453292395,40.368709810358993,38.898814167427957,37.428918524499366,35.959022881573077,34.489127238649267,33.019231595727767,31.411434840068836,29.729381633766337,28.04732842746634,26.365275221168748,24.683222014873586,23.001168808580843,21.319115602290509,19.637062396002662,17.955009189717202,16.272955983434198,14.479062496375471,12.637235572676332,10.795408648979599,8.953581725285451,7.1117548015937269,5.26992787790452,3.4281009542177956,1.5862740305335101,-0.25555289314823609,-2.0973798168275151,-4.0280185128443415,-5.9882622522528939,-7.94850599165893,-9.9087497310624411,-11.868993470463392,-13.829237209861871,-15.789480949257745,-17.74972468865111,-19.709968428042011,-21.670212167430293,-23.700042674237693,-25.747270695077034,-27.794498715913786,-29.841726736747834,-31.888954757579278,-33.936182778407982,-35.983410799234065,-38.030638820057476,-40.077866840878244,-42.125094861696361,-44.2271523120606,-46.33888615381904,-48.450619995574812,-50.562353837328118,-52.674087679078625,-54.78582152082668,-56.897555362572064,-59.009289204314896,-61.121023046055058,-63.232756887792668,-65.388791407577969,-67.549748690183577,-69.710705972786471,-71.8716632553864,-74.032620537983689,-76.193577820578,-78.354535103169638,-80.515492385758307,-82.676449668344318,-84.83740695092736,-87.037045199949546,-89.238719674168337,-91.440394148384385,-93.642068622597549,-95.8437430968077,-98.0454175710152,-100.24709204521976,-102.44876651942131,-104.65044099362011,-106.85211546781588,0.4266260203075487,0.4266260203075487,0.4266260203075487,0.4266260203075487,0.4266260203075487,0.4266260203075487,0.4266260203075487,0.4266260203075487,0.4266260203075487,0.4266260203075487,0.4266260203075487,0.4266260203075487
DP 499,194.02485381224386,0.0025208156360327955,-95.416527226631118,-92.908883742978929,-90.401240259324652,-87.893596775668385,-85.385953292010072,-82.878309808349826,-80.370666324687434,-77.863022841023152,-75.355379357356782,-72.847735873688464,-70.3442676677402,-67.920130527824057,-65.495993387905983,-63.07185624798587,-60.647719108063768,-58.223581968139655,-55.799444828213545,-53.375307688285467,-50.95117054835535,-48.52703340842325,-46.119794263310169,-43.864638668812162,-41.60948307431223,-39.354327479810344,-37.099171885306546,-34.844016290800766,-32.588860696293075,-30.333705101783458,-28.078549507271898,-25.82339391275837,-23.604277859288814,-21.589388142757755,-19.574498426224732,-17.559608709689726,-15.544718993152735,-13.529829276613786,-11.514939560072854,-9.5000498435299452,-7.4851601269850674,-5.4702704104382125,-3.5148607067296647,-1.7973738654537093,-0.0798870241758225,1.6375998171040131,3.3550866583857726,5.0725734996694882,6.7900603409551392,8.5075471822427424,10.225034023532265,11.942520864823738,13.575499472318992,14.954950183282289,16.334400894247569,17.713851605214767,19.093302316183916,20.472753027155008,21.852203738128061,23.231654449103075,24.611105160079987,25.990555871058891,27.261511912254797,28.279309451005989,29.297106989759147,30.31490452851428,31.332702067271363,32.350499606030361,33.368297144791342,34.386094683554269,35.403892222319158,36.421689761085993,37.310310475491249,37.959027884655981,38.607745293822681,39.256462702991364,39.905180112161972,40.553897521334562,41.202614930509149,41.851332339685648,42.500049748864129,43.148767158044556,43.652548110470377,43.938920952861118,44.2252937952538,44.511666637648489,44.798039480045148,45.084412322443818,45.370785164844456,45.65715800724707,45.943530849651658,46.229903692058237,46.361375345535627,46.303520069990505,46.245664794447414,46.18780951890632,46.1299542433672,46.072098967830151,46.014243692295047,45.956388416761989,45.898533141230871,45.840677865701849,44.872463714946896,44.496748508868052,44.12103330279124,43.745318096716424,43.369602890643648,42.993887684572925,42.618172478504214,42.242457272437569,41.709243065297578,41.047163332364654,40.385083599433713,39.723003866504925,39.060924133578155,38.398844400653473,37.73676466773081,37.074684934810271,36.412605201891779,35.750525468975354,34.936894219173375,34.022226237303904,33.107558255436544,32.192890273571287,31.278222291708172,30.36355430984711,29.448886327988177,28.534218346131354,27.619550364276655,26.704882382424024,25.64790626460421,24.514300619546539,23.380694974491053,22.247089329437717,21.113483684386512,19.979878039337482,18.846272394290573,17.712666749245866,16.579061104203269,15.445455459162869,14.18074184811028,12.859836895814681,11.538931943521231,10.218026991230046,8.8971220389410242,7.5762170866542418,6.2553121343696549,4.9344071820872362,3.6135022298070631,2.2925972775290777,0.852373727205791,-0.6276241928847569,-2.1076221129730679,-3.5876200330591392,-5.0676179531429355,-6.5476158732245358,-8.0276137933038427,-9.5076117133808964,-10.987609633455765,-12.467607553528325,-14.055723794530827,-15.670870893199977,-17.286017991866814,-18.901165090531251,-20.516312189193329,-22.131459287853019,-23.746606386510354,-25.361753485165327,-26.976900583817908,-28.592047682468149,-30.306081620976187,-32.037567277917667,-33.769052934856795,-35.500538591793706,-37.232024248728159,-38.963509905660416,-40.694995562590272,-42.426481219517825,-44.157966876443076,-45.889452533366033,-47.7131937470002,-49.547186546946222,-51.381179346889809,-53.215172146830795,-55.049164946769395,-56.883157746705407,-58.717150546638933,-60.551143346569866,-62.385136146498354,-64.219128946424291,-66.142787054723129,-68.071165281910979,-69.99954350909627,-71.927921736278961,-73.856299963459179,-75.784678190636782,-77.713056417811856,-79.641434644984258,-81.569812872154188,-83.498191099321488,0.38081016464680562,0.38081016464680562,0.38081016464680562,0.38081016464680562,0.38081016464680562,0.38081016464680562,0.38081016464680562,0.38081016464680562,0.38081016464680562,0.38081016464680562,0.38081016464680562,0.38081016464680562
DP 500,97.37908356879008,0.00509441036248491,-112.67675997103308,-110.05370770285379,-107.43065543467112,-104.807603166485,-102.18455089829531,-99.561498630102022,-96.93844636190542,-94.315394093705279,-91.6923418255016,-89.0692895572945,-86.44932567395459,-83.8880416869975,-81.32675770003695,-78.765473713072907,-76.204189726105369,-73.642905739134392,-71.081621752159933,-68.520337765181978,-65.95905377820057,-63.397769791215637,-60.849230321621235,-58.415392713203033,-55.981555104781371,-53.54771749635632,-51.113879887927794,-48.680042279495986,-46.246204671060724,-43.812367062621973,-41.378529454179912,-38.944691845734425,-36.538831354496125,-34.291509623745291,-32.044187892991,-29.796866162233215,-27.549544431471936,-25.302222700707176,-23.054900969938927,-20.80757923916719,-18.560257508391974,-16.312935777613284,-14.113679659411225,-12.106688263145811,-10.09969686687694,-8.0927054706046135,-6.0857140743288385,-4.0787226780495907,-2.071731281766894,-0.064739885480730772,1.9422515108088783,3.9492429071019473,5.8843953993477163,7.6040284633151387,9.32366152728604,11.043294591260439,12.762927655238347,14.482560719219729,16.202193783204635,17.921826847193014,19.641459911184874,21.361092975180256,22.982661633173681,24.37540948166701,25.768157330163906,27.160905178664308,28.553653027168259,29.946400875675739,31.339148724186767,32.731896572701309,34.124644421219394,35.517392269741009,36.784704065947025,37.819059806020334,38.853415546097224,39.8877712861777,40.922127026261784,41.956482766349424,42.990838506440653,44.025194246535484,45.059549986633854,46.093905726735819,46.975529547138215,47.628051878877677,48.280574210620813,48.933096542367615,49.585618874117984,50.23814120587204,50.890663537629713,51.54318586939106,52.19570820115603,52.84823053292461,53.32183426106053,53.576755937722425,53.831677614387914,54.08659929105719,54.341520967730162,54.596442644406885,54.85136432108731,55.10628599777143,55.361207674459258,55.616129351150761,55.365006048854191,55.213571624423274,55.062137199996108,54.91070277557273,54.75926835115316,54.607833926737264,54.45639950232534,54.304965077917032,53.928545552267678,53.368043440891221,52.807541329518592,52.247039218149922,51.686537106785039,51.126034995424135,50.565532884067046,50.00503077271388,49.444528661364558,48.884026550019058,48.07939637140214,47.11201030204964,46.1446242327011,45.177238163356542,44.209852094016043,43.242466024679359,42.27507995534684,41.307693886018185,40.340307816693546,39.372921747372843,38.14485773102696,36.776424875569333,35.40799202011582,34.039559164666407,32.67112630922103,31.30269345377982,29.934260598342693,28.565827742909661,27.197394887480726,25.828962032055887,24.185551311196438,22.424288292411987,20.663025273631682,18.901762254855694,17.140499236083848,15.379236217316256,13.617973198552882,11.856710179793685,10.095447161038757,8.3341841422880236,6.28527242957749,4.1404741936916656,1.9956759578101413,-0.14912227806706976,-2.293920513939927,-4.4387187498085412,-6.58351698567274,-8.7283152215326556,-10.873113457388325,-13.01791169323959,-15.461958428799411,-17.980820824953788,-20.499683221103655,-23.018545617248886,-25.53740801338957,-28.056270409525585,-30.575132805657034,-33.093995201783891,-35.612857597906135,-38.131719994023861,-40.961685973136859,-43.846556044059163,-46.731426114976891,-49.616296185890292,-52.501166256799074,-55.38603632770343,-58.270906398603223,-61.155776469498605,-64.040646540389488,-66.9255166112759,-70.133592972918052,-73.377584539071137,-76.62157610521939,-79.865567671362641,-83.109559237501074,-86.353550803634477,-89.597542369763062,-92.841533935886588,-96.085525502005382,-99.32951706811906,-102.91097420537784,-106.51019604613312,-110.10941788688339,-113.70863972762851,-117.30786156836871,-120.90708340910388,-124.50630524983394,-128.10552709055895,-131.704748931279,-135.30397077199387,0.73644014845986538,0.73644014845986538,0.73644014845986538,0.73644014845986538,0.73644014845986538,0.73644014845986538,0.73644014845986538,0.73644014845986538,0.73644014845986538,0.73644014845986538,0.73644014845986538,0.73644014845986538
DP 501,65.6072572634066,0.0048676116787476891,-81.709118262575515,-79.9398691103278,-78.170619958077452,-76.4013708058245,-74.632121653568987,-72.8628725013109,-71.093623349050219,-69.32437419678692,-67.55512504452112,-65.785875892252662,-64.018412238732026,-62.2848733990036,-60.551334559272689,-58.81779571953912,-57.084256879803057,-55.350718040064308,-53.617179200323,-51.8836403605791,-50.150101520832592,-48.416562681083505,-46.690450211748896,-45.031175778118723,-43.371901344485913,-41.712626910850553,-40.053352477212577,-38.394078043572058,-36.734803609928882,-35.075529176283148,-33.41625474263482,-31.756980308983884,-30.114194408664904,-28.56484456958885,-27.015494730510145,-25.466144891428829,-23.916795052344821,-22.367445213258165,-20.818095374168848,-19.268745535076864,-17.719395695982239,-16.170045856884961,-14.649463319540764,-13.243951348782748,-11.838439378022063,-10.432927407258704,-9.0274154364926833,-7.6219034657239826,-6.2163914949526067,-4.8108795241785556,-3.4053675534018426,-1.9998555826224513,-0.63819198031691515,0.59192485871557743,1.8220416977507949,3.0521585367887463,4.2822753758294265,5.51239221487283,6.7425090539189574,7.972625892967832,9.2027427320194075,10.432859571073731,11.601694670917933,12.627536632424636,13.653378593934139,14.67922055544642,15.705062516961489,16.730904478479342,17.756746439999983,18.782588401523412,19.808430363049641,20.834272324578627,21.779544201546479,22.575183745582926,23.370823289622187,24.166462833664333,24.962102377709328,25.757741921757162,26.553381465807878,27.349021009861403,28.1446605539178,28.940300097977051,29.634739033620988,30.177374665232716,30.720010296847438,31.262645928465034,31.805281560085582,32.347917191709037,32.890552823335419,33.433188454964721,33.975824086596973,34.51845971823213,34.93840306042074,35.208386582828233,35.478370105238795,35.7483536276523,36.018337150068874,36.288320672488453,36.558304194911024,36.828287717336572,37.09827123976514,37.368254762196756,37.455170897012195,37.435940099723034,37.416709302437027,37.397478505154041,37.378247707874188,37.359016910597425,37.339786113323825,37.320555316053259,37.134761595099974,36.812686255903465,36.490610916710189,36.168535577520153,35.846460238333272,35.524384899149588,35.202309559969137,34.880234220791863,34.558158881617764,34.236083542446941,33.725734699713463,33.089867221959132,32.453999744208126,31.818132266460456,31.182264788716072,30.546397310975003,29.910529833237231,29.27466235550278,28.638794877771655,28.00292740004382,27.157535412189731,26.199319487414662,25.24110356264304,24.282887637874857,23.324671713110064,22.3664557883487,21.40823986359074,20.450023938836228,19.491808014085091,18.533592089337404,17.345198887640784,16.058154396409673,14.771109905182064,13.484065413958078,12.197020922737593,10.90997643152072,9.6229319403073763,8.3358874490975712,7.0488429578913534,5.76179846668868,4.2245257180207547,2.6038403966125343,0.983155075207961,-0.63753024619295651,-2.2582155675901863,-3.8789008889838126,-5.4995862103737139,-7.1202715317599736,-8.74095685314262,-10.361642174521554,-12.251837227942682,-14.209412898673806,-16.166988569401074,-18.124564240124403,-20.0821399108438,-22.039715581559253,-23.997291252270809,-25.954866922978436,-27.912442593682119,-29.870018264381933,-32.116116655166785,-34.413134028498121,-36.710151401825591,-39.0071687751493,-41.304186148469135,-43.6012035217852,-45.898220895097367,-48.19523826840566,-50.492255641710237,-52.789273015010956,-55.392803909992075,-58.030395082051761,-60.667986254107255,-63.305577426158422,-65.943168598205418,-68.580759770248065,-71.2183509422866,-73.855942114320683,-76.493533286350726,-79.131124458376448,-82.093243464208982,-85.072446111268917,-88.0516487583245,-91.030851405375827,-94.010054052422717,-96.989256699465386,-99.968459346503565,-102.94766199353727,-105.92686464056685,-108.90606728759185,0.62158716487377963,0.62158716487377963,0.62158716487377963,0.62158716487377963,0.62158716487377963,0.62158716487377963,0.62158716487377963,0.62158716487377963,0.62158716487377963,0.62158716487377963,0.62158716487377963,0.62158716487377963
DP 502,214.67960392584584,0.0015210127062152189,-62.102926048455707,-60.441287234676317,-58.779648420895782,-57.118009607114018,-55.456370793330983,-53.794731979546732,-52.133093165761316,-50.47145435197465,-48.809815538186783,-47.148176724397665,-45.489466778699139,-43.886405880429287,-42.283344982158205,-40.680284083885908,-39.077223185612453,-37.474162287337791,-35.871101389061863,-34.268040490784806,-32.6649795925065,-31.061918694226964,-29.470667109021914,-27.98570045773354,-26.500733806443971,-25.01576715515327,-23.530800503861371,-22.045833852568325,-20.560867201274089,-19.075900549978684,-17.590933898682106,-16.105967247384381,-14.646044218228603,-13.328036625994081,-12.010029033758382,-10.692021441521479,-9.3740138492834,-8.0560062570441229,-6.7379986648036541,-5.4199910725619889,-4.1019834803191371,-2.783975888075096,-1.5069724587472422,-0.39398761897756679,0.71899722079327133,1.831982060565285,2.9449669003384593,4.05795174011281,5.1709365798883296,6.2839214196650177,7.3969062594428765,8.5098910992219,9.56519666483347,10.447462227166785,11.329727789501268,12.211993351836925,13.09425891417375,13.976524476511747,14.858790038850932,15.741055601191285,16.6233211635328,17.505586725875492,18.314681478191609,18.953041458688325,19.591401439186207,20.229761419685271,20.868121400185519,21.506481380686914,22.144841361189489,22.783201341693292,23.421561322198219,24.059921302704325,24.612357870816474,25.0052200668791,25.398082262942935,25.790944459007914,26.183806655074115,26.576668851141488,26.96953104721004,27.362393243279751,27.755255439350677,28.148117635422746,28.44606265184062,28.601629655848551,28.757196659857648,28.912763663867963,29.068330667879454,29.223897671892129,29.379464675905972,29.535031679921051,29.690598683937328,29.846165687954745,29.902024045563508,29.836014185426205,29.77000432529012,29.703994465155279,29.637984605021597,29.571974744889118,29.505964884757859,29.439955024627796,29.373945164498966,29.3079353043713,28.607954469361246,28.341163727826341,28.074372986292627,27.807582244760077,27.540791503228803,27.274000761698723,27.007210020169897,26.740419278642246,26.376157226471818,25.932144245024908,25.488131263579259,25.044118282134839,24.600105300691641,24.156092319249705,23.712079337808984,23.268066356369527,22.824053374931307,22.380040393494308,21.844287558701414,21.247373376441256,20.650459194182368,20.053545011924729,19.456630829668363,18.859716647413251,18.262802465159421,17.665888282906813,17.068974100655495,16.472059918405421,15.791030387480083,15.064706753314379,14.338383119149993,13.612059484986881,12.885735850825078,12.159412216664554,11.433088582505315,10.706764948347384,9.9804413141907276,9.25411768003537,8.4522621099169513,7.6180344352075249,6.7838067604993784,5.9495790857925908,5.1153514110870946,4.2811237363829449,3.4468960616801074,2.6126683869785703,1.7784407122783785,0.94421303757949826,0.043106261188389908,-0.88029439196610582,-1.8036950451192604,-2.7270956982710755,-3.6504963514215247,-4.5738970045706662,-5.4972976577184189,-6.4206983108648448,-7.3440989640099481,-8.2674996171536659,-9.2497771859926221,-10.246774679394873,-11.243772172795731,-12.240769666195163,-13.237767159593192,-14.234764652989764,-15.23176214638494,-16.228759639778676,-17.225757133171022,-18.222754626561958,-19.272074921390793,-20.330629233603965,-21.389183545815747,-22.447737858026159,-23.506292170235152,-24.564846482442771,-25.623400794649015,-26.681955106853835,-27.740509419057297,-28.799063731259412,-29.905166757309281,-31.016553473159394,-32.127940189008058,-33.239326904855119,-34.350713620700837,-35.462100336544914,-36.573487052387556,-37.684873768228663,-38.796260484068263,-39.907647199906378,-41.064393900481576,-42.22352841998724,-43.382662939491453,-44.541797458994125,-45.700931978495284,-46.860066497994929,-48.019201017493032,-49.178335536989543,-50.337470056484612,-51.4966045759781,0.22779098498422481,0.22779098498422481,0.22779098498422481,0.22779098498422481,0.22779098498422481,0.22779098498422481,0.22779098498422481,0.22779098498422481,0.22779098498422481,0.22779098498422481,0.22779098498422481,0.22779098498422481
DP 503,167.09898405828244,0.0059154220425914322,-199.50649158421783,-194.39811971525927,-189.28974784629602,-184.18137597732809,-179.07300410835549,-173.96463223937815,-168.85626037039631,-163.74788850140988,-158.63951663241869,-153.53114476342279,-148.43061814846584,-143.4791528434352,-138.5276875383999,-133.57622223336006,-128.62475692831555,-123.67329162326638,-118.72182631821263,-113.77036101315417,-108.81889570809108,-103.86743040302328,-98.947873825277725,-94.3154988095384,-89.683123793794536,-85.050748778046241,-80.418373762293356,-75.785998746536038,-71.153623730774086,-66.521248715007673,-61.8888736992368,-57.256498683461388,-52.692694653323372,-48.517463862785,-44.342233072242074,-40.167002281694494,-35.99177149114233,-31.816540700585545,-27.641309910024216,-23.466079119458211,-19.29084832888768,-15.115617538312527,-11.054755863996434,-7.4513760599071048,-3.8479962558132703,-0.24461645171489013,3.3587633523879781,6.9621431564954168,10.56552296060735,14.16890276472383,17.772282568844805,21.375662372970318,24.814383747308437,27.759123606767833,30.70386346623178,33.6486033257003,36.593343185173346,39.538083044650946,42.482822904133137,45.42756276361979,48.372302623111075,51.317042482606823,54.046994927095938,56.275768277388011,58.504541627684631,60.73331497798592,62.962088328291614,65.190861678601991,67.419635028916872,69.648408379236315,71.8771817295604,74.105955079888972,76.074228923682142,77.558710934533522,79.043192945389578,80.52767495625028,82.012156967115516,83.496638977985384,84.9811209888598,86.465602999738863,87.95008501062253,89.434567021510716,90.620580311724822,91.358883467999334,92.097186624278322,92.835489780562014,93.573792936850381,94.312096093143325,95.050399249440929,95.788702405743123,96.527005562050093,97.265308718361581,97.677095730367043,97.68980059648915,97.702505462615889,97.715210328747375,97.7279151948835,97.740620061024345,97.753324927169942,97.766029793320143,97.778734659475063,97.791439525634772,96.110936092576,95.436192446567816,94.761448800564565,94.086705154565948,93.411961508572119,92.737217862583023,92.062474216598773,91.387730570619212,90.362669369289662,89.050978693125131,87.739288016965389,86.427597340810436,85.1159066646605,83.804215988515423,82.492525312375022,81.18083463623951,79.869143960109,78.55745328398325,76.898244332639351,75.0073510564973,73.116457780360349,71.225564504228259,69.334671228101143,67.443777951979,65.55288467586179,63.661991399749496,61.771098123642219,59.880204847539808,57.652057992313168,55.242308151762252,52.832558311216474,50.422808470675719,48.013058630140044,45.603308789609443,43.1935589490839,40.783809108563482,38.374059268048057,35.964309427537756,33.232643492439628,30.3630080832296,27.493372674024705,24.62373726482512,21.75410185563064,18.884466446441408,16.014831037257363,13.145195628078437,10.275560218904797,7.4059248097363133,4.2320980041925482,0.95687023285054673,-2.3183575384861768,-5.5935853098176134,-8.8688130811437,-12.144040852464599,-15.419268623780063,-18.69449639509028,-21.969724166395295,-25.244951937694896,-28.806737533604274,-32.440165971390243,-36.073594409170717,-39.707022846945563,-43.340451284714867,-46.973879722478507,-50.607308160236578,-54.240736597989091,-57.874165035735935,-61.507593473477279,-65.413195148772388,-69.366830422004327,-73.320465695230652,-77.274100968451719,-81.227736241667117,-85.1813715148772,-89.135006788081711,-93.088642061280837,-97.04227733447442,-100.9959126076626,-105.21207158410272,-109.45740261801937,-113.70273365193012,-117.94806468583484,-122.19339571973386,-126.43872675362663,-130.68405778751372,-134.92938882139455,-139.1747198552697,-143.42005088913882,-147.9264743306021,-152.44664207549059,-156.9668098203733,-161.48697756524967,-166.00714531011997,-170.52731305498449,-175.04748079984282,-179.56764854469495,-184.08781628954128,-188.60798403438116,0.89944097465985273,0.89944097465985273,0.89944097465985273,0.89944097465985273,0.89944097465985273,0.89944097465985273,0.89944097465985273,0.89944097465985273,0.89944097465985273,0.89944097465985273,0.89944097465985273,0.89944097465985273
DP 504,203.12980680085147,0.005948307725348192,-233.08227202319313,-226.90690813761529,-220.73154425203234,-214.55618036644518,-208.38081648085287,-202.20545259525596,-196.03008870965419,-189.85472482404796,-183.67936093843662,-177.50399705282075,-171.33918153452777,-165.37478698956917,-159.41039244460598,-153.44599789963817,-147.48160335466554,-141.51720880968813,-135.55281426470626,-129.58841971971927,-123.62402517472788,-117.65963062973152,-111.73785710838057,-106.19967682848734,-100.66149654858955,-95.123316268687219,-89.585135988780351,-84.046955708868836,-78.508775428952674,-72.970595149032,-67.4324148691068,-61.894234589177017,-56.446728129291927,-51.513045696780807,-46.579363264265034,-41.6456808317446,-36.7119983992195,-31.778315966689707,-26.844633534155257,-21.910951101616153,-16.977268669072405,-12.043586236524011,-7.2590240091899467,-3.0709496502686107,1.1171247086572722,5.3051990675877594,9.4932734265227836,13.681347785462439,17.869422144406645,22.057496503355438,26.245570862308806,30.433645221266737,34.410784973018579,37.7551129279973,41.099440882980666,44.443768837968605,47.788096792961142,51.132424747958204,54.476752702959921,57.82108065796622,61.165408612977096,64.509736567992633,67.58468671333145,70.031078026923012,72.47746934051915,74.923860654119892,77.370251967725238,79.816643281335175,82.263034594949715,84.709425908568889,87.1558172221927,89.602208535821,91.7298305520509,93.265443835808654,94.80105711957107,96.336670403338118,97.872283687109757,99.407896970886043,100.94351025466688,102.47912353845247,104.01473682224258,105.55035010603738,106.73076387821678,107.37836998947478,108.02597610073761,108.67358221200497,109.32118832327707,109.96879443455373,110.61640054583515,111.26400665712123,111.91161276841193,112.55921887970727,112.83010273479354,112.64054036376918,112.4509779927494,112.26141562173443,112.07185325072409,111.88229087971858,111.69272850871778,111.50316613772173,111.31360376673035,111.12404139574369,108.6389036755354,107.68275961250255,106.72661554947442,105.7704714864511,104.81432742343247,103.85818336041876,102.90203929740986,101.9458952344056,100.61335838266092,98.9728573260946,97.33235626953325,95.691855212976648,94.051354156424949,92.410853099878167,90.770352043336217,89.12985098679907,87.489349930266883,85.848848873739541,83.849724373028508,81.6115119265964,79.373299480169308,77.1350870337471,74.896874587329947,72.658662140917585,70.4204496945104,68.182237248107953,65.944024801710654,63.705812355318137,61.134416469367849,58.383609270892777,55.632802072422976,52.8819948739582,50.131187675498389,47.380380477043744,44.629573278594094,41.87876608014961,39.127958881710128,36.377151683275713,33.322883187607133,30.13855472818808,26.954226268774089,23.769897809365418,20.585569349961872,17.40124089056355,14.216912431170408,11.032583971782376,7.8482555123996107,4.6639270530220092,1.2067871004064938,-2.3412934548187914,-5.889374010038809,-9.43745456525355,-12.985535120462954,-16.533615675667185,-20.08169623086599,-23.629776786059544,-27.177857341247936,-30.725937896430903,-34.518067500076654,-38.37121224931397,-42.224356998545836,-46.077501747772075,-49.930646496992807,-53.783791246207805,-57.636935995417375,-61.490080744621316,-65.343225493819673,-69.196370243012609,-73.269904057602631,-77.382332510959785,-81.49476096431134,-85.607189417657722,-89.719617870998448,-93.832046324333874,-97.944474777663686,-102.05690323098807,-106.16933168430714,-110.28176013762065,-114.59744215667151,-118.93571003988718,-123.27397792309685,-127.61224580630051,-131.95051368949859,-136.28878157269065,-140.62704945587666,-144.96531733905664,-149.30358522223094,-153.64185310539915,-158.17606856286747,-162.7205990001587,-167.26512943744387,-171.80965987472294,-176.354190311996,-180.89872074926316,-185.44325118652424,-189.98778162377903,-194.53231206102814,-199.07684249827071,0.89543024148627059,0.89543024148627059,0.89543024148627059,0.89543024148627059,0.89543024148627059,0.89543024148627059,0.89543024148627059,0.89543024148627059,0.89543024148627059,0.89543024148627059,0.89543024148627059,0.89543024148627059
DP 505,74.180150056405282,0.0037993955156015984,-69.207430311367588,-67.674411146951968,-66.1413919825341,-64.608372818114063,-63.07535365369182,-61.542334489267382,-60.009315324840692,-58.47629616041187,-56.943276995980781,-55.410257831547526,-53.878851644114363,-52.378092324646488,-50.877333005176375,-49.376573685704088,-47.875814366229619,-46.375055046752834,-44.874295727273932,-43.3735364077927,-41.872777088309348,-40.372017768823696,-38.877954422880883,-37.444155471756169,-36.010356520629188,-34.576557569500054,-33.1427586183687,-31.708959667235131,-30.275160716099364,-28.841361764961412,-27.407562813821247,-25.973763862678865,-24.554783788947457,-23.219778287692588,-21.884772786435477,-20.549767285176088,-19.214761783914447,-17.879756282650572,-16.544750781384415,-15.209745280116005,-13.87473977884534,-12.539734277572434,-11.230477479580479,-10.024216711623659,-8.8179559436645878,-7.6116951757032467,-6.40543440773966,-5.1991736397738,-3.9929128718056854,-2.78665210383531,-1.5803913358626793,-0.37413056788778942,0.79309017249940117,1.843189354069549,2.8932885356419931,3.9433877172167353,4.9934868987937717,6.0435860803731112,7.0936852619547386,8.1437844435386744,9.1938836251248954,10.243982806713413,11.239863025858806,12.10923019728202,12.978597368707558,13.847964540135443,14.717331711565665,15.586698882998201,16.4560660544331,17.325433225870334,18.194800397309891,19.06416756875182,19.862771660165116,20.529956691914307,21.19714172366589,21.864326755419835,22.531511787176168,23.198696818934902,23.865881850695995,24.533066882459483,25.200251914225348,25.867436945993607,26.446461591198105,26.893243573293248,27.340025555390806,27.786807537490841,28.233589519593263,28.680371501698144,29.127153483805454,29.573935465915234,30.020717448027408,30.467499430142027,30.808350315314076,31.019727634719548,31.231104954127439,31.44248227353788,31.6538595929508,31.865236912366218,32.076614231784127,32.287991551204527,32.499368870627443,32.710746190052845,32.726569277689975,32.690622581319758,32.654675884952141,32.618729188587068,32.582782492224553,32.5468357958646,32.510889099507224,32.4749424031524,32.297967136333753,32.005602433640725,31.713237730950372,31.420873028262637,31.128508325577545,30.836143622895065,30.54377892021526,30.251414217538073,29.959049514863533,29.666684812191669,29.216525569588221,28.661167481203631,28.105809392821769,27.550451304442621,26.99509321606623,26.4397351276925,25.884377039321535,25.329018950953291,24.773660862587747,24.218302774224934,23.489102469976832,22.666292290743574,21.843482111513133,21.02067193228546,20.197861753060625,19.375051573838565,18.552241394619308,17.729431215402844,16.906621036189193,16.083810856978346,15.071871450222345,13.978873467948915,12.885875485678339,11.792877503410736,10.699879521146009,9.60688153888421,8.513883556625311,7.4208855743693025,6.3278875921162294,5.2348896098660544,3.9381376589281532,2.5734651505502146,1.2087926421752557,-0.15587986619671959,-1.5205523745656826,-2.8852248829317073,-4.2498973912946818,-5.614569899654688,-6.9792424080117561,-8.3439149163657742,-9.92629679340546,-11.563108584886615,-13.199920376364636,-14.836732167839445,-16.473543959311076,-18.110355750779476,-19.747167542244714,-21.383979333706733,-23.020791125165566,-24.657602916621276,-26.525938337400852,-28.435133443813434,-30.344328550222837,-32.253523656629191,-34.162718763032345,-36.071913869432443,-37.981108975829365,-39.890304082223196,-41.799499188613922,-43.708694295001514,-45.862630141878434,-48.043761974719438,-50.224893807557045,-52.406025640391164,-54.587157473221993,-56.768289306049276,-58.949421138873063,-61.130552971693454,-63.3116848045104,-65.492816637323884,-67.932274415418746,-70.385330866136371,-72.838387316850515,-75.291443767561,-77.744500218268129,-80.197556668971671,-82.650613119671732,-85.103669570368083,-87.55672602106101,-90.009782471750327,0.508658944953738,0.508658944953738,0.508658944953738,0.508658944953738,0.508658944953738,0.508658944953738,0.508658944953738,0.508658944953738,0.508658944953738,0.508658944953738,0.508658944953738,0.508658944953738
DP 506,187.68930723366603,0.002631487537253526,-97.115297073777953,-94.577819488857784,-92.040341903935541,-89.502864319011167,-86.965386734084746,-84.4279091491563,-81.890431564225622,-79.352953979292934,-76.815476394358058,-74.2779988094211,-71.744669954448284,-69.290167753125459,-66.835665551800531,-64.381163350473543,-61.926661149144415,-59.472158947813242,-57.017656746479986,-54.563154545144691,-52.108652343807229,-49.654150142467742,-47.216455822172556,-44.930034020003113,-42.643612217831659,-40.357190415658216,-38.070768613482684,-35.78434681130517,-33.497925009125659,-31.211503206944094,-28.925081404760483,-26.638659602574908,-24.388150851671544,-22.341151654420109,-20.294152457166625,-18.247153259911048,-16.200154062653461,-14.153154865393779,-12.106155668132043,-10.059156470868245,-8.0121572736023836,-5.9651580763344709,-3.977574635265706,-2.2276570270363409,-0.47773941880496129,1.2721781894284516,3.022095797663872,4.7720134059013359,6.521931014140816,8.2718486223823255,10.021766230625849,11.771683838871402,13.436923593509867,14.848126585770521,16.259329578033196,17.670532570297926,19.081735562564649,20.492938554833447,21.904141547104267,23.315344539377122,24.726547531651992,26.137750523928911,27.439836641872017,28.487312422246116,29.534788202622295,30.5822639830005,31.629739763380741,32.677215543763026,33.724691324147337,34.772167104533708,35.819642884922104,36.867118665312496,37.784118043895745,38.458800581171339,39.133483118448957,39.8081656557287,40.48284819301044,41.157530730294248,41.83221326758013,42.50689580486803,43.18157834215797,43.856260879449962,44.38383711073385,44.690750406828151,44.99766370292452,45.304576999022878,45.611490295123374,45.918403591225882,46.225316887330543,46.5322301834372,46.839143479545982,47.146056775656767,47.294899562052606,47.250541738561346,47.206183915072181,47.161826091585077,47.1174682681001,47.07311044461715,47.028752621136377,46.984394797657664,46.940036974181041,46.895679150706506,45.946885689072651,45.576239252297782,45.20559281552503,44.834946378754431,44.464299941985921,44.093653505219542,43.723007068455296,43.352360631693124,42.81899368370415,42.152488975515723,41.485984267329393,40.819479559145286,40.15297485096329,39.48647014278351,38.819965434605813,38.153460726430346,37.486956018257032,36.820451310085851,35.996272605024664,35.066975418108889,34.137678231195316,33.2083810442839,32.279083857374722,31.34978667046769,30.420489483562918,29.491192296660298,28.561895109759927,27.632597922861738,26.554121816050422,25.395316429194004,24.236511042339927,23.077705655488053,21.918900268638435,20.760094881791044,19.601289494945895,18.442484108103042,17.28367872126239,16.124873334423977,14.827508042866762,13.470757596269175,12.114007149673814,10.757256703080829,9.4005062564901021,8.0437558099017075,6.6870053633156177,5.3302549167317936,3.9735044701503091,2.6167540235711253,1.1328059725514925,-0.3935428829982679,-1.9198917385456897,-3.4462405940907659,-4.9725894496334657,-6.4989383051738727,-8.0252871607118585,-9.5516360162475262,-11.077984871780897,-12.604333727311843,-14.2469863254202,-15.918716233319143,-17.590446141215626,-19.262176049109634,-20.933905957001151,-22.605635864890168,-24.277365772776751,-25.949095680660829,-27.620825588542395,-29.2925554964216,-31.071607718309849,-32.869600365520725,-34.667593012729142,-36.465585659935236,-38.263578307138815,-40.061570954340027,-41.859563601538753,-43.657556248735084,-45.455548895928992,-47.253541543120534,-49.1524591523332,-51.062591706163545,-52.972724259991338,-54.882856813816467,-56.792989367639052,-58.703121921458873,-60.613254475276165,-62.5233870290907,-64.433519582902733,-66.343652136712066,-68.352423460431552,-70.366387279771772,-72.380351099109177,-74.394314918443953,-76.408278737776087,-78.422242557105477,-80.436206376432224,-82.450170195756186,-84.4641340150776,-86.478097834396166,0.39836981705007091,0.39836981705007091,0.39836981705007091,0.39836981705007091,0.39836981705007091,0.39836981705007091,0.39836981705007091,0.39836981705007091,0.39836981705007091,0.39836981705007091,0.39836981705007091,0.39836981705007091
DP 507,125.378797400265,0.0039807124030540545,-106.98177632347874,-104.3763038831186,-101.77083144275555,-99.165359002389479,-96.55988656202048,-93.954414121648554,-91.348941681273487,-88.7434692408955,-86.137996800514657,-83.532524360130679,-80.9305085570641,-78.394169516539733,-75.857830476012424,-73.321491435482173,-70.785152394948867,-68.248813354412661,-65.712474313873543,-63.176135273331326,-60.6397962327862,-58.103457192238075,-55.581294637567211,-53.186721795801205,-50.792148954032285,-48.397576112260495,-46.003003270485877,-43.608430428708253,-41.213857586927787,-38.819284745144429,-36.424711903358165,-34.03013906156901,-31.666404572302234,-29.477422690605785,-27.2884408089064,-25.099458927204019,-22.910477045498709,-20.721495163790443,-18.532513282079215,-16.343531400365038,-14.1545495186479,-11.965567636927823,-9.828908625696485,-7.901543569250137,-5.974178512800882,-4.0468134563486977,-2.1194483998936131,-0.19208334343559294,1.735281713025336,3.6626467694891862,5.5900118259559521,7.51737688242563,9.3677739970942611,10.98726437630255,12.606754755513769,14.22624513472792,15.845735513945016,17.465225893165062,19.084716272388036,20.704206651613955,22.323697030842794,23.943187410074586,25.459624039795592,26.735597861994172,28.011571684195648,29.287545506400157,30.563519328607615,31.839493150818022,33.115466973031381,34.391440795247675,35.667414617466981,36.94338843968923,38.090504576177324,38.998310102065162,39.906115627956012,40.813921153849854,41.721726679746645,42.629532205646456,43.537337731549258,44.445143257455022,45.3529487833638,46.260754309275569,47.015687004251518,47.541306840380734,48.066926676512921,48.5925465126482,49.118166348786474,49.643786184927777,50.169406021072071,50.69502585721942,51.220645693369825,51.746265529523214,52.09796779738047,52.237100495331873,52.376233193286332,52.515365891243889,52.654498589204479,52.793631287168182,52.932763985134891,53.0718966831047,53.211029381077587,53.350162079053561,52.811519109879008,52.5682346596933,52.324950209510739,52.081665759331372,51.838381309155096,51.595096858981947,51.351812408811888,51.108527958645,50.66084807206034,50.045932042997713,49.431016013938233,48.816099984881987,48.201183955828881,47.586267926779,46.971351897732347,46.356435868688834,45.74151983964849,45.126603810611385,44.298129991770736,43.327280948764056,42.3564319057606,41.38558286276043,40.414733819763512,39.443884776769856,38.4730357337795,37.502186690792371,36.531337647808506,35.56048860482791,34.370490227723494,33.06248517619909,31.754480124678075,30.446475073160371,29.138470021646047,27.830464970135058,26.522459918627451,25.214454867123184,23.906449815622263,22.598444764124707,21.068504764917176,19.443446042112672,17.818387319311537,16.193328596513911,14.568269873719682,12.943211150928937,11.318152428141612,9.6930937053576915,8.0680349825772524,6.4429762598002416,4.594958983679275,2.6726193798675024,0.75027977605923435,-1.172059827745529,-3.0943994315467456,-5.0167390353445178,-6.9390786391386881,-8.8614182429293713,-10.783757846716609,-12.706097450500252,-14.851673375022123,-17.053061017300045,-19.254448659574305,-21.455836301844826,-23.657223944111642,-25.858611586374661,-28.059999228634009,-30.261386870889606,-32.46277451314149,-34.664162155389725,-37.089931114701919,-39.555299272177152,-42.020667429648739,-44.48603558711676,-46.951403744581071,-49.416771902041816,-51.882140059498845,-54.347508216952242,-56.812876374402045,-59.278244531848244,-61.970557434277637,-64.688088802936718,-67.405620171591863,-70.12315154024293,-72.840682908890145,-75.558214277533324,-78.275745646172581,-80.993277014807759,-83.710808383439016,-86.428339752066307,-89.378803267315078,-92.3415286868087,-95.304254106298373,-98.266979525783881,-101.22970494526531,-104.19243036474289,-107.15515578421642,-110.1178812036856,-113.08060662315089,-116.04333204261209,0.59847923901782329,0.59847923901782329,0.59847923901782329,0.59847923901782329,0.59847923901782329,0.59847923901782329,0.59847923901782329,0.59847923901782329,0.59847923901782329,0.59847923901782329,0.59847923901782329,0.59847923901782329
DP 508,210.94091142542814,0.0032501484363202855,-130.99069083953083,-127.49685181953316,-124.00301279953285,-120.50917377953009,-117.01533475952479,-113.52149573951681,-110.02765671950604,-106.53381769949299,-103.03997867947717,-99.546139659458731,-96.058397234338614,-92.686491264859924,-89.314585295378635,-85.942679325894758,-82.570773356408267,-79.1988673869193,-75.826961417427725,-72.4550554479336,-69.083149478436809,-65.711243508937528,-62.363937573160349,-59.238034266141561,-56.112130959120286,-52.986227652096559,-49.860324345070275,-46.734421038041539,-43.608517731010252,-40.482614423976493,-37.356711116940232,-34.230807809901464,-31.157124299947473,-28.379356264090042,-25.601588228230082,-22.823820192367549,-20.0460521565025,-17.268284120634902,-14.490516084764748,-11.712748048892031,-8.9349800130167871,-6.1572119771390037,-3.465069132915759,-1.1154311020340357,1.2342069288501718,3.5838449597368909,5.9334829906260929,8.28312102151782,10.63275905241203,12.982397083308747,15.332035114207955,17.681673145109659,19.910648862368948,21.777633076620873,23.644617290875317,25.511601505132248,27.378585719391697,29.24556993365362,31.112554147918068,32.979538362185053,34.846522576454518,36.713506790726505,38.427092059006029,39.782740411842333,41.13838876468116,42.49403711752246,43.849685470366296,45.205333823212655,46.56098217606155,47.916630528912933,49.272278881766859,50.627927234623257,51.802992075656341,52.642682660723331,53.482373245792786,54.322063830864863,55.161754415939377,56.001445001016478,56.841135586096087,57.680826171178211,58.520516756262879,59.360207341350069,59.999856216704465,60.33943780039877,60.679019384095646,61.018600967795017,61.358182551496995,61.697764135201481,62.037345718908526,62.376927302618164,62.7165088863303,63.056090470044957,63.184881690045636,63.05603581568046,62.927189941317913,62.798344066957938,62.669498192600571,62.540652318245705,62.411806443893433,62.282960569543761,62.154114695196647,62.025268820852119,60.573991196727221,60.019248516830189,59.464505836935857,58.909763157044011,58.355020477154881,57.800277797268336,57.245535117384442,56.6907924375031,55.928538415487068,54.996498820039051,54.064459224593726,53.132419629150995,52.200380033710871,51.268340438273505,50.336300842838746,49.404261247406644,48.472221651977222,47.540182056550393,46.412063672605647,45.153223007375118,43.894382342147345,42.6355416769222,41.376701011699751,40.117860346480043,38.859019681263014,37.600179016048713,36.341338350837113,35.0824976856282,33.643111644984565,32.106506238276495,30.569900831571214,29.033295424868673,27.496690018168895,25.96008461147186,24.423479204777571,22.886873798086107,21.350268391397339,19.813662984711364,18.114196278778969,16.344929124257479,14.575661969738738,12.806394815222907,11.037127660709842,9.2678605061996624,7.498593351692274,5.7293261971876763,3.9600590426859528,2.1907918881870403,0.276615279332089,-1.6858663072441797,-3.6483478938175806,-5.6108294803881069,-7.5733110669557329,-9.535792653520522,-11.498274240082369,-13.460755826641362,-15.423237413197525,-17.385718999750733,-19.476430523588132,-21.599201046802332,-23.721971570013544,-25.844742093221697,-27.967512616426827,-30.090283139628884,-32.213053662827932,-34.335824186023935,-36.458594709216918,-38.581365232406874,-40.818682931506011,-43.076216111898312,-45.333749292287564,-47.591282472673988,-49.848815653057372,-52.106348833437785,-54.363882013815207,-56.621415194189716,-58.878948374561226,-61.136481554929816,-63.498609187597815,-65.872359524563464,-68.246109861525952,-70.619860198485,-72.9936105354411,-75.367360872393874,-77.741111209343472,-80.114861546289717,-82.488611883232835,-84.862362220172713,-87.336235169677437,-89.815378726547735,-92.294522283414778,-94.773665840278667,-97.252809397139117,-99.731952953996384,-102.21109651085041,-104.69024006770104,-107.16938362454852,-109.64852718139248,0.4875982749044761,0.4875982749044761,0.4875982749044761,0.4875982749044761,0.4875982749044761,0.4875982749044761,0.4875982749044761,0.4875982749044761,0.4875982749044761,0.4875982749044761,0.4875982749044761,0.4875982749044761
DP 509,69.431556132891529,0.0038456839105792894,-67.00745228276304,-65.541181733011669,-64.074911183258223,-62.608640633502652,-61.142370083744943,-59.676099533985081,-58.209828984223122,-56.743558434458976,-55.277287884692718,-53.811017334924244,-52.34625425969223,-50.910133485668986,-49.474012711643674,-48.037891937616124,-46.601771163586484,-45.165650389554727,-43.729529615520782,-42.29340884148472,-40.8572880674465,-39.421167293406171,-37.991310097864911,-36.617825700876942,-35.244341303886856,-33.870856906894645,-32.497372509900273,-31.123888112903778,-29.750403715905176,-28.376919318904388,-27.003434921901505,-25.629950524896483,-24.270353471379504,-22.989452239408841,-21.708551007435993,-20.427649775460946,-19.146748543483703,-17.865847311504297,-16.584946079522677,-15.304044847538876,-14.023143615552888,-12.742242383564735,-11.485526571389984,-10.325553581497926,-9.1655805916036854,-8.0056076017072328,-6.8456346118086078,-5.6856616219077685,-4.5256886320047416,-3.3657156420995178,-2.205742652192106,-1.0457696622824972,0.077425249088218129,1.0902845343096113,2.1031438195332361,3.1160031047590997,4.128862389987197,5.1417216752175356,6.1545809604501054,7.1674402456849116,8.18029953092195,9.1931588161612279,10.154760879974127,10.996760741749277,11.838760603526708,12.680760465306408,13.522760327088392,14.364760188872664,15.206760050659208,16.048759912448027,16.890759774239118,17.73275963603249,18.507585867705021,19.157659257907856,19.807732648113046,20.457806038320552,21.107879428530389,21.757952818742542,22.408026208957036,23.058099599173858,23.708172989392992,24.358246379614453,24.924247237304886,25.3641373095325,25.804027381762506,26.243917453994879,26.683807526229646,27.123697598466791,27.563587670706355,28.0034777429483,28.443367815192591,28.883257887439271,29.221620063163911,29.435890455013073,29.650160846864662,29.864431238718741,30.078701630575218,30.292972022434153,30.507242414295547,30.721512806159385,30.935783198025632,31.150053589894398,31.197052983654938,31.172998212256907,31.148943440861423,31.124888669468426,31.100833898077944,31.076779126689964,31.052724355304562,31.028669583921644,30.86795110083122,30.595414504953069,30.322877909077516,30.050341313204566,29.777804717334213,29.505268121466443,29.232731525601313,28.960194929738723,28.687658333878733,28.415121738021355,27.988789018124514,27.459923126030571,26.931057233939352,26.402191341850763,25.873325449764884,25.344459557681645,24.815593665601149,24.286727773523282,23.757861881448111,23.22899598937563,22.529721892917646,21.738687054526281,20.947652216137705,20.1566173777519,19.365582539368873,18.574547700988585,17.783512862611065,16.992478024236355,16.201443185864353,15.410408347495144,14.432947367677134,13.375586323436478,12.318225279198654,11.260864234963767,10.203503190731718,9.1461421465025587,8.0887811022762754,7.031420058052837,5.9740590138323011,4.91669796961463,3.6574551195608591,2.330915789945482,1.0043764603330541,-0.32216286927642529,-1.6487021988829267,-2.975241528486519,-4.3017808580871009,-5.6283201876847464,-6.9548595172794778,-8.28139884687121,-9.8246335394960269,-11.422044633168584,-13.019455726838023,-14.616866820504278,-16.214277914167393,-17.811689007827297,-19.409100101484075,-21.00651119513768,-22.603922288788119,-24.201333382435426,-26.030074054885528,-27.899640166601145,-29.769206278313604,-31.638772390023053,-33.508338501729327,-35.377904613432605,-37.247470725132722,-39.117036836829783,-40.986602948523689,-42.85616906021464,-44.97096704168284,-47.113015584194208,-49.255064126702159,-51.397112669206621,-53.539161211707828,-55.681209754205447,-57.823258296699741,-59.965306839190461,-62.107355381677955,-64.249403924161939,-66.650760351257958,-69.065767141764027,-71.480773932266672,-73.895780722765778,-76.310787513261317,-78.725794303753446,-81.140801094241951,-83.555807884727,-85.970814675208558,-88.385821465686533,0.502420941008968,0.502420941008968,0.502420941008968,0.502420941008968,0.502420941008968,0.502420941008968,0.502420941008968,0.502420941008968,0.502420941008968,0.502420941008968,0.502420941008968,0.502420941008968
DP 510,273.00812639810846,0.0017794286784070246,-86.085676993520892,-83.677980040563114,-81.270283087603872,-78.862586134643223,-76.454889181681182,-74.047192228717691,-71.639495275752878,-69.231798322786631,-66.8241013698189,-64.416404416849915,-62.013606584134948,-59.703892962425414,-57.394179340714551,-55.08446571900231,-52.774752097288655,-50.4650384755736,-48.155324853857174,-45.845611232139326,-43.535897610420143,-41.226183988699525,-38.936025973835768,-36.821870269124915,-34.707714564412726,-32.593558859699158,-30.479403154984283,-28.365247450268054,-26.251091745550454,-24.136936040831497,-22.022780336111214,-19.908624631389603,-17.835278971675571,-15.993192805302257,-14.151106638927594,-12.309020472551548,-10.466934306174139,-8.6248481397953611,-6.7827619734151972,-4.9406758070336609,-3.09858964065077,-1.2565034742665051,0.52022691080609,2.0355310818608787,3.5508352529169978,5.066139423974473,6.58144359503328,8.0967477660934435,9.6120519371549431,11.127356108217802,12.642660279281978,14.157964450347523,15.583849125773854,16.741471933452445,17.899094741132391,19.056717548813666,20.214340356496297,21.371963164180283,22.529585971865604,23.687208779552307,24.844831587240307,26.002454394929678,27.050330884501648,27.842128309552816,28.633925734605327,29.425723159659171,30.217520584714428,31.009318009770976,31.801115434828862,32.592912859888109,33.3847102849487,34.176507710010682,34.844232825138278,35.281534585386829,35.718836345636724,36.156138105887976,36.593439866140621,37.030741626394544,37.468043386649896,37.905345146906541,38.342646907164578,38.779948667423952,39.085894887412536,39.194804693014277,39.30371449861731,39.412624304221744,39.521534109827527,39.6304439154347,39.739353721043187,39.8482635266531,39.957173332264304,40.06608313787688,40.0433023952428,39.859563771954583,39.675825148667769,39.492086525382334,39.308347902098255,39.124609278815576,38.940870655534241,38.757132032254319,38.573393408975747,38.389654785698553,37.208212395601358,36.772382687664368,36.336552979728751,35.900723271794504,35.464893563861672,35.029063855930225,34.593234148000157,34.157404440071517,33.605675190399076,32.959117051119762,32.312558911841847,31.666000772565337,31.019442633290232,30.372884494016581,29.726326354744312,29.079768215473472,28.433210076204,27.786651936935982,27.037174955183609,26.219083790436056,25.400992625689923,24.582901460945205,23.764810296201965,22.946719131460139,22.128627966719758,21.310536801980792,20.492445637243307,19.674354472507215,18.767584989191526,17.813064352487302,16.858543715784563,15.904023079083293,14.949502442383457,13.994981805685105,13.040461168988177,12.085940532292756,11.131419895598748,10.176899258906225,9.1478737464363586,8.0869163153617958,7.025958884288686,5.9650014532171349,4.9040440221470458,3.8430865910784808,2.7821291600114151,1.7211717289458179,0.66021429788175479,-0.40074313318082,-1.5231317393324728,-2.6659981780536413,-3.8088646167732869,-4.9517310554914129,-6.0945974942079832,-7.2374639329230748,-8.3803303716365889,-9.5231968103485851,-10.666063249059093,-11.808929687768025,-13.001913600332227,-14.207427473505309,-15.412941346676806,-16.618455219846687,-17.82396909301497,-19.029482966181625,-20.234996839346685,-21.440510712510129,-22.646024585671952,-23.851538458832216,-25.098246057221665,-26.352223594613186,-27.606201132003125,-28.860178669391562,-30.11415620677835,-31.368133744163615,-32.622111281547269,-33.876088818929368,-35.130066356309904,-36.38404389368884,-37.672754513412535,-38.965324729285932,-40.257894945157659,-41.550465161027638,-42.843035376895976,-44.135605592762545,-45.428175808627451,-46.720746024490609,-48.013316240352125,-49.305886456211944,-50.629801385305235,-51.955366348013712,-53.28093131072059,-54.606496273425627,-55.932061236128916,-57.257626198830572,-58.583191161530436,-59.90875612422851,-61.23432108692495,-62.559886049619571,0.257879648747755,0.257879648747755,0.257879648747755,0.257879648747755,0.257879648747755,0.257879648747755,0.257879648747755,0.257879648747755,0.257879648747755,0.257879648747755,0.257879648747755,0.257879648747755
DP 511,133.9630990302486,0.0027283095228652983,-77.264843916635783,-75.361096464243772,-73.4573490118497,-71.553601559453455,-69.6498541070552,-67.746106654654852,-65.842359202252439,-63.938611749847908,-62.034864297441345,-60.131116845032714,-58.229979140545694,-56.378427139966533,-54.5268751393853,-52.675323138802007,-50.823771138216649,-48.972219137629232,-47.120667137039746,-45.26911513644815,-43.417563135854543,-41.566011135258854,-39.72514377021745,-37.980439135111595,-36.235734500003723,-34.491029864893846,-32.746325229781988,-31.001620594668076,-29.256915959552185,-27.512211324434251,-25.767506689314306,-24.022802054192351,-22.30127993511832,-20.711126867826408,-19.120973800532472,-17.530820733236453,-15.940667665938406,-14.350514598638279,-12.760361531336102,-11.170208464031871,-9.5800553967255979,-7.989902329417264,-6.4389388314521785,-5.0447354629970027,-3.6505320945398014,-2.2563287260805684,-0.8621253576193203,0.53207801084396777,1.926281379309277,3.3204847477766206,4.7146881162459833,6.1088914847173736,7.4457097280223472,8.6103704261717979,9.7750311243232861,10.939691822476821,12.104352520632391,13.269013218790027,14.433673916949679,15.59833461511138,16.762995313275116,17.927656011440884,19.0159093737273,19.925875943072111,20.835842512418953,21.745809081767842,22.655775651118812,23.565742220471808,24.475708789826854,25.385675359184017,26.295641928543144,27.205608497904368,28.020659647041636,28.659436738176403,29.298213829313223,29.936990920452118,30.575768011593109,31.214545102736135,31.853322193881247,32.492099285028459,33.130876376177696,33.769653467329057,34.296666698469927,34.65603149857278,35.015396298677736,35.374761098784752,35.734125898893929,36.093490699005152,36.452855499118471,36.812220299233893,37.171585099351425,37.530949899471025,37.764235390264474,37.843421299169428,37.9226072080765,38.001793116985716,38.080979025897051,38.160164934810496,38.239350843726079,38.318536752643773,38.39772266156362,38.476908570485584,38.027869628148459,37.832416350251705,37.636963072357148,37.441509794464658,37.2460565165744,37.050603238686293,36.855149960800347,36.659696682916561,36.318959165217571,35.85935022721992,35.399741289224437,34.940132351231192,34.480523413240142,34.020914475251296,33.561305537264651,33.101696599280217,32.642087661298,32.182478723317992,31.572759884086533,30.862965412587752,30.153170941091222,29.44337646959691,28.733581998104892,28.023787526615084,27.313993055127597,26.604198583642319,25.894404112159325,25.184609640678552,24.322603591262837,23.378635247997849,22.434666904735156,21.4906985614748,20.546730218216723,19.602761874960972,18.658793531707502,17.714825188456381,16.770856845207536,15.826888501961001,14.730690886427807,13.569249584744842,12.407808283064192,11.246366981385966,10.084925679710084,8.92348437803659,7.7620430763654635,6.600601774696691,5.4391604730303147,4.2777191713663036,2.9652814090988016,1.6025095903136,0.23973777153081333,-1.1230340472495535,-2.4858058660274764,-3.8485776848030206,-5.2113495035760851,-6.57412132234674,-7.9368931411150268,-9.2996649598808254,-10.811758964325048,-12.361185279453446,-13.91061159457931,-15.460037909702582,-17.009464224823311,-18.558890539941441,-20.108316855057012,-21.657743170170054,-23.207169485280467,-24.756595800388396,-26.45443333645434,-28.178462738337029,-29.902492140217166,-31.626521542094871,-33.350550943970013,-35.074580345842683,-36.798609747712824,-38.522639149580471,-40.246668551445595,-41.970697953308239,-43.843463892939809,-45.732757676629141,-47.622051460315731,-49.5113452439996,-51.400639027680761,-53.289932811359115,-55.17922659503482,-57.068520378707738,-58.957814162377929,-60.84710794604532,-62.888152773553173,-64.9371860079664,-66.9862192423769,-69.035252476784564,-71.0842857111895,-73.133318945591682,-75.182352179990914,-77.231385414387461,-79.280418648781207,-81.3294518831721,0.4124822160734688,0.4124822160734688,0.4124822160734688,0.4124822160734688,0.4124822160734688,0.4124822160734688,0.4124822160734688,0.4124822160734688,0.4124822160734688,0.4124822160734688,0.4124822160734688,0.4124822160734688
DP 512,125.88110041260741,0.0014294597294186885,-38.538087964374988,-37.598856260470363,-36.659624556564594,-35.720392852657774,-34.781161148749895,-33.84192944484095,-32.902697740930904,-31.963466037019824,-31.024234333107668,-30.085002629194442,-29.14701941543683,-28.232757750675628,-27.318496085913409,-26.40423442115009,-25.48997275638569,-24.575711091620256,-23.661449426853729,-22.747187762086146,-21.8329260973175,-20.918664432547775,-20.009522765401844,-19.146461560829582,-18.283400356256273,-17.420339151681976,-16.557277947106588,-15.69421674253018,-14.831155537952732,-13.968094333374236,-13.105033128794704,-12.241971924214127,-11.390046481031362,-10.601224387488788,-9.8124022939451532,-9.0235802004004544,-8.2347581068546987,-7.44593601330787,-6.6571139197599889,-5.8682918262110366,-5.07946973266103,-4.29064763910996,-3.5207149519579848,-2.8263407831341665,-2.1319666143093019,-1.4375924454833857,-0.74321827665642837,-0.048844107828414855,0.64553006100064381,1.3399042298307542,2.0342783986619097,2.7286525674941102,3.3952472006854864,3.9785021766464563,4.5617571526084824,5.1450121285715618,5.7282671045357025,6.3115220805009,6.8947770564671442,7.4780320324344531,8.06128700840282,8.64454198437223,9.1906143466224357,9.6499258124628149,10.109237278304274,10.568548744146794,11.027860209990369,11.48717167583502,11.946483141680716,12.405794607527495,12.865106073375321,13.324417539224225,13.737255174125567,14.063783010758907,14.390310847393327,14.716838684028829,15.043366520665387,15.369894357303021,15.696422193941741,16.022950030581534,16.3494778672224,16.676005703864327,16.947421486614598,17.136167886208604,17.324914285803693,17.513660685399888,17.70240708499713,17.891153484595495,18.079899884194919,18.268646283795469,18.457392683397071,18.646139082999774,18.772219429940563,18.821706618452648,18.871193806965834,18.920680995480115,18.970168183995515,19.019655372512,19.069142561029611,19.118629749548308,19.168116938068128,19.217604126589027,19.021772102617362,18.933541594983232,18.84531108735024,18.757080579718352,18.668850072087587,18.580619564457969,18.492389056829456,18.404158549202073,18.24236523840996,18.020382915344634,17.798400592280441,17.57641826921741,17.354435946155512,17.132453623094769,16.910471300035152,16.688488976976714,16.466506653919403,16.244524330863253,15.945732838373566,15.595734022909779,15.245735207447151,14.895736391985714,14.545737576525449,14.195738761066339,13.845739945608411,13.495741130151652,13.145742314696092,12.795743499241667,12.366979656987644,11.895802731844796,11.424625806703171,10.953448881562744,10.482271956423508,10.011095031285482,9.5399181061486562,9.0687411810130438,8.5975642558786181,8.1263873307454091,7.5755025981906,6.9904560313645545,6.4054094645397095,5.8203628977161337,5.23531633089378,4.65026976407267,4.0652231972527959,3.4801766304341375,2.8951300636167354,2.3100834968005612,1.6450213806129919,0.95328640621232275,0.26155143181291157,-0.43018354258523916,-1.121918516982116,-1.8136534913777551,-2.5053884657721004,-3.1971234401651958,-3.8888584145570491,-4.5805933889476176,-5.3523859857246112,-6.1441939339913585,-6.9360018822567824,-7.72780983052087,-8.51961777878362,-9.311425727045016,-10.103233675305081,-10.895041623563809,-11.686849571821202,-12.47865752007727,-13.350881660305022,-14.237297787473043,-15.1237139146397,-16.01013004180512,-16.896546168969177,-17.782962296131977,-18.669378423293427,-19.555794550453594,-20.442210677612433,-21.328626804770007,-22.29633512680407,-23.273076768694803,-24.249818410584119,-25.226560052472013,-26.20330169435849,-27.180043336243511,-28.156784978127142,-29.133526620009302,-30.110268261890067,-31.087009903769403,-32.147159649418676,-33.211700125143246,-34.276240600866359,-35.340781076588,-36.4053215523082,-37.469862028026988,-38.534402503744296,-39.5989429794601,-40.663483455174479,-41.728023930887424,0.2149956323243947,0.2149956323243947,0.2149956323243947,0.2149956323243947,0.2149956323243947,0.2149956323243947,0.2149956323243947,0.2149956323243947,0.2149956323243947,0.2149956323243947,0.2149956323243947,0.2149956323243947
DP 513,215.11104010522484,0.0025955304944685251,-106.13242826163037,-103.29170653333034,-100.45098480502841,-97.610263076724351,-94.769541348418215,-91.928819620110048,-89.088097891799791,-86.247376163487559,-83.4066544351731,-80.565932706856643,-77.730223942652387,-74.989762444291529,-72.249300945928709,-69.508839447563773,-66.768377949196747,-64.027916450827732,-61.287454952456606,-58.546993454083434,-55.806531955708245,-53.066070457330945,-50.345819839467467,-47.807469056612753,-45.269118273755915,-42.730767490897186,-40.1924167080365,-37.654065925173704,-35.115715142308972,-32.577364359442242,-30.039013576573513,-27.500662793702773,-25.005166922284552,-22.752518249587411,-20.499869576888234,-18.247220904187024,-15.994572231483788,-13.741923558778513,-11.489274886071211,-9.23662621336187,-6.9839775406505,-4.7313288679371,-2.5488360583174763,-0.64697001670181487,1.2548960249158323,3.1567620665354834,5.0586281081571141,6.9604941497807644,8.8623601914063919,10.764226233034027,12.666092274663644,14.567958316295256,16.371159130847836,17.878360533763619,19.385561936681356,20.89276333960111,22.399964742522872,23.907166145446638,25.4143675483724,26.921568951300156,28.428770354229915,29.9359717571617,31.318039320930993,32.408122998386453,33.498206675843868,34.588290353303293,35.678374030764743,36.76845770822819,37.85854138569367,38.94862506316111,40.038708740630604,41.128792418102066,42.071975173178679,42.742337962293313,43.412700751409965,44.083063540528656,44.753426329649322,45.423789118772056,46.094151907896745,46.7645146970235,47.434877486152232,48.105240275283,48.613377959856962,48.878174154155531,49.142970348456139,49.407766542758743,49.672562737063437,49.9373589313701,50.202155125678843,50.4669513199896,50.731747514302349,50.996543708617232,51.090986780833873,50.977216903368529,50.863447025905153,50.749677148443865,50.635907270984625,50.522137393527458,50.408367516072353,50.29459763861928,50.180827761168239,50.067057883719272,48.868486997844734,48.411811970756304,47.955136943669991,47.498461916585732,47.041786889503527,46.5851118624234,46.128436835345411,45.671761808269473,45.048690308495594,44.289473380508326,43.530256452523119,42.771039524540058,42.011822596559071,41.252605668580273,40.493388740603507,39.73417181262888,38.97495488465642,38.215737956686006,37.299979176715254,36.279856695984854,35.259734215256685,34.239611734530619,33.219489253806735,32.199366773084961,31.179244292365407,30.15912181164795,29.138999330932684,28.118876850219547,26.955292841881469,25.714458232486692,24.473623623094134,23.232789013703776,21.991954404315628,20.751119794929682,19.510285185545925,18.269450576164409,17.028615966785061,15.787781357407932,14.41819147982199,12.993418599762299,11.568645719704824,10.143872839649658,8.7190999595967025,7.2943270795460373,5.8695541994976059,4.4447813194514021,3.02000843940749,1.5952355593658136,0.056521573660907994,-1.5201742165788419,-3.0968700068163035,-4.6735657970514755,-6.25026158728433,-7.8269573775149395,-9.4036531677431761,-10.980348957969143,-12.557044748192878,-14.133740538414255,-15.810684855666745,-17.512692489128227,-19.214700122587331,-20.916707756043994,-22.618715389498252,-24.320723022950091,-26.022730656399478,-27.724738289846449,-29.426745923290991,-31.128753556733184,-32.919797095052331,-34.72655384197018,-36.533310588885662,-38.340067335798864,-40.146824082709649,-41.953580829618055,-43.760337576524087,-45.567094323427739,-47.373851070329067,-49.180607817228044,-51.068231782028931,-52.964841842558329,-54.861451903085289,-56.758061963609492,-58.654672024131266,-60.551282084650467,-62.447892145167096,-64.344502205681039,-66.241112266192545,-68.137722326701436,-70.111446658210951,-72.0892304028171,-74.067014147420664,-76.044797892021663,-78.022581636620032,-80.000365381215857,-81.97814912580904,-83.95593287039955,-85.933716614987489,-87.911500359572742,0.3886340692739112,0.3886340692739112,0.3886340692739112,0.3886340692739112,0.3886340692739112,0.3886340692739112,0.3886340692739112,0.3886340692739112,0.3886340692739112,0.3886340692739112,0.3886340692739112,0.3886340692739112
DP 514,82.627603740204876,0.0015975632107977286,-31.356582880630842,-30.648118203042454,-29.939653525453068,-29.2311888478627,-28.522724170271296,-27.814259492678936,-27.105794815085567,-26.397330137491178,-25.688865459895794,-24.980400782299398,-24.272713211867615,-23.579790824489095,-22.886868437109595,-22.193946049729053,-21.501023662347539,-20.808101274965026,-20.115178887581493,-19.422256500196976,-18.729334112811458,-18.036411725424937,-17.34670874777871,-16.685980762107427,-16.025252776435174,-15.364524790761939,-14.703796805087704,-14.043068819412488,-13.38234083373627,-12.721612848059088,-12.06088486238089,-11.400156876701725,-10.746532227814786,-10.133160268368348,-9.5197883089208943,-8.9064163494724333,-8.2930443900229545,-7.6796724305724684,-7.0663004711209725,-6.4529285116684543,-5.8395565522149342,-5.226184592760398,-4.6251042354054368,-4.0731908673628361,-3.5212774993192357,-2.9693641312746224,-2.417450763229005,-1.8655373951823746,-1.3136240271347392,-0.76171065908609237,-0.20979729103644096,0.34211607701421826,0.87549244442236018,1.3532571090425876,1.8310217736638352,2.308786438286107,2.7865511029094003,3.2643157675337169,3.7420804321590575,4.219845096785412,4.6976097614127923,5.1753744260411985,5.6275568204341457,6.0200462434142512,6.4125356663953941,6.80502508937757,7.197514512360784,7.5900039353450435,7.9824933583303261,8.3749827813166515,8.7674722043040223,9.159961627292418,9.5193086223086123,9.8171044988979084,10.114900375488261,10.412696252079675,10.710492128672142,11.008288005265658,11.306083881860227,11.603879758455864,11.901675635052554,12.199471511650277,12.456319903101058,12.651746099226628,12.847172295353291,13.042598491481016,13.238024687609823,13.433450883739711,13.628877079870659,13.824303276002675,14.019729472135799,14.21515566826997,14.361831659190115,14.448923041972591,14.536014424756148,14.623105807540828,14.710197190326594,14.797288573113457,14.884379955901426,14.971471338690494,15.05856272148066,15.145654104271914,15.125186826728715,15.099581426111742,15.073976025495874,15.048370624881143,15.022765224267543,14.997159823655059,14.971554423043711,14.945949022433478,14.856752806931834,14.715526650029092,14.574300493127502,14.433074336227081,14.291848179327822,14.150622022429712,14.009395865532751,13.868169708636966,13.726943551742318,13.585717394848823,13.37410607924026,13.115570215671015,12.857034352102978,12.59849848853611,12.339962624970445,12.081426761405956,11.822890897842667,11.56435503428056,11.30581917071965,11.047283307159926,10.712045202902035,10.335504776729534,9.9589643505582881,9.582423924388257,9.2058834982194622,8.8293430720518842,8.4528026458855372,8.0762622197204266,7.699721793556539,7.3231813673938779,6.8640767331283845,6.3695860446585648,5.8750953561899868,5.3806046677227064,4.8861139792566748,4.3916232907919195,3.8971326023284321,3.4026419138662019,2.9081512254052471,2.4136605369455562,1.8311065655253,1.21919705660458,0.60728754768515758,-0.0046219612329670631,-0.61653147014978238,-1.2284409790653197,-1.8403504879795327,-2.4522599968924528,-3.0641695058040956,-3.6760790147144111,-4.3812419371172622,-5.1097193146968278,-5.8381966922750239,-6.5666740698518318,-7.295151447427255,-8.0236288250012819,-8.7521062025739251,-9.48058358014519,-10.20906095771506,-10.937538335283573,-11.764442579107564,-12.608717364438602,-13.452992149768276,-14.297266935096618,-15.141541720423572,-15.985816505749195,-16.830091291073469,-17.674366076396375,-18.518640861717934,-19.362915647038161,-20.310643969650016,-21.269868216244504,-22.229092462837553,-23.188316709429053,-24.1475409560191,-25.106765202607647,-26.06598944919471,-27.025213695780227,-27.984437942364334,-28.943662188946881,-30.011696112403911,-31.085457943572113,-32.159219774738837,-33.23298160590403,-34.306743437067681,-35.380505268229875,-36.454267099390471,-37.528028930549546,-38.601790761707129,-39.675552592863134,0.22147966212014059,0.22147966212014059,0.22147966212014059,0.22147966212014059,0.22147966212014059,0.22147966212014059,0.22147966212014059,0.22147966212014059,0.22147966212014059,0.22147966212014059,0.22147966212014059,0.22147966212014059
DP 515,166.18519320615439,0.0022583267994680514,-75.838970671040187,-73.898955863397447,-71.9589410557529,-70.018926248106553,-68.078911440458455,-66.13889663280861,-64.198881825156974,-62.258867017503512,-60.318852209848366,-58.378837402191337,-56.44179358459337,-54.561199139798241,-52.680604695001257,-50.800010250202604,-48.919415805402124,-47.0388213605999,-45.158226915795893,-43.27763247099017,-41.397038026182592,-39.516443581373281,-37.647933920697781,-35.888188459515931,-34.1284429983323,-32.368697537146993,-30.608952075959966,-28.849206614771205,-27.089461153580704,-25.329715692388483,-23.569970231194525,-21.810224769998921,-20.076456826905527,-18.489896456693291,-16.903336086479314,-15.316775716263587,-13.730215346046094,-12.143654975826866,-10.557094605605871,-8.97053423538312,-7.3839738651586186,-5.7974134949323552,-4.2541955256836568,-2.8843492087473011,-1.5145028918092283,-0.14465657486942146,1.2251897420720992,2.5950360590153592,3.96488237596034,5.3347286929070474,6.7045750098554819,8.0744213268056342,9.3818382284055346,10.501964523581373,11.622090818758922,12.742217113938231,13.862343409119269,14.982469704302037,16.102595999486542,17.222722294672796,18.342848589860751,19.462974885050468,20.501620668553446,21.350142049095041,22.198663429638405,23.04718481018347,23.895706190730291,24.744227571278838,25.592748951829158,26.441270332381198,27.289791712934985,28.138313093490527,28.887949613526153,29.453940150667897,30.019930687811371,30.585921224956614,31.151911762103623,31.717902299252334,32.283892836402842,32.84988337355508,33.415873910709081,33.981864447864865,34.434475013763517,34.717012943564988,34.999550873368243,35.282088803173238,35.564626732980024,35.847164662788593,36.129702592598925,36.412240522411004,36.69477845222486,36.977316382040478,37.135718850234895,37.142397591232516,37.149076332231942,37.155755073233173,37.162433814236195,37.169112555241028,37.1757912962476,37.182470037256,37.189148778266208,37.195827519278161,36.56189036781339,36.306979264515647,36.052068161219722,35.79715705792561,35.5422459546333,35.287334851342841,35.032423748054185,34.777512644767363,34.389166021072214,33.891642587494587,33.394119153918759,32.896595720344841,32.399072286772721,31.901548853202474,31.404025419634056,30.906501986067539,30.408978552502834,29.91145511894,29.281420976999161,28.563044275289958,27.844667573582615,27.1262908718772,26.407914170173644,25.689537468471968,24.971160766772229,24.252784065074337,23.534407363378353,22.816030661684248,21.968907658703042,21.05245785206295,20.136008045424823,19.219558238788636,18.303108432154364,17.386658625522038,16.470208818891638,15.553759012263225,14.637309205636706,13.720859399012122,12.681365681301985,11.589136782000876,10.49690788270172,9.4046789834045867,8.3124500841094111,7.2202211848162419,6.1279922855250444,5.0357633862358053,3.9435344869485807,2.8513055876633264,1.6426549153064862,0.395195518015041,-0.85226387927439018,-2.0997232765618037,-3.3471826738471733,-4.5946420711305622,-5.8421014684118795,-7.0895608656911859,-8.3370202629685135,-9.5844796602437743,-10.941758208991997,-12.326492843138421,-13.711227477282735,-15.095962111424909,-16.480696745564945,-17.86543137970283,-19.250166013838594,-20.634900647972216,-22.019635282103703,-23.404369916233097,-24.893544585546543,-26.401151010691827,-27.908757435834939,-29.416363860976045,-30.923970286114997,-32.431576711251921,-33.9391831363867,-35.446789561519417,-36.95439598665007,-38.4620024117786,-40.070457159178474,-41.690118334863747,-43.3097795105468,-44.929440686227515,-46.549101861906017,-48.168763037582188,-49.7884242132562,-51.408085388927773,-53.027746564597244,-54.647407740264306,-56.367442706323743,-58.0927615021344,-59.818080297942871,-61.54339909374891,-63.268717889552725,-64.994036685354288,-66.719355481153428,-68.444674276950224,-70.169993072744816,-71.89531186853695,0.34340873571058239,0.34340873571058239,0.34340873571058239,0.34340873571058239,0.34340873571058239,0.34340873571058239,0.34340873571058239,0.34340873571058239,0.34340873571058239,0.34340873571058239,0.34340873571058239,0.34340873571058239
DP 516,80.89324694324597,0.00200768722379558,-38.822725720026448,-37.948969728398005,-37.075213736768276,-36.201457745137347,-35.327701753505131,-34.453945761871751,-33.580189770237055,-32.706433778601138,-31.832677786963988,-30.958921795325605,-30.086116234952559,-29.231369048317994,-28.376621861682121,-27.521874675045055,-26.667127488406724,-25.812380301767167,-24.957633115126381,-24.102885928484334,-23.248138741841039,-22.393391555196498,-21.542582691633243,-20.727219108068624,-19.911855524502759,-19.096491940935696,-18.281128357367383,-17.465764773797854,-16.650401190227097,-15.83503760665509,-15.019674023081878,-14.204310439507438,-13.397642510290186,-12.640250503721671,-11.882858497151886,-11.125466490580852,-10.368074484008565,-9.610682477435029,-8.8532904708602231,-8.095898464284156,-7.3385064577068357,-6.58111445112827,-5.8387809860435347,-5.1566823986167467,-4.4745838111887233,-3.792485223759432,-3.1103866363288954,-2.4282880488971017,-1.7461894614640563,-1.0640908740297554,-0.3819922865942057,0.30010630084259848,0.95946907488856037,1.55062354914985,2.1417780234124097,2.7329324976762415,3.3240869719413428,3.9152414462077161,4.50639592047536,5.0975503947442782,5.6887048690144608,6.2798593432859215,6.8395966569009836,7.3260260249868576,7.8124553930740168,8.2988847611624657,8.78531412925221,9.2717434973432411,9.75817286543556,10.244602233529172,10.731031601624073,11.217460969720269,11.663125724371138,12.033083667441899,12.40304161051397,12.77299955358736,13.142957496662055,13.512915439738064,13.882873382815397,14.252831325894013,14.622789268973975,14.99274721205523,15.312255814559807,15.556089214062123,15.799922613565764,16.043756013070759,16.28758941257707,16.531422812084735,16.775256211593742,17.019089611104086,17.262923010615765,17.506756410128784,17.690410501844653,17.800510842199948,17.910611182556604,18.020711522914642,18.130811863274054,18.240912203634831,18.351012543996962,18.461112884360475,18.571213224725373,18.68131356509161,18.663105078775754,18.63380135264741,18.604497626520455,18.575193900394904,18.545890174270792,18.516586448148047,18.487282722026706,18.457978995906782,18.349843451384917,18.177207791571263,18.004572131759055,17.831936471948286,17.659300812138952,17.486665152331071,17.314029492524639,17.141393832719633,16.968758172916086,16.796122513113957,16.536031841935593,16.217636452111378,15.899241062288661,15.580845672467401,15.262450282647645,14.944054892829367,14.625659503012571,14.307264113197254,13.988868723383446,13.670473333571099,13.256556081835228,12.791202592316248,12.325849102798813,11.860495613282902,11.395142123768521,10.929788634255653,10.464435144744323,9.9990816552345283,9.533728165726238,9.06837467621949,8.4999665629599175,7.8873904429340529,7.2748143229097426,6.6622382028870355,6.0496620828659005,5.4370859628463579,4.8245098428283946,4.211933722812,3.5993576027972014,2.9867814827839818,2.264051992521809,1.5046033239320078,0.74515465534382708,-0.014294013242734122,-0.7737426818276596,-1.5331913504109893,-2.292640018992663,-3.0520886875727222,-3.8115373561511876,-4.570986024727997,-5.4473045987451956,-6.3528420299585937,-7.2583794611702936,-8.1639168923802465,-9.069454323588479,-9.9749917547949671,-10.880529185999722,-11.786066617202756,-12.691604048404056,-13.597141479603643,-14.626232306981167,-15.67712804879209,-16.728023790601259,-17.778919532408828,-18.829815274214631,-19.880711016018786,-20.931606757821214,-21.982502499621987,-23.033398241421029,-24.084293983218448,-25.265212786240983,-26.4605799616147,-27.6559471369866,-28.851314312356575,-30.046681487724751,-31.242048663091008,-32.437415838455436,-33.632783013817985,-34.828150189178658,-36.0235173645375,-37.355744443739141,-38.695176037475711,-40.034607631210392,-41.374039224943154,-42.713470818674011,-44.052902412402986,-45.392334006130071,-46.73176559985518,-48.07119719357847,-49.41062878729975,0.27656422399264474,0.27656422399264474,0.27656422399264474,0.27656422399264474,0.27656422399264474,0.27656422399264474,0.27656422399264474,0.27656422399264474,0.27656422399264474,0.27656422399264474,0.27656422399264474,0.27656422399264474
DP 517,67.512378444673729,0.0016015643609410244,-27.393444757013263,-26.797123937265194,-26.20080311751623,-25.604482297766431,-25.008161478015747,-24.411840658264193,-23.815519838511783,-23.219199018758495,-22.622878199004326,-22.02655737924929,-21.430844007300571,-20.846672258522315,-20.262500509743173,-19.678328760963158,-19.094157012182269,-18.509985263400523,-17.925813514617872,-17.341641765834378,-16.75747001705,-16.173298268264752,-15.591651454999164,-15.032729300078952,-14.473807145157849,-13.914884990235876,-13.35596283531302,-12.797040680389308,-12.238118525464726,-11.679196370539264,-11.120274215612941,-10.561352060685747,-10.00803159746712,-9.48645440692224,-8.9648772163764665,-8.4433000258298,-7.9217228352822451,-7.4001456447338,-6.8785684541844514,-6.3569912636342174,-5.8354140730830864,-5.3138368825310671,-4.802024992338124,-4.3292747651001688,-3.8565245378613162,-3.383774310621567,-2.91102408338092,-2.4382738561393755,-1.9655236288969338,-1.4927734016535941,-1.0200231744093591,-0.54727294716422736,-0.089389305010903822,0.32389401978019161,0.73717734457220063,1.1504606693651254,1.5637439941589648,1.9770273189537191,2.3903106437493875,2.803593968545973,3.2168772933434653,3.6301606181418826,4.02269380443212,4.3668091836485168,4.7109245628658423,5.0550399420841057,5.3991553213032963,5.7432707005234294,6.0873860797444888,6.4315014589664878,6.775616838189416,7.1197322174132758,7.43661133338061,7.7029080820387081,7.969204830697783,8.2355015793577948,8.50179832801877,8.7680950766806873,9.0343918253435671,9.300688574007399,9.5669853226721866,9.8332820713379245,10.065428688220278,10.246349300446827,10.427269912674367,10.608190524902867,10.789111137132359,10.97003174936283,11.150952361594273,11.331872973826702,11.512793586060097,11.693714198294478,11.833312065102557,11.922403486192323,12.011494907283083,12.100586328374861,12.189677749467638,12.278769170561429,12.367860591656216,12.456952012752012,12.546043433848816,12.635134854946616,12.659394592950282,12.651280020174537,12.643165447399843,12.635050874626179,12.626936301853544,12.61882172908196,12.610707156311399,12.602592583541885,12.538614350141559,12.428928525259156,12.319242700377821,12.209556875497562,12.099871050618356,11.990185225740218,11.88049940086316,11.770813575987157,11.661127751112232,11.551441926238372,11.378747890906643,11.164047389332316,10.949346887759091,10.734646386186968,10.519945884615948,10.305245383046023,10.090544881477218,9.8758443799095037,9.6611438783428909,9.4464433767773919,9.16177335672431,8.8394264246217666,8.5170794925203754,8.1947325604201158,7.8723856283209939,7.5500386962230213,7.2276917641261775,6.90534483203048,6.58299789993592,6.2606509678425075,5.8615950575860083,5.4296625762145867,4.9977300948443348,4.5657976134752865,4.133865132107406,3.701932650740722,3.270000169375217,2.838067688010891,2.4061352066477562,1.9742027252858034,1.4590365899381617,0.91612485428202683,0.37321311862710788,-0.16969861702659558,-0.712610352679072,-1.2555220883303508,-1.7984338239803881,-2.3413455596292136,-2.8842572952768428,-3.42716903092323,-4.059577972645565,-4.7143622733103134,-5.3691465739737776,-6.02393087463593,-6.6787151752967882,-7.3334994759563239,-7.988283776614562,-8.6430680772714972,-9.2978523779271267,-9.9526366785814613,-10.703100096430546,-11.470449128338281,-12.2377981602447,-13.005147192149902,-13.772496224053794,-14.539845255956436,-15.307194287857769,-16.074543319757854,-16.84189235165665,-17.609241383554181,-18.478130340207517,-19.358302577131028,-20.238474814053124,-21.118647050973781,-21.998819287893078,-22.87899152481091,-23.759163761727386,-24.639335998642377,-25.519508235556039,-26.399680472468216,-27.387291712351054,-28.380558705575769,-29.373825698799006,-30.367092692020826,-31.360359685241182,-32.3536266784601,-33.3468936716776,-34.340160664893574,-35.33342765810815,-36.326694651321233,0.20693375203093284,0.20693375203093284,0.20693375203093284,0.20693375203093284,0.20693375203093284,0.20693375203093284,0.20693375203093284,0.20693375203093284,0.20693375203093284,0.20693375203093284,0.20693375203093284,0.20693375203093284
DP 518,144.28301117012512,0.005839698621429446,-175.40337272571412,-171.02521425574534,-166.64705578577193,-162.26889731579411,-157.89073884581182,-153.51258037582497,-149.13442190583353,-144.75626343583767,-140.37810496583722,-135.99994649583232,-131.62801914481057,-127.37448423251097,-123.12094932020688,-118.86741440789832,-114.61387949558519,-110.36034458326765,-106.10680967094561,-101.85327475861904,-97.599739846287918,-93.34620493395245,-89.118124379797692,-85.119135455296117,-81.120146530790166,-77.1211576062799,-73.122168681765245,-69.1231797572462,-65.124190832722732,-61.125201908194974,-57.126212983662846,-53.1272240591263,-49.183298862516793,-45.551404927327226,-41.919510992133226,-38.287617056934714,-34.655723121731839,-31.023829186524427,-27.391935251312571,-23.76004131609627,-20.1281473808755,-16.496253445650311,-12.957043582719347,-9.7885743893029229,-6.6201051958821244,-3.451636002456917,-0.28316680902734531,2.885302384406653,6.0537715778450281,9.2222407712878063,12.390709964734953,15.559179158186513,18.592659175763096,21.221166561951996,23.849673948145316,26.478181334343059,29.106688720545232,31.735196106751825,34.363703492962813,36.992210879178259,39.6207182653981,42.249225651622389,44.699168621566933,46.732454254284832,48.765739887007193,50.799025519733959,52.832311152465188,54.865596785200857,56.898882417941024,58.932168050685569,60.965453683434518,62.998739316188036,64.811899173968612,66.21624807633421,67.620596978704256,69.0249458810788,70.429294783457863,71.833643685841352,73.237992588229417,74.642341490621845,76.046690393018764,77.4510392954202,78.598449754527834,79.360446477141792,80.12244319976044,80.884439922383578,81.646436645011278,82.408433367643411,83.17043009028005,83.932426812921335,84.694423535567125,85.4564202582174,85.931409838530072,86.055606883020559,86.17980392751565,86.304000972015317,86.428198016519715,86.5523950610285,86.676592105541957,86.800789150060041,86.9249861945827,87.049183239109908,85.875838883600608,85.381660563515183,84.887482243434434,84.393303923358445,83.899125603286933,83.404947283220309,82.910768963158219,82.416590643100832,81.599205994590989,80.517374250088253,79.435542505590234,78.353710761097091,77.27187901660858,76.190047272124872,75.108215527645882,74.026383783171724,72.944552038702284,71.862720294237633,70.451288918265377,68.820119262251353,67.188949606242218,65.557779950237958,63.926610294238507,62.295440638243932,60.664270982254237,59.033101326269374,57.401931670289351,55.770762014314258,53.8100471648785,51.671880111415412,49.533713057957321,47.395546004504205,45.257378951056047,43.119211897612878,40.981044844174683,38.84287779074149,36.704710737313249,34.56654368389,32.103653123869194,29.501589865775404,26.89952660768655,24.297463349602964,21.695400091524391,19.093336833451019,16.491273575382696,13.889210317319437,11.287147059261352,8.6850838012083429,5.7658092074786476,2.7407935040952425,-0.28422219928296028,-3.3092379026559637,-6.3342536060237009,-9.35926930938633,-12.38428501274362,-15.409300716095755,-18.434316419442755,-21.459332122784449,-24.79334438150897,-28.204609429920836,-31.615874478327289,-35.0271395267282,-38.438404575123592,-41.849669623513435,-45.260934671897779,-48.672199720276595,-52.083464768649961,-55.494729817017834,-59.208880041283017,-62.976483958832077,-66.744087876375488,-70.511691793913727,-74.279295711446466,-78.046899628973947,-81.814503546495828,-85.582107464012367,-89.349711381523619,-93.117315299029528,-97.185000301490859,-101.28603079828166,-105.38706129506664,-109.48809179184575,-113.58912228861917,-117.6901527853864,-121.79118328214808,-125.89221377890355,-129.99324427565344,-134.09427477239731,-138.49916403262873,-142.92004888263051,-147.34093373262641,-151.76181858261626,-156.18270343260005,-160.60358828257787,-165.02447313254979,-169.44535798251553,-173.86624283247528,-178.28712768242897,0.886485388931254,0.886485388931254,0.886485388931254,0.886485388931254,0.886485388931254,0.886485388931254,0.886485388931254,0.886485388931254,0.886485388931254,0.886485388931254,0.886485388931254,0.886485388931254
DP 519,64.319305678059436,0.0052826045500599149,-87.538314342228617,-85.649851292464078,-83.761388242696867,-81.872925192926985,-79.9844621431543,-78.09599909337885,-76.207536043600655,-74.319072993819773,-72.4306099440361,-70.5421468942498,-68.655577776770215,-66.804993731207219,-64.954409685641451,-63.103825640072891,-61.25324159450161,-59.402657548927486,-57.552073503350648,-55.701489457771025,-53.850905412188673,-52.0003213666035,-50.157619197208327,-48.385854658553875,-46.6140901198967,-44.842325581236757,-43.070561042574028,-41.2987965039085,-39.527031965240219,-37.755267426569191,-35.983502887895384,-34.211738349218805,-32.457478494826724,-30.802412954441863,-29.147347414054195,-27.492281873663686,-25.837216333270323,-24.182150792874147,-22.527085252475082,-20.872019712073193,-19.216954171668469,-17.56188863126091,-15.937384509197887,-14.435127504878821,-12.932870500556911,-11.430613496232139,-9.9283564919044984,-8.426099487574,-6.9238424832406436,-5.4215854789044222,-3.9193284745653485,-2.4170714702234108,-0.96142982227375329,0.35436399403122737,1.6701578103391272,2.9859516266499475,4.3017454429636892,5.6175392592803544,6.9333330755999336,8.2491268919224456,9.5649207082478522,10.880714524576204,12.131294299523793,13.22970540953329,14.328116519545768,15.426527629561246,16.524938739579703,17.623349849601134,18.721760959625556,19.820172069652983,20.918583179683353,22.016994289716742,23.029579359192002,23.882770892655362,24.73596242612178,25.589153959591229,26.442345493063716,27.295537026539328,28.148728560017972,29.001920093499646,29.855111626984403,30.70830316047223,31.453561227426935,32.036916544072817,32.620271860721815,33.203627177373974,33.786982494029246,34.37033781068763,34.953693127349204,35.537048444013891,36.120403760681747,36.703759077352764,37.156093369139825,37.448288100668066,37.740482832199547,38.032677563734239,38.324872295272158,38.617067026813316,38.9092617583577,39.201456489905368,39.4936512214562,39.785845953010273,39.889252242558292,39.872175227421252,39.855098212287515,39.838021197157154,39.82094418203009,39.803867166906379,39.786790151786008,39.769713136668919,39.574268860379433,39.232884668671019,38.891500476966073,38.550116285264565,38.208732093566447,37.867347901871831,37.52596371018064,37.184579518492882,36.843195326808548,36.501811135127689,35.958523314559592,35.280629894031215,34.602736473506383,33.924843052985118,33.246949632467413,32.569056211953232,31.891162791442625,31.213269370935578,30.535375950432105,29.857482529932177,28.954578143274837,27.930510733556538,26.906443323841895,25.88237591413095,24.858308504423672,23.834241094720063,22.810173685020096,21.786106275323867,20.762038865631247,19.73797145594234,18.466380401174444,17.088703606314951,15.711026811459215,14.3333500166074,12.955673221759355,11.577996426915188,10.200319632074816,8.8226428372382486,7.4449660424055493,6.06728924757667,4.4201927444948677,2.6832862765435475,0.94637980859615967,-0.79052665934729416,-2.5274331272867756,-4.2643395952223768,-6.0012460631539648,-7.7381525310816306,-9.4750589990054124,-11.211965466925188,-13.239370452680921,-15.339403500180865,-17.439436547676618,-19.539469595168143,-21.639502642655447,-23.739535690138482,-25.839568737617309,-27.939601785091881,-30.039634832562232,-32.139667880028433,-34.550973884617093,-37.017213872450675,-39.483453860280058,-41.949693848105447,-44.415933835926566,-46.88217382374367,-49.348413811556568,-51.814653799365324,-54.280893787170029,-56.747133774970628,-59.544274905130635,-62.378186304127553,-65.212097703120051,-68.046009102107774,-70.879920501091163,-73.713831900069778,-76.54774329904393,-79.381654698013321,-82.21556609697835,-85.049477495938689,-88.233888959555657,-91.43675128233167,-94.639613605103122,-97.842475927869785,-101.0453382506319,-104.24820057338933,-107.45106289614196,-110.65392521888992,-113.85678754163311,-117.05964986437168,0.66893940686966469,0.66893940686966469,0.66893940686966469,0.66893940686966469,0.66893940686966469,0.66893940686966469,0.66893940686966469,0.66893940686966469,0.66893940686966469,0.66893940686966469,0.66893940686966469,0.66893940686966469
DP 520,229.23607151934229,0.0049411780779310193,-211.63545804892587,-205.90559892174633,-200.17573979456316,-194.44588066737603,-188.7160215401847,-182.98616241298961,-177.25630328579044,-171.52644415858745,-165.79658503138052,-160.06672590416972,-154.34735707548487,-148.82730590200407,-143.30725472851921,-137.78720355503043,-132.2671523815379,-126.7471012080413,-121.22705003454074,-115.70699886103644,-110.18694768752812,-104.66689651401596,-99.189037846942952,-94.090915725963725,-88.992793604980747,-83.894671483994,-78.7965493630034,-73.698427242009046,-68.600305121010919,-63.502183000008934,-58.404060879003211,-53.305938757993708,-48.296930960364115,-43.792909944066579,-39.288888927765164,-34.784867911459884,-30.28084689515077,-25.7768258788378,-21.27280486252095,-16.768783846200225,-12.264762829875652,-7.760741813547245,-3.4018200078352918,0.37669809789331776,4.155216203625697,7.9337343093618822,11.712252415101819,15.490770520845576,19.26928862659312,23.047806732344448,26.82632483809958,30.604842943858486,34.180672520714786,37.148428847482926,40.116185174254866,43.083941501030594,46.051697827810145,49.019454154593504,51.987210481380629,54.954966808171584,57.92272313496624,60.890479461764855,63.603243600055691,65.721015922555353,67.838788245058808,69.956560567566115,72.074332890077173,74.192105212592139,76.309877535110815,78.427649857633355,80.545422180159633,82.663194502689791,84.484393415967432,85.754805131326961,87.02521684669037,88.295628562057615,89.566040277428584,90.836451992803433,92.106863708182146,93.377275423564669,94.647687138951,95.918098854341068,96.864410029842318,97.324562736892489,97.784715443946482,98.244868151004226,98.70502085806595,99.165173565131582,99.625326272200923,100.08547897927414,100.54563168635127,101.00578439343229,101.12950156636721,100.84201268637138,100.55452380637938,100.26703492639132,99.979546046407123,99.692057166426764,99.404568286450413,99.117079406477941,98.82959052650925,98.542101646544509,96.007751919648186,95.051508540667967,94.095265161691714,93.139021782719439,92.182778403750945,91.226535024786571,90.270291645826134,89.31404826686952,88.0376619151516,86.49933490201569,84.961007888883856,83.422680875755987,81.884353862632082,80.346026849512228,78.807699836396338,77.269372823284471,75.731045810176667,74.192718797072814,72.3575728290498,70.3245428817899,68.291512934534069,66.258482987282292,64.225453040034679,62.192423092791,60.1593931455516,58.126363198316113,56.093333251084758,54.060303303857445,51.759484884452959,49.3144687782246,46.869452672000413,44.424436565780432,41.979420459564594,39.534404353352919,37.089388247145443,34.644372140942124,32.199356034742934,29.754339928547978,27.073000012601767,24.290374475029768,21.507748937461873,18.725123399898386,15.942497862339074,13.159872324784077,10.377246787233348,7.5946212496868029,4.8119957121445989,2.0293701746066324,-0.95864623646443969,-4.0151288605527613,-7.0716114846367581,-10.128094108716423,-13.184576732791696,-16.241059356862738,-19.297541980929303,-22.354024604991544,-25.410507229049575,-28.466989853103112,-31.700750518443122,-34.978832788670765,-38.256915058893988,-41.534997329112564,-44.81307959932662,-48.091161869535995,-51.369244139740807,-54.6473264099411,-57.9254086801368,-61.203490950327968,-64.63599869929449,-68.09575972057057,-71.555520741842,-75.015281763109172,-78.475042784371681,-81.934803805629883,-85.394564826883453,-88.8543258481326,-92.314086869377363,-95.773847890617645,-99.3713456513311,-102.98414894076581,-106.59695223019584,-110.2097555196209,-113.8225588090413,-117.43536209845668,-121.04816538786737,-124.66096867727299,-128.27377196667385,-131.88657525606985,-135.62900913410587,-139.37826696447098,-143.12752479483143,-146.87678262518688,-150.62604045553735,-154.37529828588319,-158.12455611622366,-161.87381394655935,-165.62307177689013,-169.37232960721582,0.73460132534450406,0.73460132534450406,0.73460132534450406,0.73460132534450406,0.73460132534450406,0.73460132534450406,0.73460132534450406,0.73460132534450406,0.73460132534450406,0.73460132534450406,0.73460132534450406,0.73460132534450406
DP 521,74.725683203920127,0.0014694606464146669,-26.900465995732446,-26.303787212135603,-25.707108428537936,-25.110429644939369,-24.513750861339986,-23.917072077739714,-23.320393294138604,-22.723714510536638,-22.127035726933819,-21.530356943330126,-20.934307663169989,-20.350219067456443,-19.76613047174207,-19.182041876026837,-18.59795328031073,-18.013864684593763,-17.429776088875922,-16.84568749315725,-16.26159889743769,-15.677510301717264,-15.09603460220815,-14.538075215583239,-13.980115828957471,-13.422156442330863,-12.864197055703386,-12.306237669075054,-11.748278282445861,-11.190318895815821,-10.63235950918491,-10.074400122553152,-9.5222220930003747,-9.0028054512085287,-8.4833888094158016,-7.963972167622198,-7.4445555258277221,-6.9251388840323678,-6.405722242236128,-5.8863056004390195,-5.3668889586410273,-4.8474723168421674,-4.3380987343777608,-3.8688978638969043,-3.3996969934151675,-2.9304961229325537,-2.4612952524490685,-1.9920943819646979,-1.5228935114794533,-1.0536926409933294,-0.58449177050632872,-0.11529090001845159,0.33868885914406133,0.747004708839567,1.1553205585359636,1.5636364082332561,1.9719522579314366,2.3802681076305108,2.788583957330478,3.1968998070313379,3.6052156567330842,4.0135315064357258,4.4007154845393837,4.7385909299896367,5.0764663754407939,5.4143418208928615,5.752217266345836,6.090092711799719,6.4279681572545071,6.7658436027101985,7.10371904816681,7.4415944936243177,7.7519036974991282,8.0110177082618161,8.2701317190254269,8.5292457297899666,8.78835974055543,9.04747375132182,9.3065877620891335,9.56570177285737,9.8248157836265335,10.083929794396608,10.308718670446668,10.482019033300565,10.655319396155411,10.828619759011207,11.001920121867945,11.175220484725623,11.348520847584254,11.521821210443825,11.695121573304343,11.868421936165802,12.000502635089257,12.08220287894529,12.1639031228023,12.245603366660278,12.327303610519225,12.409003854379133,12.490704098240016,12.572404342101862,12.654104585964678,12.735804829828481,12.740458269211002,12.7259794143748,12.711500559539601,12.697021704705378,12.682542849872172,12.66806399503996,12.653585140208746,12.639106285378515,12.569821443232847,12.455694396858174,12.341567350484528,12.227440304111893,12.113313257740293,11.999186211369716,11.885059165000147,11.770932118631617,11.656805072264113,11.54267802589762,11.367270732123705,11.151008974695745,10.934747217268839,10.718485459842976,10.502223702418174,10.285961944994419,10.06970018757173,9.8534384301500921,9.6371766727295078,9.420914915309984,9.1371866950888414,8.8171293984325416,8.497072101777345,8.1770148051232265,7.856957508470181,7.5369002118182209,7.2168429151673443,6.8967856185175531,6.5767283218688357,6.2566710252212161,5.863262929323346,5.438417538526668,5.0135721477310957,4.5887267569366728,4.16388136614337,3.7390359753511992,3.3141905845601576,2.88934519377023,2.4644998029814444,2.0396544121937832,1.5358338792977866,1.0056873037217351,0.47554072814684012,-0.05460584742689898,-0.58475242299947017,-1.1148989985709015,-1.6450455741411509,-2.1751921497102509,-2.7053387252782057,-3.2354853008449855,-3.8499684740136249,-4.48553679303275,-5.1211051120506639,-5.7566734310673295,-6.392241750082766,-7.0278100690969492,-7.6633783881099049,-8.2989467071216136,-8.9345150261320914,-9.570083345141347,-10.295298966294304,-11.036335696481059,-11.777372426666574,-12.518409156850932,-13.25944588703404,-14.000482617215953,-14.741519347396654,-15.48255607757614,-16.223592807754418,-16.964629537931511,-17.800399039551763,-18.646695399582953,-19.492991759612806,-20.339288119641292,-21.185584479668524,-22.031880839694342,-22.878177199718852,-23.724473559742016,-24.570769919763883,-25.417066279784361,-26.363331681780622,-27.314859606953785,-28.266387532125584,-29.217915457296034,-30.169443382465087,-31.120971307632828,-32.072499232799153,-33.02402715796412,-33.975555083127709,-34.927083008289905,0.19723499065746414,0.19723499065746414,0.19723499065746414,0.19723499065746414,0.19723499065746414,0.19723499065746414,0.19723499065746414,0.19723499065746414,0.19723499065746414,0.19723499065746414,0.19723499065746414,0.19723499065746414
DP 522,93.161507309138386,0.0018865696095262186,-40.3781174417728,-39.4456490549307,-38.51318066808728,-37.5807122812426,-36.648243894396664,-35.715775507549459,-34.783307120700989,-33.850838733851234,-32.918370347000227,-31.985901960147963,-31.05450997113013,-30.143569744476828,-29.232629517822264,-28.321689291166432,-27.410749064509353,-26.499808837850978,-25.588868611191366,-24.677928384530489,-23.76698815786833,-22.856047931204948,-21.94955447983795,-21.08308242646584,-20.21661037309249,-19.350138319717914,-18.483666266342073,-17.617194212965011,-16.750722159586708,-15.88425010620716,-15.01777805282638,-14.151305999444352,-13.294609032838352,-12.493304840607649,-11.692000648375679,-10.890696456142454,-10.089392263907957,-9.28808807167219,-8.4867838794351513,-7.6854796871968505,-6.8841754949572964,-6.0828713027164678,-5.2983952985999618,-4.5812328422983217,-3.8640703859954262,-3.1469079296912659,-2.4297454733858532,-1.7125830170791789,-0.9954205607712493,-0.27825810446205884,0.43890435184838539,1.1560668081600887,1.8480134786249518,2.4643118381728137,3.0806101977219447,3.6969085572723519,4.3132069168240292,4.92950527637698,5.545803635931204,6.1621019954866973,6.7784003550434644,7.3946987146015095,7.9764705936508147,8.4776793250578528,8.9788880564661824,9.4800967878757962,9.981305519286698,10.482514250698888,10.983722982112365,11.484931713527132,11.986140444943192,12.487349176360532,12.944235238032361,13.31880657319152,13.693377908351961,14.067949243513723,14.442520578676799,14.817091913841162,15.191663249006854,15.566234584173824,15.94080591934212,16.315377254511709,16.635756909770279,16.874847764592179,17.113938619415421,17.353029474239982,17.592120329065882,17.8312111838931,18.07030203872165,18.309392893551529,18.548483748382726,18.78757460321528,18.962890024593833,19.060256354384382,19.157622684176289,19.254989013969553,19.352355343764177,19.449721673560145,19.547088003357487,19.644454333156169,19.741820662956204,19.839186992757593,19.767339538762929,19.719127016003121,19.670914493244688,19.62270197048765,19.574489447732,19.526276924977722,19.478064402224824,19.429851879473311,19.300596212884958,19.10503112673668,18.909466040589823,18.713900954444387,18.518335868300351,18.322770782157765,18.127205696016581,17.931640609876808,17.736075523738478,17.540510437601547,17.256501874534965,16.913529600215089,16.570557325896662,16.227585051579677,15.884612777264159,15.5416405029501,15.198668228637494,14.855695954326338,14.512723680016656,14.169751405708412,13.73177645885638,13.242644845283312,12.753513231711773,12.264381618141732,11.775250004573179,11.286118391006136,10.796986777440585,10.307855163876551,9.8187235503139849,9.3295919367529319,8.7396495322595324,8.1065008015106041,7.4733520707631973,6.840203340017367,6.2070546092730545,5.5739058785303079,4.94075714778911,4.3076084170494351,3.6744596863113248,3.0413109555747577,2.3020965387097858,1.5275255564071291,0.75295457410604993,-0.021616408193448247,-0.79618739049135034,-1.5707583727876964,-2.3453293550824243,-3.1199003373755811,-3.8944713196671783,-4.6690423019571661,-5.5545416691335072,-6.4677744431675279,-7.3810072171998833,-8.2942399912305476,-9.207472765259535,-10.120705539286815,-11.033938313312422,-11.947171087336331,-12.860403861358567,-13.773636635379129,-14.802719431649168,-15.852247637761357,-16.901775843871857,-17.95130404998077,-19.000832256087985,-20.0503604621936,-21.099888668297545,-22.149416874399844,-23.19894508050049,-24.248473286599509,-25.418783870812728,-26.602515987760231,-27.786248104705948,-28.969980221649823,-30.153712338591934,-31.337444455532204,-32.521176572470694,-33.704908689407304,-34.88864080634221,-36.072372923275246,-37.382497350626195,-38.699275262393861,-40.016053174159772,-41.33283108592375,-42.649608997685917,-43.966386909446264,-45.283164821204792,-46.599942732961374,-47.916720644716186,-49.233498556469073,0.27001643530666841,0.27001643530666841,0.27001643530666841,0.27001643530666841,0.27001643530666841,0.27001643530666841,0.27001643530666841,0.27001643530666841,0.27001643530666841,0.27001643530666841,0.27001643530666841,0.27001643530666841
DP 523,101.90178975958489,0.0010188266121509313,-23.31691275356814,-22.769641603957524,-22.222370454346191,-21.675099304734147,-21.127828155121435,-20.58055700550797,-20.033285855893812,-19.486014706278958,-18.938743556663376,-18.391472407047104,-17.844859059791528,-17.310744081755882,-16.776629103719493,-16.242514125682426,-15.708399147644643,-15.174284169606153,-14.640169191566953,-14.106054213527047,-13.571939235486436,-13.037824257445111,-12.506420926260093,-11.999422673097126,-11.492424419933466,-10.985426166769098,-10.478427913604049,-9.9714296604383144,-9.4644314072718672,-8.9574331541047254,-8.4504349009369015,-7.9434366477683831,-7.4423818017226058,-6.9750066372298285,-6.50763147273635,-6.0402563082421477,-5.5728811437472414,-5.1055059792516273,-4.6381308147552955,-4.1707556502582621,-3.7033804857605168,-3.2360053212620636,-2.7788198924458531,-2.3623938879359,-1.9459678834252434,-1.5295418789138835,-1.1131158744018219,-0.69668986988905413,-0.28026386537558451,0.13616213913859032,0.552588143653466,0.96901414816904519,1.3702514705062376,1.7259221720438049,2.0815928735820841,2.4372635751210727,2.792934276660771,3.1486049782011793,3.5042756797422996,3.8599463812841304,4.2156170828266655,4.5712877843699191,4.9062922275605416,5.193074587343073,5.4798569471263221,5.76663930691029,6.05342166669498,6.3402040264803832,6.6269863862665,6.91376874605335,7.2005511058409013,7.4873334656291721,7.747782649035492,7.9593266508601381,8.1708706526855046,8.3824146545116118,8.5939586563384314,8.8055026581659863,9.0170466599942589,9.2285906618232634,9.4401346636530032,9.6516786654834554,9.8312978169245575,9.96302893838523,10.094760059846653,10.226491181308806,10.358222302771699,10.489953424235333,10.621684545699697,10.753415667164795,10.885146788630644,11.016877910097223,11.111393891044848,11.160423918551386,11.209453946058673,11.258483973566715,11.307514001075509,11.35654402858504,11.405574056095343,11.454604083606382,11.503634111118183,11.552664138630726,11.489581647010164,11.454542485935315,11.419503324861251,11.384464163787941,11.349425002715405,11.314385841643627,11.279346680572617,11.244307519502382,11.162992584977848,11.043814858708471,10.92463713243988,10.805459406172082,10.686281679905063,10.56710395363883,10.447926227373372,10.32874850110872,10.209570774844842,10.090393048581744,9.92131154258616,9.7189600639397185,9.5166085852940814,9.314257106649249,9.1119056280052124,8.909554149361977,8.707202670719564,8.5048511920779433,8.3024997134371343,8.1001482347971283,7.8448504377041193,7.561042314588895,7.2772341914745073,6.9934260683609368,6.7096179452481906,6.42580982213627,6.1420016990251707,5.8581935759149051,5.5743854528054566,5.2905773296968306,4.9512789664210572,4.5881981350336289,4.22511730364704,3.862036472261325,3.4989556408764426,3.1358748094924245,2.7727939781092545,2.4097131467269315,2.0466323153454695,1.6835514839648551,1.262788224799922,0.82279676274483571,0.38280530069061647,-0.057186161362731441,-0.49717762341520044,-0.93716908546681355,-1.3771605475175355,-1.8171520095673914,-2.2571434716163949,-2.6971349336645023,-3.1967844159952694,-3.7113491082654573,-4.225913800534733,-4.7404784928030734,-5.2550431850704911,-5.7696078773369734,-6.2841725696025419,-6.798737261867168,-7.3133019541308748,-7.8278666463936641,-8.40413947587197,-8.9913026628268327,-9.5784658497807751,-10.165629036733849,-10.752792223685978,-11.339955410637231,-11.927118597587556,-12.514281784536996,-13.101444971485508,-13.688608158433148,-14.339627358602593,-14.997742341990685,-15.655857325377811,-16.31397230876393,-16.97208729214908,-17.630202275533215,-18.288317258916372,-18.9464322422985,-19.604547225679681,-20.262662209059854,-20.987284196283319,-21.71540721384801,-22.44353023141171,-23.171653248974383,-23.89977626653604,-24.627899284096721,-25.356022301656367,-26.084145319214961,-26.8122683367726,-27.540391354329181,0.14864597922845588,0.14864597922845588,0.14864597922845588,0.14864597922845588,0.14864597922845588,0.14864597922845588,0.14864597922845588,0.14864597922845588,0.14864597922845588,0.14864597922845588,0.14864597922845588,0.14864597922845588
DP 524,211.46431766880653,0.0017514661922716991,-70.71910627099318,-68.832022577515644,-66.944938884036731,-65.0578551905564,-63.170771497074725,-61.283687803591611,-59.3966041101071,-57.509520416621186,-55.622436723133923,-53.735353029645218,-51.851566943482972,-50.030436019943437,-48.209305096402474,-46.388174172860126,-44.567043249316441,-42.745912325771307,-40.924781402224824,-39.103650478676926,-37.282519555127642,-35.461388631576952,-33.6535619522886,-31.965474728912245,-30.277387505534563,-28.589300282155545,-26.901213058775184,-25.213125835393448,-23.525038612010388,-21.83695138862597,-20.148864165240212,-18.4607769418531,-16.800927851453626,-15.301096627402297,-13.801265403349561,-12.30143417929547,-10.801602955240021,-9.3017717311831767,-7.801940507124975,-6.3021092830653949,-4.8022780590044407,-3.3024468349421205,-1.8489083227812528,-0.58054284606126261,0.68782263066006766,1.9561881073827541,3.2245535841067725,4.4929190608321532,5.7612845375588719,7.0296500142869505,8.29801549101637,9.56638096774712,10.769527977694597,11.777017121469488,12.784506265245726,13.791995409023309,14.799484552802243,15.806973696582546,16.81446284036419,17.821951984147159,18.829441127931521,19.836930271717225,20.761530959358375,21.492721984851645,22.223913010346266,22.955104035842236,23.686295061339585,24.417486086838259,25.148677112338312,25.879868137839704,26.611059163342457,27.34225018884656,27.975898353424437,28.428392856310513,28.880887359197963,29.333381862086753,29.785876364976954,30.23837086786844,30.690865370761308,31.14335987365558,31.595854376551181,32.04834887944817,32.3928316017213,32.575294100699622,32.757756599679311,32.940219098660364,33.12268159764281,33.30514409662662,33.4876065956118,33.670069094598361,33.852531593586271,34.034994092575573,34.103691087631375,34.033338966038585,33.962986844447173,33.892634722857167,33.822282601268547,33.75193047968132,33.68157835809545,33.61122623651098,33.540874114927931,33.470521993346225,32.685086606396574,32.384982441609452,32.084878276823744,31.784774112039443,31.484669947256549,31.184565782475087,30.884461617694992,30.584357452916329,30.172367270689968,29.668832060437911,29.165296850187314,28.661761639938089,28.158226429690309,27.654691219443968,27.151156009199024,26.647620798955561,26.144085588713473,25.640550378472856,25.03135195148818,24.351709715434811,23.672067479382878,22.9924252433324,22.312783007283404,21.633140771235833,20.953498535189748,20.273856299145095,19.5942140631019,18.914571827060175,18.137695014884095,17.308459709290137,16.479224403697678,15.649989098106696,14.820753792517218,13.991518486929216,13.162283181342714,12.33304787575771,11.503812570174173,10.674577264592134,9.7576871143579158,8.8032291226165462,7.8487711308766555,6.8943131391383439,5.9398551474015138,4.9853971556662247,4.0309391639324614,3.0764811722001979,2.1220231804694767,1.1675651887402734,0.13516801478456716,-0.923209868834284,-1.9815877524515888,-3.0399656360673468,-4.0983435196815359,-5.1567214032942079,-6.2150992869052883,-7.2734771705148251,-8.3318550541228529,-9.39023293772928,-10.517529227203305,-11.662055932425408,-12.806582637645915,-13.951109342864777,-15.095636048081998,-16.240162753297575,-17.384689458511524,-18.529216163723852,-19.673742868934504,-20.818269574143578,-22.024316027791581,-23.241219591742464,-24.458123155691727,-25.675026719639447,-26.8919302835855,-28.108833847529997,-29.325737411472851,-30.542640975414155,-31.759544539353833,-32.976448103291922,-34.249488533419409,-35.528766982691948,-36.808045431962782,-38.08732388123186,-39.366602330499227,-40.645880779764838,-41.925159229028715,-43.204437678290851,-44.483716127551254,-45.762994576809945,-47.0959841013027,-48.431801058894614,-49.767618016484846,-51.103434974073259,-52.439251931659918,-53.775068889244885,-55.110885846828026,-56.446702804409341,-57.782519761988993,-59.118336719566827,0.26269797028493719,0.26269797028493719,0.26269797028493719,0.26269797028493719,0.26269797028493719,0.26269797028493719,0.26269797028493719,0.26269797028493719,0.26269797028493719,0.26269797028493719,0.26269797028493719,0.26269797028493719
DP 525,142.37623972998912,0.0036572922150070017,-108.69876384560112,-105.9918678811182,-103.28497191663241,-100.57807595214382,-97.871179987652312,-95.164284023158089,-92.457388058661053,-89.750492094161118,-87.043596129658454,-84.33670016515282,-81.6336306800127,-79.003265026241579,-76.3728993724677,-73.742533718690993,-71.1121680649115,-68.481802411129152,-65.851436757344032,-63.221071103556127,-60.590705449765416,-57.96033979597189,-55.345611752095955,-52.871623675595316,-50.397635599092,-47.923647522585888,-45.449659446077106,-42.975671369565561,-40.501683293051272,-38.027695216534283,-35.553707140014538,-33.079719063492078,-30.63957792480775,-28.391238233400138,-26.142898541989751,-23.894558850576573,-21.646219159160619,-19.397879467741873,-17.149539776320339,-14.901200084896026,-12.652860393468908,-10.404520702039035,-8.2131981550591391,-6.2499468805638729,-4.286695606065865,-2.3234443315651006,-0.36019305706160781,1.6030582174446479,3.5663094919536409,5.5295607664653863,7.4928120409798717,9.4560633154971061,11.336192693509563,12.966953239278316,14.597713785049837,16.228474330824124,17.859234876601157,19.489995422380971,21.120755968163532,22.751516513948868,24.382277059736957,26.013037605527828,27.533710466796187,28.797507728489926,30.061304990186443,31.325102251885735,32.588899513587826,33.852696775292671,35.116494037000344,36.380291298710723,37.6440885604239,38.907885822139875,40.035783196185477,40.9112913944238,41.78679959266492,42.662307790908883,43.537815989155625,44.413324187405166,45.288832385657471,46.164340583912683,47.039848782170608,47.915356980431305,48.631981886292529,49.110278099082031,49.588574311874353,50.06687052466954,50.545166737467554,51.023462950268417,51.501759163072059,51.980055375878585,52.458351588687925,52.936647801500079,53.237151763762895,53.320350351979108,53.403548940198228,53.48674752842021,53.569946116644971,53.653144704872737,53.736343293103296,53.819541881336733,53.902740469573047,53.9859390578123,53.275941403395414,52.9753018983737,52.674662393354907,52.374022888339034,52.073383383326046,51.772743878316007,51.472104373308909,51.171464868304739,50.669764731185452,50.003556985146808,49.3373492391111,48.671141493078437,48.004933747048717,47.338726001021939,46.67251825499816,46.00631050897735,45.340102762959575,44.673895016944719,43.802159806954059,42.793403049855456,41.784646292759909,40.775889535667368,39.767132778577881,38.758376021491451,37.749619264408054,36.740862507327677,35.732105750250348,34.723348993176039,33.508567860364629,32.182847529278156,30.857127198194849,29.531406867114612,28.205686536037504,26.8799662049635,25.554245873892619,24.228525542824869,22.902805211760185,21.577084880698639,20.047801464799576,18.431273290916003,16.814745117035553,15.198216943158378,13.581688769284346,11.965160595413542,10.348632421545927,8.7321042476814643,7.1155760738202432,5.4990478999622034,3.6831049361928216,1.8006878625950336,-0.081729210999504073,-1.9641462845907858,-3.846563358178773,-5.7289804317635653,-7.611397505345014,-9.4938145789232316,-11.376231652498239,-13.25864872606992,-15.335860856408875,-17.461774052473064,-19.587687248533872,-21.713600444591208,-23.839513640645109,-25.96542683669551,-28.09134003274249,-30.217253228786003,-32.3431664248261,-34.46907962086275,-36.786428593937281,-39.137562479987473,-41.48869636603424,-43.839830252077775,-46.190964138117813,-48.542098024154541,-50.893231910187815,-53.244365796217778,-55.59549968224438,-57.946633568267579,-60.487841106200193,-63.050169935009542,-65.612498763815253,-68.174827592617234,-70.7371564214157,-73.299485250210239,-75.86181407900132,-78.42414290778855,-80.986471736572213,-83.5488005653522,-86.303869797906472,-89.069085179926887,-91.834300561943692,-94.599515943956618,-97.364731325965792,-100.12994670797129,-102.89516208997303,-105.66037747197093,-108.4255928539651,-111.19080823595547,0.55487544811486178,0.55487544811486178,0.55487544811486178,0.55487544811486178,0.55487544811486178,0.55487544811486178,0.55487544811486178,0.55487544811486178,0.55487544811486178,0.55487544811486178,0.55487544811486178,0.55487544811486178
DP 526,283.09208419331895,0.0013262458875849283,-65.731275823854872,-63.880002694723082,-62.028729565590218,-60.177456436456332,-58.326183307321365,-56.474910178185425,-54.62363704904832,-52.772363919910326,-50.921090790771139,-49.069817661630971,-47.222398055380431,-45.448196112538767,-43.673994169696073,-41.899792226852327,-40.125590284007593,-38.35138834116178,-36.577186398314986,-34.80298445546714,-33.028782512618243,-31.254580569768308,-29.4957344726711,-27.875092438817717,-26.254450404963354,-24.633808371108003,-23.013166337251647,-21.392524303394296,-19.771882269535926,-18.151240235676536,-16.530598201816176,-14.909956167954808,-13.32127170710722,-11.913682173799623,-10.506092640491012,-9.0985031071813669,-7.6909135738707226,-6.2833240405590534,-4.87573450724636,-3.4681449739326484,-2.0605554406179278,-0.65296590730219051,0.703639478973408,1.8563058675334256,3.0089722560944336,4.1616386446564446,5.3143050332194495,6.4669714217834562,7.6196378103484577,8.7723041989144619,9.9249705874814556,11.07763697604944,12.160877001463794,13.035835312500426,13.910793623538058,14.785751934576686,15.660710245616327,16.535668556656962,17.4106268676986,18.285585178741236,19.160543489784867,20.03550180082949,20.825730781573924,21.418254654639583,22.010778527706215,22.603302400773831,23.195826273842442,23.788350146912066,24.380874019982688,24.973397893054329,25.565921766126952,26.158445639200576,26.655795138101379,26.9763896575307,27.296984176960994,27.617578696392354,27.938173215824694,28.258767735258051,28.579362254692416,28.899956774127777,29.220551293564125,29.541145813001496,29.761700542151978,29.832193221894364,29.902685901637795,29.973178581382182,30.043671261127603,30.114163940874057,30.184656620621489,30.255149300369954,30.325641980119428,30.396134659869897,30.367116138430283,30.216470725325827,30.065825312222316,29.915179899119906,29.764534486018487,29.613889072918081,29.463243659818666,29.3125982467203,29.161952833622962,29.011307420526659,28.087154580118142,27.747622169501579,27.408089758886032,27.068557348271522,26.729024937658043,26.389492527045597,26.049960116434178,25.710427705823776,25.284833935522446,24.788824846447977,24.292815757374516,23.796806668302118,23.300797579230768,22.804788490160469,22.308779401091204,21.812770312023,21.316761222955844,20.82075213388973,20.249048603582775,19.626880919991113,19.004713236400534,18.382545552811,17.760377869222541,17.138210185635138,16.516042502048808,15.893874818463528,15.271707134879351,14.649539451296203,13.962808552841258,13.241311907516314,12.519815262192468,11.798318616869699,11.076821971547995,10.355325326227385,9.6338286809078468,8.9123320355894062,8.1908353902720368,7.46933874495575,6.6941790714078886,5.8960200514186649,5.0978610314305284,4.2997020114435358,3.5015429914576304,2.7033839714728551,1.9052249514891901,1.1070659315066154,0.30890691152517452,-0.48925210845516209,-1.3311521757683311,-2.1876331434532794,-3.0441141111370995,-3.9005950788197938,-4.7570760465013393,-5.6135570141817821,-6.4700379818610543,-7.3265189495392145,-8.182999917216268,-9.0394808848921464,-9.9312092950600324,-10.831749982304396,-11.732290669547595,-12.632831356789607,-13.533372044030413,-14.433912731270031,-15.334453418508462,-16.234994105745677,-17.135534792981723,-18.036075480216592,-18.965216938848375,-19.899405910476577,-20.833594882103618,-21.767783853729529,-22.701972825354236,-23.636161796977781,-24.570350768600168,-25.504539740221396,-26.438728711841453,-27.372917683460361,-28.330914105361522,-29.291556049549719,-30.252197993736711,-31.212839937922393,-32.173481882106834,-33.134123826290015,-34.094765770471959,-35.055407714652567,-36.016049658831967,-36.976691603010089,-37.958608043044329,-38.941644405058511,-39.924680767071457,-40.907717129083082,-41.890753491093427,-42.873789853102515,-43.856826215110289,-44.839862577116754,-45.822898939121984,-46.805935301125913,0.1909936078864039,0.1909936078864039,0.1909936078864039,0.1909936078864039,0.1909936078864039,0.1909936078864039,0.1909936078864039,0.1909936078864039,0.1909936078864039,0.1909936078864039,0.1909936078864039,0.1909936078864039
DP 527,55.977719658383165,0.0035211716906452875,-53.389792604931657,-52.268004766404609,-51.146216927875983,-50.024429089345752,-48.902641250813929,-47.780853412280528,-46.6590655737455,-45.537277735208932,-44.415489896670742,-43.293702058130933,-42.172997874827949,-41.072883345911073,-39.972768816992563,-38.872654288072425,-37.772539759150739,-36.672425230227368,-35.572310701302428,-34.472196172375874,-33.372081643447672,-32.271967114517885,-31.176370420223311,-30.121434664692281,-29.066498909159627,-28.01156315362535,-26.956627398089442,-25.901691642551882,-24.846755887012677,-23.791820131471844,-22.736884375929385,-21.681948620385274,-20.637073840274596,-19.649211888281588,-18.661349936286904,-17.673487984290535,-16.685626032292497,-15.697764080292762,-14.709902128291361,-13.722040176288253,-12.734178224283498,-11.746316272277054,-10.776086221036893,-9.8763846061647289,-8.976682991290863,-8.0769813764152811,-7.1772797615380011,-6.2775781466590059,-5.37787653177831,-4.478174916895898,-3.5784733020117843,-2.6787716871259661,-1.8060941072519145,-1.0144896541579487,-0.22288520106223103,0.56871925203523932,1.3603237051344661,2.1519281582354446,2.9435326113381715,3.7351370644426587,4.526741517548885,5.318345970656873,6.0719329754820217,6.7368111037057767,7.401689231931325,8.0665673601586825,8.7314454883878412,9.396323616618794,10.06120174485156,10.726079873086123,11.39095800132249,12.055836129560666,12.670352313553614,13.191337812436574,13.712323311321375,14.233308810208042,14.754294309096551,15.275279807986932,15.796265306879175,16.317250805773259,16.838236304669209,17.359221803567,17.816418989012831,18.177932196938418,18.5394454048659,18.900958612795293,19.262471820726603,19.623985028659856,19.985498236594989,20.347011444532061,20.708524652471034,21.07003786041194,21.353510129316522,21.541597389055333,21.729684648796148,21.917771908538903,22.105859168283665,22.29394642803042,22.482033687779143,22.670120947529842,22.858208207282541,23.0462954670372,23.146235597076203,23.148593846039969,23.150952095005813,23.153310343973658,23.155668592943588,23.158026841915575,23.160385090889598,23.162743339865688,23.057077849001619,22.863027441803336,22.668977034607117,22.474926627413073,22.280876220221103,22.086825813031307,21.892775405843615,21.69872499865809,21.504674591474672,21.3106241842934,20.993248710999453,20.593654584154208,20.194060457311139,19.7944663304703,19.394872203631664,18.995278076795231,18.595683949961014,18.196089823129018,17.796495696299239,17.396901569471677,16.858722370537098,16.245918425198564,15.633114479862371,15.020310534528473,14.407506589196867,13.794702643867549,13.181898698540534,12.569094753215841,11.956290807893449,11.343486862573348,10.577023926876779,9.74470454457496,8.9123851622754984,8.0800657799784812,7.2477463976838328,6.4154270153916046,5.5831076331017631,4.7507882508142965,3.918468868529251,3.0861494862466006,2.0853617752203824,1.0284158314345924,-0.028530112348732109,-1.0854760561295862,-2.1424219999079486,-3.1993679436838778,-4.2563138874572815,-5.3132598312282324,-6.3702057749967356,-7.4271517187627349,-8.6668939870364969,-9.95233749620424,-11.237781005369355,-12.523224514531762,-13.808668023691521,-15.094111532848581,-16.379555042002981,-17.664998551154721,-18.950442060303761,-20.235885569450186,-21.718223412073097,-23.235309503037968,-24.75239559400017,-26.26948168495985,-27.786567775916865,-29.303653866871354,-30.820739957823132,-32.337826048772392,-33.854912139719033,-35.371998230663095,-37.099198188918109,-38.849746339120451,-40.600294489319928,-42.350842639516458,-44.10139078971018,-45.851938939900904,-47.6024870900888,-49.353035240273719,-51.1035833904558,-52.854131540634967,-54.827768873255671,-56.813149961442271,-58.7985310496259,-60.783912137806524,-62.769293225984171,-64.754674314158933,-66.740055402330668,-68.725436490499362,-70.710817578665086,-72.696198666827812,0.41782667506707954,0.41782667506707954,0.41782667506707954,0.41782667506707954,0.41782667506707954,0.41782667506707954,0.41782667506707954,0.41782667506707954,0.41782667506707954,0.41782667506707954,0.41782667506707954,0.41782667506707954
DP 528,126.93174134514977,0.0039822401811468438,-108.06720288891688,-105.42958337185016,-102.79196385478039,-100.15434433770771,-97.51672482063195,-94.87910530355326,-92.241485786471529,-89.6038662693869,-86.966246752299185,-84.3286272352085,-81.6945283847164,-79.127322865214651,-76.560117345709841,-73.99291182620216,-71.425706306691438,-68.8585007871777,-66.291295267660985,-63.724089748141388,-61.156884228618722,-58.589678709093128,-56.036906573192006,-53.61403625420435,-51.191165935213689,-48.768295616220193,-46.345425297223763,-43.92255497822444,-41.499684659222225,-39.076814340217069,-36.653944021209014,-34.2310737021981,-31.839587488501373,-29.625946515918994,-27.412305543333687,-25.198664570745365,-22.985023598154125,-20.771382625559905,-18.5577416529627,-16.344100680362541,-14.13045970775944,-11.916818735153374,-9.7563893290512613,-7.8088087037955605,-5.8612280785369446,-3.9136474532753942,-1.966066828010933,-0.018486202743525842,1.9290944225267967,3.8766750478000533,5.824255673076232,7.7718362983553337,9.64120719606884,11.27594595407812,12.910684712090324,14.5454234701055,16.180162228123603,17.814900986144679,19.449639744168678,21.084378502195644,22.719117260225548,24.353856018258394,25.883983702788246,27.170014762480204,28.456045822175128,29.742076881873004,31.028107941573847,32.314139001277667,33.600170060984439,34.8862011206942,36.172232180406922,37.4582632401226,38.613646586200751,39.526394935802,40.439143285406217,41.351891635013423,42.264639984623649,43.177388334236873,44.090136683853054,45.002885033472275,45.915633383094473,46.82838173271967,47.586345425035553,48.1121284737672,48.637911522501966,49.16369457123966,49.689477619980451,50.215260668724248,50.741043717471086,51.266826766220944,51.792609814973829,52.3183928637298,52.668356302627927,52.803425414204078,52.9384945257832,53.073563637365446,53.208632748950784,53.343701860539156,53.47877097213064,53.613840083725137,53.748909195322788,53.883978306923517,53.324342091464004,53.073473053383296,52.822604015305728,52.57173497723128,52.320865939159916,52.069996901091763,51.819127863026736,51.568258824964843,51.111501943808989,50.486287834519288,49.861073725232842,49.235859615949529,48.610645506669435,47.985431397392546,47.360217288118847,46.735003178848338,46.109789069581026,45.484574960316941,44.644681810836218,43.661665919250432,42.678650027667864,41.695634136088593,40.712618244512619,39.729602352939864,38.74658646137047,37.763570569804223,36.780554678241344,35.797538786681685,34.594701461830894,33.273495553234952,31.952289644642374,30.631083736053128,29.309877827467211,27.988671918884663,26.667466010305436,25.346260101729605,24.025054193157068,22.7038482845879,21.160532333857734,19.522022616095818,17.883512898337237,16.245003180582223,14.606493462830569,12.967983745082421,11.329474027337701,9.690964309596378,8.05245459185856,6.4139448741241623,4.5528126287659525,2.6174700685251904,0.68212750828793878,-1.2532150519458019,-3.1885576121759884,-5.1239001724027222,-7.0592427326258527,-8.9945852928454872,-10.929927853061676,-12.865270413274271,-15.023015424659983,-17.236363676558181,-19.449711928452714,-21.663060180343482,-23.876408432230555,-26.089756684113837,-28.303104935993435,-30.516453187869249,-32.729801439741344,-34.943149691609811,-37.379593432079929,-39.855409445509359,-42.331225458935158,-44.807041472357348,-47.282857485775828,-49.758673499190685,-52.234489512601918,-54.71030552600952,-57.186121539413477,-59.661937552813768,-62.363030361598895,-65.089156291362983,-67.815282221123212,-70.5414081508793,-73.26753408063162,-75.993660010379784,-78.719785940124083,-81.445911869864318,-84.172037799600645,-86.898163729332964,-89.8552643879251,-92.824523909298989,-95.793783430668952,-98.763042952034723,-101.73230247339644,-104.70156199475431,-107.67082151610794,-110.64008103745745,-113.60934055880304,-116.57860008014441,0.59941520640964463,0.59941520640964463,0.59941520640964463,0.59941520640964463,0.59941520640964463,0.59941520640964463,0.59941520640964463,0.59941520640964463,0.59941520640964463,0.59941520640964463,0.59941520640964463,0.59941520640964463
DP 529,62.397230996945815,0.0036075445143183551,-58.619363202161267,-57.361942795152636,-56.104522388142129,-54.847101981129832,-53.589681574115708,-52.332261167099766,-51.074840760082004,-49.81742035306246,-48.559999946041032,-47.30257953901782,-46.046409062029376,-44.813987492027138,-43.581565922023096,-42.34914435201722,-41.116722782009475,-39.884301211999912,-38.651879641988479,-37.419458071975214,-36.187036501960129,-34.95461493194319,-33.72739665402343,-32.547008496817142,-31.366620339608993,-30.186232182399024,-29.005844025187198,-27.825455867973528,-26.645067710757992,-25.464679553540641,-24.284291396321439,-23.103903239100376,-21.935078848842235,-20.831783200067544,-19.728487551290971,-18.625191902512469,-17.521896253732109,-16.418600604949827,-15.31530495616566,-14.212009307379597,-13.108713658591647,-12.005418009801796,-10.922329751816481,-9.9200720120725663,-8.9178142723267477,-7.9155565325790205,-6.913298792829389,-5.9110410530778319,-4.9087833133243732,-3.9065255735689992,-2.9042678338117227,-1.9020100940525329,-0.93060976229626413,-0.051782821228468993,0.827044119841276,1.7058710609129748,2.5846980019866281,3.4635249430622306,4.3423518841397861,5.2211788252193019,6.1000057663007521,6.9788327073841678,7.8144318665435062,8.54916449873499,9.2838971309284624,10.018629763123943,10.753362395321428,11.488095027520897,12.222827659722373,12.957560291925844,13.692292924131312,14.427025556338785,15.10477709616128,15.676705068427811,16.248633040696397,16.820561012967016,17.392488985239709,17.964416957514423,18.536344929791209,19.108272902070027,19.6802008743509,20.252128846633827,20.75227903254115,21.144760842748479,21.537242652957922,21.929724463169453,22.322206273383102,22.714688083598844,23.107169893816703,23.499651704036665,23.892133514258738,24.284615324482903,24.589795989612064,24.788273421439637,24.986750853269353,25.185228285101257,25.383705716935321,25.582183148771573,25.78066058060999,25.979138012450534,26.17761544429327,26.376092876138177,26.45533438263007,26.447335108535572,26.439335834443291,26.431336560353266,26.423337286265493,26.41533801217992,26.407338738096623,26.399339464015522,26.272011399764892,26.047048638261405,25.8220858767603,25.597123115261461,25.372160353764954,25.147197592270761,24.922234830778866,24.697272069289284,24.472309307802025,24.247346546317086,23.88702738613733,23.436468494481694,22.985909602828482,22.535350711177646,22.084791819529215,21.634232927883179,21.183674036239523,20.733115144598276,20.282556252959427,19.83199736132298,19.230281958740996,18.547172390646679,17.864062822554864,17.180953254465514,16.497843686378641,15.814734118294268,15.131624550212342,14.448514982132929,13.76540541405598,13.082295845981513,12.232582809454909,11.311465474374128,10.390348139295908,9.4692308042202935,8.54811346914723,7.6269961340767845,6.7058787990088993,5.7847614639435836,4.86364412888087,3.9425267938207327,2.8397399437682456,1.6763942991675609,0.5130486545695242,-0.65029699002585817,-1.8136426346185626,-2.97698827920865,-4.1403339237960246,-5.3036795683807609,-6.4670252129628762,-7.6303708575422933,-8.9899059476972631,-10.398490717254951,-11.807075486809854,-13.215660256361861,-14.624245025911046,-16.032829795457321,-17.44141456500078,-18.849999334541366,-20.258584104079084,-21.667168873614006,-23.286247628464363,-24.942474721446544,-26.598701814425876,-28.2549289074025,-29.911156000376266,-31.5673830933473,-33.2236101863155,-34.879837279280942,-36.536064372243594,-38.192291465203489,-40.072500825789142,-41.977599457341356,-43.882698088890542,-45.787796720436511,-47.69289535197948,-49.597993983519281,-51.503092615056062,-53.408191246589666,-55.313289878120308,-57.21838850964771,-59.360877762475653,-61.515863620471386,-63.67084947846395,-65.825835336453352,-67.980821194439613,-70.135807052422749,-72.290792910402729,-74.4457787683793,-76.600764626352856,-78.755750484323229,0.45080244887061777,0.45080244887061777,0.45080244887061777,0.45080244887061777,0.45080244887061777,0.45080244887061777,0.45080244887061777,0.45080244887061777,0.45080244887061777,0.45080244887061777,0.45080244887061777,0.45080244887061777
DP 530,99.226569884378264,0.0054260316617951044,-121.71336651600012,-118.87031450702314,-116.02726249804235,-113.1842104890579,-110.34115848006959,-107.49810647107761,-104.65505446208182,-101.81200245308227,-98.968950444079056,-96.125898435072145,-93.2862217985341,-90.510677877070023,-87.735133955602166,-84.959590034130684,-82.1840461126554,-79.408502191176368,-76.632958269693674,-73.857414348207172,-71.081870426717046,-68.306326505223069,-65.544708647957165,-62.908426685089914,-60.272144722219053,-57.635862759344505,-54.999580796466255,-52.363298833584423,-49.727016870698883,-47.090734907809654,-44.454452944916824,-41.81817098202027,-39.212437608573211,-36.7798148336942,-34.347192058811544,-31.914569283925076,-29.481946509034884,-27.049323734140941,-24.616700959243261,-22.184078184341821,-19.751455409436684,-17.318832634527812,-14.938650862284724,-12.768235579120287,-10.597820295952141,-8.4274050127802855,-6.2569897296047268,-4.0865744464254536,-1.9161591632424717,0.25425611994422509,2.4246714031346195,4.5950866863287239,6.687209664731542,8.54445276862938,10.401695872530958,12.258938976436289,14.116182080345375,15.973425184258197,17.830668288174785,19.687911392095113,21.545154496019141,23.40239759994698,25.152909693680574,26.654378560140234,28.155847426603664,29.657316293070902,31.158785159541928,32.66025402601673,34.161722892495327,35.6631917589777,37.164660625463881,38.666129491953818,40.031294463388924,41.143319948676968,42.25534543396877,43.367370919264452,44.479396404563929,45.5914218898673,46.703447375174456,47.8154728604855,48.927498345800338,50.039523831119013,50.985876706461319,51.683716751932025,52.381556797406645,53.079396842885153,53.777236888367518,54.475076933853856,55.172916979343988,55.870757024838092,56.568597070336118,57.266437115838023,57.770590749056538,58.038012476700189,58.305434204347861,58.572855931999413,58.840277659654959,59.107699387314504,59.37512111497805,59.642542842645476,59.909964570316951,60.177386297992363,59.882331354640939,59.710824202015758,59.539317049394604,59.367809896777509,59.196302744164505,59.024795591555495,58.8532884389506,58.681781286349725,58.267830532410237,57.655512665354493,57.043194798302849,56.430876931255405,55.818559064212124,55.206241197172957,54.593923330137969,53.981605463107186,53.36928759608044,52.756969729057907,51.882246280153616,50.832581642837688,49.782917005526009,48.733252368218537,47.683587730915356,46.633923093616389,45.584258456321756,44.5345938190313,43.484929181745187,42.435264544463259,41.106135468730443,39.626521477621978,38.146907486517954,36.667293495418292,35.187679504322993,33.708065513232135,32.228451522145591,30.748837531063469,29.269223539985695,27.789609548912345,26.015975007134372,24.116326695182796,22.216678383235614,20.317030071293075,18.417381759354974,16.517733447421456,14.618085135492404,12.718436823567822,10.818788511647808,8.9191401997322846,6.71271120634619,4.4040181194972909,2.0953250326529944,-0.21336805418669019,-2.5220611410217177,-4.8307542278522115,-7.1394473146779855,-9.4481404014991721,-11.756833488315829,-14.065526575127764,-16.69261607011277,-19.399308429043963,-22.1060007879703,-24.812693146891721,-27.519385505808252,-30.226077864719787,-32.932770223626484,-35.639462582528232,-38.346154941425077,-41.052847300317083,-44.089873161761844,-47.185196844071349,-50.280520526376016,-53.375844208675993,-56.471167890971088,-59.56649157326143,-62.661815255546855,-65.7571389378276,-68.852462620103523,-71.947786302374752,-75.385746707055773,-78.861781457163531,-82.337816207266115,-85.813850957363329,-89.289885707455383,-92.7659204575421,-96.241955207623633,-99.717989957699743,-103.19402470777078,-106.67005945783644,-110.50348946241603,-114.35573329948767,-118.20797713655415,-122.06022097361507,-125.91246481067071,-129.76470864772111,-133.61695248476593,-137.46919632180536,-141.32144015883961,-145.17368399586834,0.787476583700551,0.787476583700551,0.787476583700551,0.787476583700551,0.787476583700551,0.787476583700551,0.787476583700551,0.787476583700551,0.787476583700551,0.787476583700551,0.787476583700551,0.787476583700551
DP 531,164.84928220434111,0.0035231202465845755,-117.56665757026441,-114.56343320841376,-111.56020884656043,-108.55698448470432,-105.55376012284543,-102.55053576098365,-99.5473113991192,-96.544087037251984,-93.540862675381973,-90.537638313509134,-87.538993250848392,-84.62735573895678,-81.7157182270624,-78.8040807151653,-75.892443203265415,-72.9808056913628,-70.069168179457421,-67.157530667549267,-64.24589315563837,-61.3342556437246,-58.441251420638615,-55.715948558274029,-52.990645695906778,-50.265342833536849,-47.540039971164255,-44.814737108788961,-42.089434246410995,-39.364131384030344,-36.638828521647,-33.913525659260976,-31.228291696146329,-28.770117353837094,-26.311943011525059,-23.853768669210314,-21.395594326892819,-18.937419984572625,-16.479245642249666,-14.021071299923978,-11.562896957595553,-9.1047226152644143,-6.7134367001629043,-4.58970765518929,-2.4659786102129924,-0.34224956523399491,1.7814794797476765,3.9052085247320583,6.0289375697191208,8.1526666147088918,10.276395659701338,12.40012470469647,14.427444705932652,16.16553393079403,17.903623155658103,19.641712380524886,21.379801605394395,23.117890830266575,24.85598005514149,26.59406928001907,28.332158504899365,30.070247729782384,31.68240608397895,33.000720780250035,34.319035476523808,35.637350172800311,36.955664869079527,38.273979565361465,39.59229426164611,40.910608957933455,42.228923654223557,43.547238350516345,44.712580161600869,45.593825340374885,46.475070519151657,47.356315697931151,48.23756087671341,49.118806055498396,50.000051234286083,50.881296413076512,51.762541591869677,52.6437867706656,53.3494482601151,53.79173006643606,54.234011872759751,54.6762936790862,55.118575485415491,55.560857291747453,56.003139098082237,56.445420904419713,56.887702710759996,57.329984517103021,57.5797971199143,57.594365542303372,57.608933964695147,57.623502387089829,57.638070809487246,57.65263923188742,57.667207654290451,57.681776076696259,57.696344499104896,57.710912921516311,56.739314463796468,56.347760628492772,55.956206793191889,55.564652957893834,55.173099122598622,54.781545287306287,54.389991452016751,53.99843761673003,53.399423033286944,52.630664272354586,51.861905511424979,51.093146750498384,50.3243879895746,49.555629228653792,48.786870467735788,48.01811170682074,47.249352945908527,46.480594184999255,45.505488869526133,44.39281593364948,43.280142997775791,42.167470061904986,41.054797126037172,39.942124190172308,38.829451254310378,37.716778318451368,36.604105382595378,35.491432446742245,34.177933133306787,32.756293619267659,31.334654105231529,29.91301459119844,28.491375077168335,27.069735563141275,25.648096049117214,24.2264565350962,22.804817021078168,21.383177507063188,19.769257332268221,18.072927914519205,16.376598496773216,14.680269079030424,12.983939661290655,11.287610243554024,9.5912808258204709,7.8949514080899679,6.198621990362609,4.5022925726383241,2.6236811821850874,0.68430683688639871,-1.2550675084091487,-3.1944418537015453,-5.1338161989907594,-7.0731905442768861,-9.0125648895597674,-10.951939234839525,-12.891313580116194,-14.830687925389627,-16.942342909342475,-19.097070088487072,-21.251797267628422,-23.406524446766397,-25.561251625901065,-27.715978805032375,-29.870705984160384,-32.025433163285044,-34.18016034240636,-36.334887521524422,-38.653762567877372,-41.001606710265719,-43.349450852650705,-45.697294995032586,-48.045139137411077,-50.392983279786421,-52.740827422158418,-55.088671564527168,-57.436515706892685,-59.784359849254962,-62.290962183790938,-64.815205984791149,-67.339449785787821,-69.8636935867809,-72.3879373877705,-74.9121811887565,-77.436424989739081,-79.960668790717889,-82.484912591693345,-85.0091563926652,-87.691583533090224,-90.3823376862931,-93.073091839492534,-95.763845992688331,-98.454600145880462,-101.1453542990691,-103.83610845225427,-106.52686260543545,-109.21761675861323,-111.90837091178727,0.53579493434858338,0.53579493434858338,0.53579493434858338,0.53579493434858338,0.53579493434858338,0.53579493434858338,0.53579493434858338,0.53579493434858338,0.53579493434858338,0.53579493434858338,0.53579493434858338,0.53579493434858338
DP 532,223.11350120355669,0.0031826414169417038,-133.66824724756313,-130.06696455777725,-126.46568186798881,-122.86439917819764,-119.26311648840405,-115.66183379860801,-112.06055110880936,-108.45926841900813,-104.85798572920432,-101.25670303939813,-97.661910565976982,-94.19043343085859,-90.718956295737854,-87.247479160614517,-83.776002025488665,-80.304524890360312,-76.833047755229416,-73.361570620095975,-69.890093484959991,-66.418616349821519,-62.973269996509558,-59.763103149582975,-56.552936302653961,-53.342769455722525,-50.132602608788595,-46.92243576185227,-43.712268914913466,-40.502102067972217,-37.291935221028531,-34.0817683740824,-30.926886306871598,-28.085288141915143,-25.243689976956205,-22.402091811994776,-19.560493647030842,-16.718895482064443,-13.877297317095543,-11.035699152124151,-8.194100987150275,-5.3525028221739133,-2.6011315763442608,-0.21067227130600036,2.1797870337346907,4.5702463387778343,6.960705643823407,9.3511649488714426,11.741624253921907,14.132083558974825,16.522542864030186,18.913002169087971,21.177053662746534,23.06187694289801,24.946700223051941,26.831523503208324,28.716346783367175,30.601170063528446,32.4859933436922,34.370816623858367,36.255639904027014,38.14046318419809,39.865703075585337,41.218575441448486,42.571447807314129,43.924320173182174,45.277192539052685,46.63006490492571,47.982937270801123,49.335809636679038,50.688682002559382,52.041554368442156,53.208070811675782,54.028492651518967,54.848914491364596,55.669336331212705,56.489758171063272,57.310180010916305,58.130601850771832,58.951023690629789,59.771445530490233,60.591867370353171,61.207713763464071,61.516692152252268,61.825670541043024,62.13464892983621,62.443627318631783,62.752605707430028,63.061584096230654,63.370562485033766,63.679540873839436,63.988519262647479,64.0840760214106,63.918779638356554,63.753483255305035,63.588186872256095,63.422890489209593,63.2575941061656,63.092297723124155,62.927001340085162,62.761704957048764,62.596408574014795,61.034180767510236,60.44234811519032,59.850515462872963,59.258682810558149,58.666850158245943,58.075017505936167,57.483184853628991,56.891352201324352,56.094132825352574,55.1288662366626,54.163599647975211,53.1983330592904,52.233066470608186,51.267799881928575,50.302533293251486,49.33726670457709,48.372000115905195,47.406733527235943,46.249844262539831,44.965203528418392,43.680562794299547,42.395922060183352,41.1112813260698,39.826640591958849,38.541999857850591,37.257359123744912,35.972718389641912,34.688077655541491,33.229387396245954,31.67697563086066,30.124563865478091,28.572152100098148,27.01974033472095,25.46732856934641,23.91491680397456,22.362505038605462,20.810093273239008,19.257681507875265,17.550555748377416,15.777121379998471,14.003687011622198,12.23025264324877,10.456818274878042,8.6833839065101017,6.9099495381449074,5.1365151697824212,3.363080801422738,1.5896464330657905,-0.3192985450855883,-2.2734154343189621,-4.2275323235495419,-6.1816492127773239,-8.1357661020022682,-10.089882991224473,-12.043999880443794,-13.998116769660331,-15.952233658874125,-17.90635054808504,-19.978398864326095,-22.079931430701873,-24.181463997074715,-26.282996563444616,-28.384529129811551,-30.486061696175518,-32.587594262536513,-34.689126828894594,-36.790659395249662,-38.892191961601895,-41.097317635588993,-43.320725598186577,-45.5441335607812,-47.767541523373069,-49.990949485961856,-52.214357448547858,-54.437765411130982,-56.661173373711172,-58.8845813362885,-61.10798929886294,-63.424525094980133,-65.751409406217576,-68.078293717451913,-70.405178028683153,-72.7320623399113,-75.058946651136168,-77.385830962357986,-79.71271527357662,-82.039599584792185,-84.366483896004624,-86.781518605218764,-89.201193686123872,-91.620868767025755,-94.040543847924539,-96.460218928820026,-98.87989400971243,-101.29956909060165,-103.71924417148755,-106.13891925237029,-108.5585943332499,0.47466847987398203,0.47466847987398203,0.47466847987398203,0.47466847987398203,0.47466847987398203,0.47466847987398203,0.47466847987398203,0.47466847987398203,0.47466847987398203,0.47466847987398203,0.47466847987398203,0.47466847987398203
DP 533,94.164475060216333,0.0019435832188906166,-41.928409415103843,-40.958256429654313,-39.988103444203524,-39.017950458751358,-38.047797473297948,-37.07764448784318,-36.107491502387134,-35.137338516929795,-34.167185531471091,-33.1970325460111,-32.228004742553651,-31.280355609877446,-30.332706477199963,-29.385057344521169,-28.437408211841074,-27.489759079159633,-26.542109946476906,-25.594460813792889,-24.646811681107543,-23.69916254842089,-22.756160781588004,-21.854985746726367,-20.95381071186344,-20.052635676999238,-19.151460642133756,-18.250285607266989,-17.349110572398946,-16.447935537529602,-15.546760502658994,-14.645585467787088,-13.754622568537183,-12.921529081330398,-12.088435594122309,-11.255342106912916,-10.422248619702213,-9.5891551324901911,-8.7560616452768674,-7.9229681580622291,-7.0898746708462728,-6.2567811836290153,-5.4412604971832046,-4.6960318443318663,-3.9508031914792339,-3.2055745386252927,-2.46034588577006,-1.715117232913514,-0.969888580055673,-0.22465992719652547,0.52056872566391843,1.2657973785256647,1.9847114441175038,2.6246807529788807,3.2646500618415741,3.9046193707055803,4.5445886795709143,5.1845579884375583,5.8245272973055142,6.4644966061747988,7.10446591504538,7.7444352239173027,8.3483988492735,8.8683477950476863,9.3882967408231863,9.9082456866000381,10.428194632378196,10.948143578157707,11.468092523938543,11.988041469720708,12.507990415504208,13.027939361289045,13.501707604348271,13.889710438039156,14.277713271731383,14.665716105424975,15.053718939119886,15.44172177281618,15.82972460651381,16.2177274402128,16.605730273913132,16.993733107614826,17.325327628801475,17.5723083482656,17.819289067731088,18.066269787197953,18.313250506666193,18.5602312261358,18.8072119456068,19.054192665079157,19.3011733845529,19.548154104028,19.728823662522938,19.828444853635464,19.928066044749354,20.027687235864676,20.127308426981394,20.226929618099518,20.326550809219022,20.426172000339935,20.525793191462238,20.625414382585973,20.546314758440815,20.494750384757435,20.443186011075493,20.391621637394966,20.340057263715877,20.288492890038214,20.236928516362,20.185364142687174,20.04974534861422,19.845353311498375,19.640961274384004,19.436569237271119,19.232177200159676,19.027785163049721,18.823393125941209,18.619001088834185,18.414609051728604,18.210217014624522,17.914218240740652,17.557146865870795,17.20007549100243,16.843004116135592,16.485932741270215,16.128861366406372,15.771789991544034,15.414718616683194,15.05764724182386,14.70057586696603,14.245244101857379,13.737001466966406,13.228758832076998,12.720516197189117,12.212273562302801,11.704030927418028,11.195788292534798,10.687545657653146,10.17930302277302,9.6710603878944479,9.05869530754094,8.4017045645167485,7.7447138214941322,7.087723078473136,6.4307323354537136,5.773741592435913,5.1167508494197005,4.459760106405068,3.8027693633920521,3.1457786203806237,2.3793871926745229,1.5765274913115424,0.77366778995019181,-0.029191911409526251,-0.832051612767596,-1.6349113141240581,-2.43777101547885,-3.2406307168320168,-4.0434904181835778,-4.8463501195334739,-5.7634846761609282,-6.7091892967829274,-7.6548939174032116,-8.6005985380217371,-9.5463031586385334,-10.492007779253573,-11.437712399866893,-12.383417020478444,-13.329121641088264,-14.274826261696374,-15.339747816470517,-16.425708979453795,-17.51167014243536,-18.597631305415245,-19.68359246839341,-20.769553631369888,-21.855514794344653,-22.941475957317735,-24.027437120289132,-25.113398283258793,-26.323549983149757,-27.547501935880586,-28.771453888609582,-29.995405841336659,-31.219357794061935,-32.443309746785282,-33.6672616995068,-34.891213652226405,-36.115165604944217,-37.339117557660117,-38.692959776386289,-40.053639617258362,-41.414319458128588,-42.774999298996867,-44.135679139863271,-45.496358980727784,-46.857038821590358,-48.217718662450956,-49.578398503309707,-50.939078344166546,0.27887193648484737,0.27887193648484737,0.27887193648484737,0.27887193648484737,0.27887193648484737,0.27887193648484737,0.27887193648484737,0.27887193648484737,0.27887193648484737,0.27887193648484737,0.27887193648484737,0.27887193648484737
DP 534,294.69955367100141,0.0025870516866614841,-131.63828956020927,-127.90166520770914,-124.165040855207,-120.42841650270283,-116.69179215019663,-112.95516779768833,-109.21854344517813,-105.48191909266583,-101.74529474015146,-98.00867038763522,-94.280025338553685,-90.702988563214646,-87.125951787873589,-83.548915012530614,-79.971878237185592,-76.39484146183861,-72.817804686489552,-69.240767911138519,-65.6637311357855,-62.086694360430428,-58.5413909986611,-55.281691358677335,-52.021991718691552,-48.762292078703886,-45.5025924387143,-42.242892798722735,-38.983193158729186,-35.723493518733726,-32.463793878736354,-29.204094238736996,-26.010226341613436,-23.189409135816103,-20.368591930016812,-17.547774724215536,-14.726957518412316,-11.906140312607095,-9.0853231067998923,-6.2645059009907236,-3.4436886951795858,-0.62287148936647851,2.09337472768237,4.3913320475588629,6.6892893674372829,8.98724668731764,11.28520400719993,13.583161327084163,15.881118646970327,18.179075966858417,20.477033286748455,22.774990606640426,24.931327110971885,26.662795814130842,28.394264517291727,30.125733220454556,31.857201923619307,33.588670626786019,35.320139329954657,37.051608033125213,38.783076736297744,40.51454543947218,42.074289656616557,43.233336643163042,44.392383629711482,45.551430616261847,46.710477602814152,47.869524589368439,49.028571575924651,50.187618562482733,51.346665549042868,52.505712535604864,53.473285466315417,54.08525855089664,54.697231635479753,55.309204720064791,55.9211778046518,56.533150889240773,57.1451239738317,57.757097058424556,58.369070143019371,58.9810432276161,59.39340020444223,59.506328302608885,59.619256400777523,59.732184498948058,59.845112597120625,59.958040695295161,60.070968793471572,60.18389689165,60.296824989830462,60.409753088012778,60.325892360103488,60.001507822355066,59.677123284608676,59.3527387468643,59.028354209121773,58.703969671381259,58.379585133642735,58.055200595906229,57.730816058171676,57.406431520439078,55.508407162390291,54.814073627364685,54.119740092341239,53.425406557319668,52.731073022300123,52.0367394872826,51.342405952267058,50.64807241725353,49.786903814880596,48.789230926579052,47.791558038279554,46.793885149982074,45.796212261686584,44.798539373393226,43.800866485101807,42.803193596812456,41.805520708525123,40.80784782023985,39.665023595524652,38.425429526538153,37.185835457553743,35.946241388571373,34.706647319591092,33.467053250612835,32.227459181636682,30.987865112662561,29.748271043690558,28.508676974720551,27.146691102455648,25.718800171702458,24.290909240951425,22.863018310202509,21.435127379455647,20.007236448710881,18.579345517968203,17.151454587227658,15.723563656489155,14.29567272575278,12.76728373492211,11.195822450615452,9.6243611663108855,8.0528998820085533,6.4814385977083182,4.9099773134102707,3.3385160291143769,1.7670547448205922,0.19559346052900781,-1.3758678237604385,-3.0281903982152887,-4.7074677551393576,-6.3867451120612468,-8.0660224689809432,-9.7452998258984227,-11.424577182813771,-13.103854539726843,-14.783131896637752,-16.462409253546518,-18.141686610453043,-19.885222507563586,-21.644823798948718,-23.404425090331596,-25.164026381712155,-26.9236276730904,-28.683228964466355,-30.442830255839976,-32.202431547211276,-33.962032838580306,-35.72163412994702,-37.532622256733269,-39.352679220021223,-41.1727361833069,-42.992793146590436,-44.812850109871604,-46.632907073150555,-48.452964036427183,-50.273020999701622,-52.093077962973766,-53.913134926243721,-55.775342778100892,-57.642234504705264,-59.509126231307214,-61.3760179579067,-63.242909684503815,-65.109801411098388,-66.976693137690617,-68.843584864280317,-70.710476590867614,-72.5773683174525,-74.48150067860567,-76.387593443684665,-78.293686208761258,-80.199778973835251,-82.105871738906771,-84.011964503975946,-85.918057269042535,-87.824150034106552,-89.730242799168181,-91.63633556422721,0.36982597126996897,0.36982597126996897,0.36982597126996897,0.36982597126996897,0.36982597126996897,0.36982597126996897,0.36982597126996897,0.36982597126996897,0.36982597126996897,0.36982597126996897,0.36982597126996897,0.36982597126996897
DP 535,177.5973422630077,0.0059242517905749087,-209.51987648104222,-204.0979906860415,-198.67610489103643,-193.25421909602662,-187.832333301012,-182.41044750599281,-176.98856171096872,-171.56667591594012,-166.14479012090686,-160.72290432586863,-155.30962058370292,-150.05977747236497,-144.80993436102267,-139.56009124967542,-134.31024813832363,-129.06040502696717,-123.81056191560597,-118.56071880424024,-113.31087569286971,-108.0610325814946,-102.8461067459819,-97.94543969371189,-93.044772641437461,-88.144105589158386,-83.243438536874876,-78.342771484586734,-73.442104432294073,-68.541437379996822,-63.6407703276951,-58.740103275388854,-53.914252227968575,-49.512363256083894,-45.110474284194559,-40.708585312300535,-36.306696340401949,-31.904807368498709,-27.502918396590832,-23.101029424678327,-18.699140452761217,-14.29725148083949,-10.019632139318892,-6.2390971924999237,-2.4585622456764269,1.3219727011516373,5.1025076479842122,8.8830425948213811,12.663577541663074,16.444112488509322,20.224647435360108,24.005182382215441,27.607735995612853,30.676338879399353,33.744941763190468,36.813544646986145,39.882147530786327,42.950750414591155,46.019353298400517,49.087956182214477,52.156559066032941,55.225161949856016,58.063044493883631,60.362570491705938,62.6620964895328,64.961622487364252,67.261148485200266,69.560674483040884,71.860200480886036,74.159726478735863,76.459252476590279,78.758778474449187,80.7805106586275,82.286332543827825,83.792154429032735,85.2979763142423,86.8037981994564,88.3096200846752,89.815441969898657,91.32126385512656,92.827085740359252,94.332907625596491,95.52307029255428,96.239736672946577,96.95640305334355,97.673069433745141,98.389735814151408,99.106402194562264,99.823068574977853,100.539734955398,101.2564013358229,101.97306771625249,102.34758357801856,102.30390828573495,102.2602329934559,102.21655770118174,102.17288240891216,102.12920711664724,102.08553182438725,102.04185653213176,101.99818123988109,101.95450594763503,100.04082515852174,99.284086553350377,98.527347948183845,97.77060934302196,97.013870737865147,96.25713213271284,95.500393527565365,94.743654922422749,93.62757237176271,92.217474962823815,90.807377553889808,89.39728014496076,87.987182736036488,86.577085327117089,85.166987918202508,83.756890509292859,82.346793100388084,80.936695691488126,79.174424600085544,77.1773655056893,75.180306411298062,73.183247316911746,71.186188222530376,69.189129128154,67.192070033782528,65.195010939416008,63.19795184505459,61.200892750697946,58.866515775157623,56.350501189171965,53.8344866031914,51.318472017215896,48.802457431245486,46.286442845280156,43.770428259319843,41.254413673364667,38.738399087414493,36.222384501469442,33.388899045233728,30.419349286043744,27.449799526858861,24.480249767679307,21.510700008504838,18.541150249335665,15.571600490171635,12.602050731012771,9.63250097185917,6.66295121271073,3.3978429718088012,0.034211512115183564,-3.3294199475731565,-6.69305140725621,-10.056682866933905,-13.420314326606425,-16.783945786273485,-20.147577245935306,-23.511208705591919,-26.874840165243118,-30.512672752178354,-34.219058860662294,-37.925444969140777,-41.631831077613604,-45.338217186080875,-49.04460329454249,-52.750989402998556,-56.457375511449072,-60.163761619893933,-63.870147728333293,-67.833169945536255,-71.841483741643742,-75.849797537745815,-79.858111333842473,-83.866425129933475,-87.874738926019177,-91.883052722099208,-95.891366518174,-99.899680314243128,-103.90799411030699,-108.1606910540512,-112.44054424746734,-116.72039744087786,-121.0002506342822,-125.28010382768079,-129.55995702107322,-133.83981021445976,-138.11966340784031,-142.3995166012152,-146.67936979458386,-151.20015223594194,-155.733617561183,-160.26708288641794,-164.80054821164691,-169.3340135368698,-173.86747886208695,-178.40094418729754,-182.93440951250213,-187.46787483770075,-192.00134016289317,0.89925413107757191,0.89925413107757191,0.89925413107757191,0.89925413107757191,0.89925413107757191,0.89925413107757191,0.89925413107757191,0.89925413107757191,0.89925413107757191,0.89925413107757191,0.89925413107757191,0.89925413107757191
DP 536,248.72746581230749,0.0038131621562230854,-173.0642650927542,-168.30801659340779,-163.55176809405853,-158.79551959470618,-154.03927109535081,-149.28302259599235,-144.52677409663085,-139.77052559726641,-135.01427709789894,-130.25802859852823,-125.51092071286213,-120.93748621561997,-116.36405171837484,-111.79061722112672,-107.21718272387565,-102.64374822662143,-98.070313729364315,-93.4968792321042,-88.923444734841013,-84.350010237574836,-79.81321524420305,-75.606179249135067,-71.3991432540641,-67.192107258990276,-62.985071263913476,-58.778035268833868,-54.5709992737512,-50.363963278665757,-46.156927283577311,-41.949891288486,-37.819827145744853,-34.125941683344607,-30.43205622094144,-26.738170758535254,-23.044285296126141,-19.350399833714061,-15.656514371299,-11.962628908880973,-8.2687434464599914,-4.5748579840360621,-1.0053772101622598,2.0664789300360433,5.1383350702372335,8.2101912104413515,11.282047350648348,14.353903490858281,17.425759631071109,20.497615771286863,23.569471911505484,26.641328051727012,29.541009844072931,31.924162083112112,34.30731432215422,36.690466561199258,39.073618800247175,41.456771039298033,43.839923278351804,46.223075517408482,48.606227756468037,50.989379995530555,53.158312586945755,54.827390897028387,56.496469207113975,58.165547517202413,59.834625827293763,61.503704137388134,63.172782447485389,64.841860757585465,66.510939067688582,68.180017377794528,69.603090557783347,70.569290423903169,71.535490290025948,72.501690156151653,73.467890022280258,74.434089888411819,75.400289754546321,76.366489620683652,77.332689486824037,78.298889352967251,79.000053257641483,79.303656957212638,79.607260656786735,79.910864356363831,80.214468055943826,80.518071755526776,80.821675455112725,81.1252791547016,81.428882854293391,81.732486553888208,81.765241205318887,81.466952442092861,81.168663678869635,80.870374915649435,80.57208615243222,80.273797389217961,79.975508626006715,79.677219862798424,79.378931099593075,79.080642336390767,76.862494574996816,76.034892222464208,75.2072898699346,74.379687517408,73.552085164884446,72.724482812363888,71.896880459846372,71.0692781073319,69.992873337034112,68.712898676338966,67.432924015646876,66.152949354957869,64.872974694271875,63.593000033588979,62.31302537290906,61.033050712232388,59.753076051558629,58.473101390887976,56.966918790220433,55.309927332639596,53.652935875061885,51.995944417487188,50.338952959915659,48.681961502347271,47.024970044782016,45.36797858721981,43.710987129660808,42.053995672104861,40.197145574873737,38.232676380753936,36.268207186637341,34.303737992523871,32.339268798413627,30.374799604306546,28.410330410202608,26.44586121610191,24.481392022004361,22.516922827909998,20.379987541334234,18.169135304093242,15.958283066855406,13.747430829620942,11.53657859238964,9.3257263551616809,7.1148741179369548,4.9040218807154305,2.693169643497225,0.48231740628225833,-1.87486681535464,-4.2808302093291228,-6.6867936033002984,-9.0927569972681646,-11.498720391232673,-13.904683785193939,-16.310647179151793,-18.716610573106362,-21.122573967057694,-23.528537361005586,-26.057603981636504,-28.617447863420576,-31.177291745201266,-33.737135626978414,-36.296979508752074,-38.8568233905222,-41.416667272288862,-43.976511154052019,-46.536355035811667,-49.096198917567932,-51.760495781871619,-54.443226686978768,-57.125957592082507,-59.808688497182949,-62.491419402279824,-65.174150307373367,-67.8568812124634,-70.539612117550149,-73.22234302263341,-75.9050739277133,-78.678661538444814,-81.462345292900579,-84.246029047352565,-87.029712801800827,-89.813396556245479,-92.5970803106864,-95.380764065123657,-98.164447819556969,-100.94813157398677,-103.73181532841292,-106.59944060798045,-109.47148469773752,-112.34352878749084,-115.21557287724033,-118.08761696698598,-120.959661056728,-123.83170514646619,-126.70374923620048,-129.57579332593113,-132.44783741565794,0.5607685700804208,0.5607685700804208,0.5607685700804208,0.5607685700804208,0.5607685700804208,0.5607685700804208,0.5607685700804208,0.5607685700804208,0.5607685700804208,0.5607685700804208,0.5607685700804208,0.5607685700804208
DP 537,256.83884225814234,0.0011388601157737359,-52.852886659113317,-51.391637836272416,-49.930389013430627,-48.469140190587936,-47.007891367744335,-45.546642544899775,-44.085393722054384,-42.624144899208034,-41.1628960763608,-39.701647253512675,-38.243261890395154,-36.839282803498058,-35.435303716600046,-34.03132462970116,-32.627345542801365,-31.223366455900685,-29.819387368999092,-28.415408282096653,-27.011429195193241,-25.607450108288958,-24.214932759368121,-22.925572135688547,-21.636211512008121,-20.346850888326827,-19.057490264644663,-17.768129640961646,-16.478769017277735,-15.189408393592965,-13.900047769907337,-12.610687146220842,-11.345352026837297,-10.216162945796404,-9.0869738647546452,-7.95778478371199,-6.8285957026684612,-5.6994066216240462,-4.5702175405787475,-3.4410284595325606,-2.3118393784855003,-1.1826502974375566,-0.092172535927542792,0.8434581178998688,1.7790887717281412,2.7147194255572824,3.6503500793872847,4.58598073321816,5.5216113870498988,6.4572420408825062,7.3928726947159715,8.3285033485503046,9.2107632955930914,9.9329091043869155,10.655054913181612,11.37720072197718,12.099346530773614,12.821492339570913,13.54363814836908,14.26578395716812,14.987929765968012,15.710075574768775,16.366120683210337,16.867928220838337,17.369735758467208,17.871543296096959,18.37335083372756,18.875158371359056,19.376965908991398,19.878773446624628,20.380580984258717,20.882388521893684,21.308685267878388,21.594745647256907,21.880806026636296,22.166866406016542,22.452926785397658,22.738987164779665,23.025047544162533,23.311107923546277,23.597168302930918,23.883228682316389,24.088412662178648,24.172280131616464,24.256147601055115,24.340015070494669,24.423882539935082,24.507750009376373,24.591617478818538,24.675484948261595,24.759352417705518,24.843219887150337,24.844967343942251,24.746344171468309,24.647720998995204,24.549097826523042,24.450474654051749,24.351851481581349,24.253228309111829,24.154605136643198,24.055981964175441,23.9573587917086,23.263062750342876,23.00506866701485,22.747074583687727,22.489080500361485,22.231086417036163,21.973092333711744,21.7150982503882,21.457104167065552,21.1247554207897,20.731569763350375,20.338384105911963,19.945198448474482,19.552012791037892,19.158827133602223,18.76564147616747,18.372455818733627,17.979270161300683,17.586084503868662,17.125833092712757,16.620870122549373,16.115907152386907,15.610944182225371,15.105981212064771,14.60101824190509,14.096055271746341,13.591092301588521,13.086129331431628,12.581166361275653,12.017450515161332,11.422097650699769,10.826744786239182,10.231391921779522,9.6360390573208115,9.0406861928630491,8.4453333284062087,7.8499804639503479,7.2546275994954019,6.6592747350414117,6.0136794961630731,5.3465509630690411,4.6794224299759417,4.0122938968838477,3.3451653637926979,2.6780368307025357,2.0109082976133359,1.3437797645250913,0.67665123143783268,0.0095226983515365581,-0.69982262790434469,-1.4232407506010829,-2.1466588732968384,-2.8700769959916097,-3.593495118685381,-4.3169132413781943,-5.0403313640699876,-5.763749486760803,-6.4871676094506521,-7.21058573213949,-7.9691514474337621,-8.736504476153252,-9.5038575048717178,-10.271210533589134,-11.038563562305516,-11.805916591020864,-12.573269619735171,-13.340622648448427,-14.107975677160658,-14.875328705871855,-15.672185691133693,-16.47424958505103,-17.276313478967328,-18.078377372882638,-18.880441266796893,-19.682505160710164,-20.484569054622387,-21.28663294853364,-22.088696842443831,-22.890760736353041,-23.718221947717883,-24.548505349975464,-25.378788752231916,-26.209072154487295,-27.039355556741572,-27.869638958994724,-28.699922361246784,-29.53020576349773,-30.360489165747648,-31.190772567996383,-32.044337898184544,-32.89912882464612,-33.753919751106608,-34.608710677565959,-35.463501604024195,-36.31829253048133,-37.173083456937292,-38.027874383392145,-38.8826653098459,-39.737456236298478,0.16668258382691425,0.16668258382691425,0.16668258382691425,0.16668258382691425,0.16668258382691425,0.16668258382691425,0.16668258382691425,0.16668258382691425,0.16668258382691425,0.16668258382691425,0.16668258382691425,0.16668258382691425
DP 538,170.3531784879913,0.0018632754013319782,-63.796745115862393,-62.157745470465919,-60.518745825067946,-58.879746179668508,-57.24074653426765,-55.601746888865321,-53.962747243461465,-52.32374759805618,-50.684747952649424,-49.045748307241162,-47.40929170678173,-45.8211534411254,-44.233015175467536,-42.644876909808232,-41.056738644147472,-39.468600378485263,-37.880462112821554,-36.2923238471564,-34.704185581489789,-33.1160473158217,-31.538245818343373,-30.053476211633896,-28.568706604923033,-27.083936998210692,-25.599167391496991,-24.11439778478184,-22.629628178065264,-21.144858571347246,-19.660088964627825,-18.175319357906982,-16.712742785725087,-15.375928141086934,-14.0391134964473,-12.702298851806233,-11.365484207163719,-10.028669562519738,-8.6918549178743181,-7.3550402732274414,-6.0182256285791222,-4.681410983929351,-3.3815638788644016,-2.2295886792588768,-1.0776134796519323,0.0743617199564459,1.2263369195662412,2.3783121191774748,3.5302873187901271,4.682262518404217,5.8342377180197209,6.9862129176366556,8.0850514900844335,9.0244781719995419,9.9639048539160751,10.903331535834045,11.842758217753451,12.782184899674295,13.72161158159656,14.661038263520267,15.600464945445397,16.539891627371976,17.41013970622037,18.118968320025203,18.827796933831493,19.536625547639211,20.245454161448361,20.954282775258964,21.663111389070991,22.371940002884461,23.08076861669937,23.789597230515742,24.414713705598171,24.884362519431892,25.354011333267049,25.823660147103634,26.29330896094169,26.762957774781192,27.23260658862214,27.702255402464534,28.171904216308381,28.641553030153666,29.015536141693804,29.246018439159545,29.476500736626708,29.706983034095369,29.937465331565466,30.167947629037062,30.39842992651009,30.628912223984564,30.859394521460537,31.089876818937938,31.216004772996058,31.214586337602121,31.213167902209655,31.21174946681867,31.2103310314292,31.208912596041181,31.207494160654665,31.206075725269617,31.20465728988604,31.203238854503937,30.651459301263824,30.431030753027468,30.210602204792593,29.990173656559207,29.769745108327335,29.54931656009699,29.328888011868152,29.10845946364077,28.776813620586463,28.354169897688578,27.931526174792232,27.508882451897421,27.08623872900414,26.663595006112423,26.240951283222184,25.818307560333487,25.395663837446318,24.973020114560697,24.440466356776625,23.834637510918466,23.228808665061838,22.62297981920679,22.01715097335331,21.411322127501368,20.805493281651014,20.199664435802198,19.593835589954942,18.988006744109246,18.275950892895523,17.506694340218573,16.737437787543225,15.968181234869469,15.198924682197323,14.429668129526773,13.660411576857797,12.891155024190446,12.121898471524686,11.352641918860515,10.482435234867818,9.5689625049547473,8.6554897750432751,7.74201704513349,6.8285443152253107,5.9150715853187812,5.0015988554138815,4.088126125510601,3.1746533956089751,2.2611806657089812,1.2527582191794622,0.21268467047142886,-0.82738887823494234,-1.8674624269396485,-2.90753597564267,-3.9476095243440583,-4.9876830730437325,-6.0277566217417577,-7.0678301704381434,-8.10790371913282,-9.2369987617686018,-10.388350229692103,-11.539701697613886,-12.691053165533882,-13.842404633452125,-14.993756101368602,-16.145107569283322,-17.296459037196261,-18.447810505107473,-19.599161973016919,-20.834682320838393,-22.085056936378546,-23.335431551916951,-24.585806167453661,-25.83618078298861,-27.086555398521888,-28.336930014053383,-29.587304629583205,-30.837679245111307,-32.088053860637679,-33.419293459090333,-34.759518904918068,-36.09974435074394,-37.439969796567894,-38.780195242390057,-40.120420688210316,-41.460646134028664,-42.800871579845143,-44.141097025659796,-45.481322471472517,-46.901756115482776,-48.326412041647338,-49.751067967810023,-51.175723893970712,-52.600379820129596,-54.025035746286576,-55.449691672441631,-56.874347598594731,-58.299003524746013,-59.723659450895262,0.28320018919734563,0.28320018919734563,0.28320018919734563,0.28320018919734563,0.28320018919734563,0.28320018919734563,0.28320018919734563,0.28320018919734563,0.28320018919734563,0.28320018919734563,0.28320018919734563,0.28320018919734563
DP 539,96.030114516238768,0.0029778066537785039,-65.180891952187679,-63.667343956485489,-62.153795960781167,-60.640247965074934,-59.126699969366662,-57.613151973656315,-56.099603977943879,-54.586055982229595,-53.072507986513159,-51.558959990794719,-50.047182744824269,-48.56905007885269,-47.090917412879151,-45.612784746903522,-44.134652080925946,-42.656519414946331,-41.178386748964677,-39.700254082981004,-38.222121416995314,-36.743988751007613,-35.273166905367269,-33.868143133900979,-32.463119362432685,-31.058095590962424,-29.653071819490169,-28.248048048015942,-26.843024276539744,-25.438000505061552,-24.032976733581371,-22.627952962099236,-21.23898391405648,-19.94099264385985,-18.64300137366121,-17.345010103460513,-16.04701883325782,-14.749027563053106,-13.451036292846346,-12.153045022637579,-10.85505375242678,-9.5570624822139543,-8.2866715516110983,-7.1266832838685126,-5.9666950161239178,-4.8067067483773149,-3.646718480628707,-2.4867302128780788,-1.3267419451254481,-0.16675367737080118,0.99323459038584894,2.1532228581445114,3.2719250540102616,4.2667674732239975,5.261609892439763,6.2564523116575685,7.2512947308774,8.24613715009927,9.2409795693231676,10.23582198854912,11.230664407777059,12.225506827007067,13.163935967233151,13.970731901339962,14.777527835448829,15.58432376955974,16.391119703672707,17.197915637787752,18.004711571904828,18.811507506023968,19.618303440145169,20.42509937426842,21.159656038190619,21.76005210654813,22.360448174907724,22.960844243269428,23.561240311633185,24.161636379999042,24.76203244836698,25.362428516736994,25.962824585109107,26.563220653483281,27.075537898191442,27.455734826064372,27.835931753939384,28.216128681816524,28.596325609695782,28.976522537577175,29.356719465460674,29.736916393346291,30.117113321234015,30.497310249123874,30.774177893800879,30.924752021920362,31.075326150041985,31.22590027816576,31.376474406291745,31.527048534419858,31.677622662550128,31.828196790682579,31.978770918817183,32.129345046953922,31.993418715557777,31.908932913015608,31.824447110475621,31.739961307937854,31.655475505402272,31.570989702868886,31.486503900337738,31.402018097808771,31.187160274776947,30.865632194433761,30.544104114092775,30.222576033754102,29.901047953417667,29.579519873083484,29.257991792751529,28.936463712421904,28.614935632094515,28.293407551769349,27.830155457162487,27.272418453709093,26.714681450257977,26.156944446809202,25.599207443362765,25.041470439918623,24.483733436476808,23.9259964330373,23.368259429600133,22.810522426165242,22.10116491811733,21.310163395065683,20.519161872016436,19.728160348969567,18.937158825925092,18.146157302883012,17.355155779843283,16.564154256805981,15.773152733771042,14.982151210738492,14.030905330559124,13.010980592576336,11.991055854595965,10.971131116618102,9.9512063786426666,8.9312816406697113,7.9113569026992039,6.8914321647311247,5.8715074267655361,4.8515826888024023,3.6637180258007676,2.419871271267326,1.1760245167363952,-0.067822237792023718,-1.3116689923179055,-2.5555157468413143,-3.799362501362149,-5.04320925588049,-6.2870560103963538,-7.5309027649096567,-8.9497604397280632,-10.412372912403924,-11.874985385077157,-13.337597857747685,-14.800210330415551,-16.262822803080695,-17.725435275743209,-19.188047748403012,-20.650660221060146,-22.113272693714642,-23.758098957494244,-25.435082622421525,-27.112066287346146,-28.789049952268229,-30.466033617187627,-32.143017282104466,-33.820000947018663,-35.49698461193023,-37.173968276839176,-38.850951941745592,-40.717453877537579,-42.605015389371545,-44.4925769012027,-46.380138413030956,-48.267699924856423,-50.155261436678884,-52.042822948498646,-53.930384460315352,-55.817945972129351,-57.705507483940387,-59.791092802403035,-61.887102396736111,-63.983111991066423,-66.079121585393665,-68.17513117971798,-70.271140774039452,-72.3671503683579,-74.463159962673345,-76.559169556986078,-78.65517915129567,0.42916242475317418,0.42916242475317418,0.42916242475317418,0.42916242475317418,0.42916242475317418,0.42916242475317418,0.42916242475317418,0.42916242475317418,0.42916242475317418,0.42916242475317418,0.42916242475317418,0.42916242475317418
DP 540,100.61050104532916,0.003157585065940638,-71.571506587785251,-69.8955071570377,-68.219507726287929,-66.543508295535958,-64.867508864781868,-63.191509434025548,-61.515510003266975,-59.839510572506271,-58.163511141743413,-56.487511710978339,-54.813515151361358,-53.1775735222304,-51.541631893097147,-49.905690263961823,-48.269748634824261,-46.633807005684538,-44.997865376542649,-43.361923747398514,-41.72598211825224,-40.09004048910375,-38.462357483647843,-36.90900287206199,-35.355648260473991,-33.802293648883882,-32.2489390372916,-30.69558442569717,-29.142229814100613,-27.588875202501875,-26.035520590901058,-24.482165979298081,-22.946919321807634,-21.514285545361894,-20.081651768913989,-18.649017992463882,-17.2163842160116,-15.783750439557126,-14.351116663100445,-12.918482886641582,-11.485849110180544,-10.053215333717324,-8.65164748125523,-7.3743447930049406,-6.0970421047524868,-4.81973941649786,-3.5424367282410705,-2.2651340399821023,-0.98783135172096836,0.28947133654233942,1.56677402480781,2.8440767130754487,4.0750389151830619,5.1669779067366024,6.2589168982923216,7.3508558898502407,8.4427948814103679,9.5347338729726623,10.626672864537161,11.71861185610385,12.810550847672719,13.902489839243803,14.93131791431675,15.81288469867105,16.694451483027539,17.576018267386271,18.457585051747206,19.339151836110364,20.220718620475733,21.102285404843325,21.983852189213117,22.865418973585147,23.666481458262098,24.318033783678885,24.969586109097929,25.621138434519231,26.272690759942744,26.924243085368502,27.575795410796506,28.227347736226751,28.87890006165923,29.53045238709397,30.084285022430524,30.491535813466214,30.898786604504217,31.306037395544468,31.713288186587018,32.120538977631831,32.527789768678907,32.935040559728279,33.342291350779959,33.749542141833864,34.042721505910507,34.196477840970168,34.350234176032089,34.503990511096383,34.657746846162944,34.811503181231863,34.965259516303092,35.119015851376616,35.272772186452471,35.42652852153067,35.242591619491911,35.138265103781862,35.033938588074157,34.929612072368847,34.8252855566659,34.720959040965319,34.616632525267114,34.51230600957124,34.265681374047311,33.902628558623704,33.539575743202533,33.1765229277838,32.813470112367447,32.450417296953617,32.087364481542068,31.724311666133051,31.361258850726411,30.99820603532222,30.481428723694695,29.862165992875841,29.242903262059471,28.62364053124557,28.004377800434181,27.38511506962524,26.765852338818846,26.14658960801486,25.527326877213426,24.908064146414471,24.125404723605953,23.2547600905646,22.384115457525834,21.513470824489616,20.642826191455953,19.772181558424851,18.901536925396297,18.030892292370332,17.160247659346915,16.289603026326038,15.247392138826431,14.131649960709094,13.015907782594322,11.900165604482256,10.784423426372786,9.6686812482659743,8.5529390701617878,7.437196892060209,6.3214547139612929,5.2057125358649969,3.911303286504471,2.5573360950111277,1.2033689035204747,-0.15059828796749056,-1.5045654794527372,-2.8585326709353396,-4.2124998624151884,-5.5664670538923557,-6.9204342453668728,-8.2744014368386516,-9.8134672408066432,-11.3988098848675,-12.984152528925527,-14.569495172980664,-16.154837817032966,-17.740180461082357,-19.325523105128887,-20.91086574917259,-22.496208393213383,-24.081551037251369,-25.85863414001545,-27.669555926500582,-29.480477712982843,-31.29139949946239,-33.102321285939055,-34.913243072412975,-36.724164858884073,-38.535086645352379,-40.346008431817914,-42.156930218280607,-44.166493878978685,-46.198130945243577,-48.229768011505378,-50.261405077764117,-52.293042144019843,-54.324679210272464,-56.356316276522,-58.387953342768405,-60.419590409011867,-62.451227475252182,-64.689902023830186,-66.939475341944487,-69.189048660055633,-71.43862197816371,-73.688195296268631,-75.937768614370384,-78.187341932469124,-80.436915250564525,-82.686488568656983,-84.936061886746188,0.45954161965874857,0.45954161965874857,0.45954161965874857,0.45954161965874857,0.45954161965874857,0.45954161965874857,0.45954161965874857,0.45954161965874857,0.45954161965874857,0.45954161965874857,0.45954161965874857,0.45954161965874857
DP 541,67.487130208906649,0.0021137398258454423,-36.144888017037914,-35.358115588250726,-34.571343159462295,-33.78457073067279,-32.997798301882106,-32.211025873090264,-31.424253444297314,-30.637481015503191,-29.850708586707924,-29.063936157911524,-28.277964901991957,-27.507216082211421,-26.736467262429713,-25.965718442646871,-25.194969622862857,-24.42422080307772,-23.653471983291414,-22.882723163503965,-22.111974343715346,-21.341225523925587,-20.573807782894615,-19.8363700655613,-19.098932348226842,-18.361494630891222,-17.624056913554458,-16.886619196216561,-16.149181478877487,-15.411743761537281,-14.674306044195934,-13.936868326853423,-13.20682081664331,-12.518651612545705,-11.830482408446937,-11.142313204346976,-10.454144000245849,-9.7659747961435386,-9.077805592040038,-8.389636387935381,-7.7014671838295277,-7.0132979797225072,-6.3380115717916627,-5.7142569574204156,-5.0905023430479783,-4.46674772867436,-3.8429931142995608,-3.2192384999235775,-2.5954838855464071,-1.9717292711680521,-1.3479746567885191,-0.72422004240780113,-0.1200788774612907,0.42522119762284832,0.97052127270819322,1.5158213477947466,2.0611214228825059,2.6064214979714766,3.151721573061649,3.6970216481530316,4.2423217232456105,4.7876217983394076,5.3055465988006807,5.7595946803075808,6.2136427618157191,6.6676908433250768,7.1217389248356771,7.5757870063475012,8.0298350878605564,8.4838831693748471,8.9379312508903723,9.3919793324071268,9.8100937207023211,10.161473136868992,10.512852553036899,10.864231969206079,11.215611385376519,11.566990801548219,11.918370217721172,12.269749633895382,12.621129050070854,12.972508466247588,13.278831946981411,13.517570459861826,13.756308972743554,13.995047485626559,14.233785998510848,14.472524511396418,14.711263024283292,14.950001537171469,15.188740050060924,15.427478562951665,15.611695835765001,15.729274892166156,15.84685394856862,15.964433004972422,16.082012061377537,16.199591117783982,16.317170174191759,16.434749230600872,16.5523282870113,16.669907343423056,16.702005084935596,16.691328127803832,16.680651170673439,16.669974213544435,16.659297256416782,16.648620299290496,16.637943342165574,16.627266385042013,16.542878554651566,16.398180561177863,16.253482567705575,16.1087845742347,15.964086580765214,15.81938858729715,15.674690593830494,15.529992600365247,15.385294606901416,15.240596613438983,15.012759453461141,14.729494872734652,14.44623029200962,14.162965711286034,13.879701130563904,13.596436549843245,13.313171969124031,13.029907388406265,12.746642807689977,12.463378226975124,12.087785498731666,11.662476271513833,11.237167044297527,10.811857817082716,10.386548589869404,9.9612393626575919,9.5359301354472823,9.11062090823849,8.6853116810311768,8.260002453825388,7.7334696081325323,7.163553503121272,6.593637398111551,6.02372129310342,5.4538051880968226,4.8838890830918071,4.3139729780883513,3.7440568730864432,3.1741407680861156,2.604224663087344,1.9244723320136994,1.2081065413340324,0.49174075065596839,-0.22462504002049094,-0.94099083069533118,-1.6573566213685904,-2.3737224120402112,-3.090088202710235,-3.8064539933786765,-4.5228197840454829,-5.3572902059008412,-6.221288180977945,-7.0852861560533569,-7.9492841311270377,-8.813282106199,-9.6772800812692257,-10.541278056337744,-11.405276031404531,-12.269274006469594,-13.133271981532969,-14.123535180569679,-15.136081882041967,-16.148628583512544,-17.161175284981471,-18.173721986448676,-19.186268687914225,-20.1988153893781,-21.211362090840279,-22.223908792300783,-23.236455493759614,-24.383002283368342,-25.544439378976946,-26.705876474583718,-27.867313570188614,-29.028750665791673,-30.190187761392821,-31.351624856992171,-32.513061952589595,-33.674499048185176,-34.835936143778916,-36.139160968887516,-37.449849716806838,-38.760538464724341,-40.071227212639883,-41.381915960553513,-42.692604708465261,-44.003293456375083,-45.313982204282965,-46.624670952188922,-47.935359700092938,0.27306941959140274,0.27306941959140274,0.27306941959140274,0.27306941959140274,0.27306941959140274,0.27306941959140274,0.27306941959140274,0.27306941959140274,0.27306941959140274,0.27306941959140274,0.27306941959140274,0.27306941959140274
DP 542,145.99969117944,0.0040590696400088846,-123.06855818553662,-119.99037339405804,-116.91218860257638,-113.83400381109146,-110.75581901960349,-107.67763422811237,-104.59944943661797,-101.52126464512043,-98.443079853619892,-95.364895062116048,-92.291117732198572,-89.301083005681051,-86.311048279160545,-83.321013552636856,-80.330978826110012,-77.340944099580071,-74.350909373046946,-71.36087464651078,-68.370839919971374,-65.380805193428927,-62.408768886048627,-59.598720052395109,-56.788671218738479,-53.978622385078864,-51.168573551416145,-48.358524717750427,-45.548475884081675,-42.738427050409804,-39.928378216734984,-37.118329383057088,-34.347196055977363,-31.796586385209579,-29.245976714438754,-26.695367043664742,-24.144757372887664,-21.594147702107467,-19.043538031324179,-16.492928360537761,-13.942318689748257,-11.391709018955655,-8.9065558288758542,-6.6832316551827651,-4.459907481486626,-2.2365833077874133,-0.013259134085161597,2.2100650396201704,4.4333892133285495,6.6567133870400008,8.8800375607544915,11.103361734472053,13.231436523249991,15.073759555955537,16.916082588664139,18.758405621375832,20.600728654090595,22.443051686808442,24.285374719529354,26.127697752253358,27.970020784980392,29.81234381771057,31.528804337565159,32.951580703745883,34.374357069929722,35.797133436116631,37.21990980230666,38.642686168499758,40.065462534695975,41.488238900895254,42.911015267097653,44.333791633303115,45.601606133314938,46.581630125471335,47.561654117630852,48.541678109793416,49.521702101959121,50.501726094127996,51.4817500862999,52.461774078474953,53.441798070653164,54.4218220628345,55.221227716952043,55.749701595894166,56.278175474839536,56.806649353788018,57.335123232739654,57.863597111694439,58.392070990652329,58.92054486961343,59.449018748577672,59.977492627545075,60.304536328536784,60.385383358784786,60.466230389036035,60.5470774192905,60.627924449548118,60.708771479808917,60.78961851007292,60.87046554034012,60.951312570610476,61.032159600884079,60.191655943420507,59.839284255424,59.486912567430757,59.134540879440777,58.782169191454045,58.429797503470553,58.077425815490358,57.725054127513388,57.146695689685686,56.383435118236328,55.620174546790324,54.856913975347624,54.093653403908206,53.3303928324721,52.567132261039276,51.803871689609849,51.040611118183662,50.277350546760808,49.284127356859358,48.1375921319073,46.991056906958612,45.844521682013273,44.697986457071366,43.5514512321328,42.404916007197642,41.258380782265853,40.111845557337446,38.965310332412393,37.589379141996559,36.089923711266877,34.590468280540691,33.091012849817915,31.591557419098621,30.092101988382776,28.592646557670413,27.093191126961536,25.593735696256054,24.094280265554083,22.369337433056376,20.547753336677797,18.7261692403027,16.904585143931254,15.083001047563279,13.261416951198905,11.439832854838079,9.6182487584807532,7.7966646621270312,5.975080565776838,3.9337827717508786,1.8192443094846538,-0.29529415277795812,-2.409832615036954,-4.5243710772922867,-6.6389095395440734,-8.7534480017921386,-10.867986464036621,-12.98252492627752,-15.097063388514742,-17.425087768938198,-19.806486151277003,-22.187884533612053,-24.569282915943241,-26.950681298270602,-29.332079680594095,-31.713478062913808,-34.094876445229652,-36.47627482754168,-38.857673209849906,-41.447846358747789,-44.074864435118926,-46.701882511486232,-49.328900587849908,-51.955918664209719,-54.582936740565856,-57.209954816918192,-59.8369728932668,-62.4639909696117,-65.091009045952873,-67.924465153677616,-70.780860988529383,-73.6372568233773,-76.493652658220924,-79.35004849306064,-82.206444327896136,-85.062840162727639,-87.9192359975549,-90.7756318323783,-93.632027667197519,-96.697189978053274,-99.773342075315469,-102.84949417257366,-105.92564626982754,-109.00179836707728,-112.07795046432295,-115.15410256156436,-118.23025465880147,-121.30640675603462,-124.38255885326336,0.61645272358667846,0.61645272358667846,0.61645272358667846,0.61645272358667846,0.61645272358667846,0.61645272358667846,0.61645272358667846,0.61645272358667846,0.61645272358667846,0.61645272358667846,0.61645272358667846,0.61645272358667846
DP 543,125.85197411272617,0.0039802645844705083,-107.28792498387837,-104.673262812506,-102.0586006411306,-99.443938469752325,-96.829276298371056,-94.21461412698676,-91.599951955599551,-88.985289784209371,-86.370627612816122,-83.755965441420045,-81.144778596073351,-78.599623602712626,-76.054468609348959,-73.509313615982308,-70.964158622612686,-68.4190036292401,-65.8738486358645,-63.328693642486016,-60.783538649104479,-58.238383655719943,-55.707479521578826,-53.304834467667838,-50.902189413753831,-48.499544359837,-46.096899305917248,-43.694254251994614,-41.291609198069089,-38.888964144140637,-36.4863190902093,-34.083674036275092,-31.712026537723688,-29.516033806317328,-27.320041074908033,-25.12404834349578,-22.928055612080559,-20.732062880662387,-18.536070149241258,-16.340077417817159,-14.144084686390118,-11.94809195496012,-9.8046798548398613,-7.8715927649705506,-5.938505675098332,-4.0054185852231861,-2.0723314953451339,-0.13924440546414488,1.7938426844197541,3.7269297743065843,5.6600168641963196,7.5931039540889742,9.4488623469487969,11.072631725013231,12.696401103080619,14.320170481150942,15.943939859224209,17.567709237300424,19.191478615379566,20.815247993461657,22.439017371546687,24.062786749634657,25.58305304060314,26.861808051931234,28.140563063262267,29.419318074596262,30.698073085933189,31.976828097273113,33.25558310861598,34.534338119961859,35.813093131310609,37.091848142662386,38.241229289294942,39.150341193272126,40.05945309725228,40.968565001235419,41.877676905221556,42.786788809210663,43.695900713202796,44.605012617197886,45.514124521195967,46.423236425197047,47.178928332492042,47.704486619355094,48.230044906221188,48.755603193090266,49.281161479962357,49.806719766837574,50.33227805371574,50.857836340596947,51.3833946274812,51.908952914368477,52.260053811022615,52.39792534406461,52.535796877109675,52.673668410157816,52.811539943209063,52.949411476263428,53.087283009320707,53.225154542381112,53.363026075444637,53.500897608511281,52.956000242055929,52.710466264071471,52.464932286090082,52.21939830811187,51.973864330136784,51.728330352164768,51.482796374195971,51.237262396230228,50.78692295270401,50.169011881263657,49.551100809826437,48.933189738392436,48.315278666961575,47.6973675955339,47.07945652410951,46.461545452688284,45.843634381270192,45.225723309855383,44.393960391117744,43.419626205235488,42.445292019356543,41.470957833480817,40.4966236476084,39.522289461739184,38.547955275873278,37.573621090010647,36.599286904151235,35.624952718295127,34.43131203698789,33.119580053645095,31.80784807030572,30.496116086969671,29.18438410363694,27.872652120307603,26.560920136981608,25.24918815365897,23.937456170339658,22.625724187023724,21.092051287923397,19.463257107379096,17.834462926838164,16.205668746300763,14.57687456576674,12.948080385236221,11.319286204709105,9.6904920241854118,8.0616978436651863,6.4329036631483936,4.5813020749166578,2.6554285427753173,0.72955501063747674,-1.1963185214968539,-3.122192053627638,-5.0480655857549763,-6.9739391178787153,-8.899812649998962,-10.825686182115767,-12.751559714228973,-14.900367419613644,-17.104911302317792,-19.309455185018251,-21.513999067714977,-23.718542950407997,-25.923086833097248,-28.127630715782754,-30.332174598464583,-32.536718481142678,-34.741262363817079,-37.16974683564839,-39.637752725228843,-42.1057586148056,-44.5737645043788,-47.041770393948269,-49.509776283514157,-51.977782173076349,-54.445788062634989,-56.913793952189934,-59.381799841741248,-62.076192624483575,-64.795741884064256,-67.515291143640965,-70.234840403213681,-72.95438966278256,-75.67393892234729,-78.393488181908182,-81.113037441465011,-83.8325867010179,-86.552135960566758,-89.503970061917954,-92.468031992398892,-95.432093922875779,-98.396155853348475,-101.36021778381728,-104.3242797142821,-107.28834164474269,-110.2524035751992,-113.2164655056518,-116.18052743610014,0.59863199618588347,0.59863199618588347,0.59863199618588347,0.59863199618588347,0.59863199618588347,0.59863199618588347,0.59863199618588347,0.59863199618588347,0.59863199618588347,0.59863199618588347,0.59863199618588347,0.59863199618588347
DP 544,290.82301530938372,0.0057909313056902509,-292.13457107135241,-283.86363176293065,-275.59269245450463,-267.32175314607377,-259.05081383763826,-250.77987452919845,-242.50893522075384,-234.23799591230488,-225.96705660385118,-217.69611729539304,-209.44269107058432,-201.52201674595329,-193.6013424213175,-185.68066809667727,-177.7599937720326,-169.83931944738364,-161.9186451227298,-153.99797079807169,-146.07729647340904,-138.15662214874189,-130.30564340599625,-123.08193148832913,-115.85821957065768,-108.63450765298178,-101.41079573530168,-94.187083817617065,-86.96337189992812,-79.739659982234812,-72.5159480645372,-65.292236146835236,-58.213264564772224,-51.954497338757378,-45.695730112738111,-39.436962886714419,-33.178195660686335,-26.919428434653796,-20.660661208616833,-14.401893982575416,-8.14312675652959,-1.884359530479353,4.1441632984002457,9.25169765704782,14.359232015699691,19.466766374355931,24.574300733016486,29.681835091681393,34.789369450350648,39.896903809024259,45.004438167702183,50.111972526384449,54.90711484267009,58.765069220646282,62.623023598626837,66.4809779766117,70.338932354600928,74.1968867325945,78.05484111059242,81.912795488594682,85.770749866601264,89.628704244612265,93.107047282511445,95.699615576209908,98.29218386991262,100.88475216361978,103.47732045733123,106.06988875104706,108.66245704476722,111.25502533849176,113.84759363222066,116.4401619259539,118.60841699918161,119.9886503466906,121.368883694204,122.74911704172176,124.12935038924387,125.50958373677035,126.88981708430111,128.2700504318363,129.6502837793758,131.0305171269197,131.96718092138849,132.23847990452944,132.50977888767497,132.78107787082479,133.05237685397896,133.32367583713773,133.59497482030065,133.86627380346798,134.13757278663985,134.4088717698161,134.24157634263773,133.53821186800525,132.83484739337715,132.13148291875345,131.42811844413427,130.72475396951947,130.02138949490919,129.31802502030328,128.61466054570178,127.9112960711047,123.73326021912736,122.20271720955539,120.67217419998794,119.14163119042495,117.61108818086657,116.08054517131269,114.5500021617631,113.0194591522182,111.11460845073256,108.90349956855002,106.69239068637202,104.48128180419856,102.27017292202964,100.05906403986533,97.847955157705584,95.636846275550411,93.425737393399757,91.214628511253622,88.676681678298621,85.920837729273771,83.164993780253667,80.409149831238167,77.653305882227286,74.897461933221038,72.141617984219508,69.385774035222482,66.629930086230161,63.8740861372424,60.841598296540141,57.660144337412937,54.478690378290494,51.297236419172783,48.115782460059734,44.934328500951452,41.752874541847788,38.571420582748935,35.389966623654679,32.208512664565177,28.798982349699141,25.291701175545782,21.784420001397113,18.277138827253424,14.769857653114462,11.262576478980426,7.7552953048512068,4.2480141307267205,0.74073295660716532,-2.7665482175075891,-6.4581316885031566,-10.211151581188785,-13.964171473869509,-17.71719136654534,-21.470211259216168,-25.223231151882231,-28.976251044543208,-32.72927093719931,-36.482290829850605,-40.235310722496862,-44.135469106579571,-48.072413851983214,-52.009358597381834,-55.946303342775138,-59.883248088163306,-63.820192833546272,-67.757137578924116,-71.694082324296787,-75.631027069664242,-79.567971815026581,-83.6231521394794,-87.699198880918445,-91.7752456223522,-95.851292363781212,-99.9273391052049,-104.00338584662362,-108.07943258803728,-112.15547932944592,-116.23152607084947,-120.30757281224804,-124.48108012797604,-128.66541741996934,-132.84975471195719,-137.03409200393938,-141.21842929591642,-145.4027665878877,-149.58710387985371,-153.77144117181405,-157.95577846376906,-162.14011575571851,-166.41088786636959,-170.68621003799265,-174.96153220961011,-179.2368543812218,-183.51217655282818,-187.78749872442904,-192.06282089602408,-196.33814306761352,-200.61346523919764,-204.88878741077585,0.82987907286282,0.82987907286282,0.82987907286282,0.82987907286282,0.82987907286282,0.82987907286282,0.82987907286282,0.82987907286282,0.82987907286282,0.82987907286282,0.82987907286282,0.82987907286282
DP 545,136.31818321406382,0.0017688991432076113,-50.791440847912291,-49.53615501321552,-48.280869178517406,-47.025583343817964,-45.770297509117164,-44.515011674414978,-43.259725839711493,-42.004440005006586,-40.749154170300429,-39.49386833559285,-38.240318572735085,-37.019754503242652,-35.799190433748883,-34.578626364253765,-33.35806229475731,-32.137498225259534,-30.916934155760387,-29.696370086259897,-28.475806016758039,-27.255241947254884,-26.041781080065537,-24.89224970511864,-23.742718330170419,-22.593186955220908,-21.443655580270068,-20.29412420531791,-19.14459283036447,-17.995061455409704,-16.845530080453631,-15.695998705496249,-14.561869190862772,-13.515017855278138,-12.468166519692165,-11.421315184104849,-10.374463848516212,-9.3276125129262191,-8.2807611773348917,-7.2339098417422276,-6.1870585061482322,-5.1402071705529089,-4.1193663651925876,-3.2025689100550263,-2.2857714549161514,-1.3689739997759502,-0.45217654463444179,0.4646209105083956,1.3814183656525467,2.2982158207980197,3.215013275944806,4.1318107310929122,5.0105684735193465,5.7752056395492124,6.53984280558041,7.3044799716129312,8.0691171376467725,8.833754303681955,9.598391469718468,10.36302863575629,11.127665801795439,11.89230296783593,12.606366844234905,13.202424386360796,13.798481928488007,14.394539470616573,14.990597012746473,15.586654554877704,16.18271209701027,16.778769639144166,17.374827181279386,17.970884723415963,18.504229756007138,18.921107005818683,19.33798425563155,19.754861505445774,20.17173875526132,20.588616005078229,21.005493254896489,21.4223705047161,21.839247754537038,22.25612500435933,22.599306544065627,22.831942777140302,23.064579010216349,23.297215243293774,23.52985147637256,23.762487709452682,23.995123942534171,24.227760175617057,24.460396408701278,24.693032641786857,24.842723030081444,24.891033421372608,24.939343812665182,24.98765420395911,25.035964595254459,25.084274986551133,25.13258537784921,25.180895769148716,25.229206160449547,25.277516551751756,24.97188693979977,24.839972676062086,24.708058412325769,24.5761441485909,24.444229884857414,24.312315621125368,24.180401357394675,24.048487093665408,23.821498411751726,23.516719935583488,23.211941459416703,22.907162983251336,22.602384507087407,22.297606030924925,21.992827554763846,21.688049078604216,21.383270602446007,21.078492126289238,20.6757780690291,20.207772081531985,19.739766094036295,19.271760106542061,18.803754119049323,18.335748131558034,17.867742144068217,17.399736156579841,16.931730169092962,16.463724181607521,15.896732457597775,15.27643928218753,14.656146106778785,14.035852931371563,13.415559755965825,12.795266580561595,12.174973405158857,11.554680229757635,10.934387054357897,10.314093878959667,9.5951406894155937,8.8339029713984836,8.07266525338288,7.3114275353688614,6.5501898173563529,5.7889520993454031,5.0277143813359935,4.2664766633280982,3.5052389453217674,2.7440012273169705,1.8852432711926994,0.99397733999731841,0.10271140880350495,-0.78855452238873924,-1.6798204535793941,-2.5710863847685053,-3.4623523159560077,-4.3536182471419504,-5.244884178326342,-6.1361501095091366,-7.1235243659559284,-8.1349268392533443,-9.14632931254912,-10.15773178584322,-11.169134259135667,-12.180536732426416,-13.191939205715533,-14.203341679002955,-15.214744152288718,-16.226146625572852,-17.332772565461092,-18.456203705413039,-19.579634845363326,-20.703065985312026,-21.82649712525906,-22.949928265204516,-24.073359405148295,-25.196790545090487,-26.320221685031008,-27.443652824969963,-28.662270081177258,-29.891464572203517,-31.120659063228075,-32.3498535542508,-33.579048045271776,-34.808242536290933,-36.037437027308364,-37.26663151832394,-38.495826009337847,-39.725020500349935,-41.051166472225439,-42.382416118247875,-43.713665764268519,-45.044915410287366,-46.3761650563044,-47.707414702319667,-49.0386643483331,-50.369913994344614,-51.701163640354416,-53.032413286362335,0.26774336995430065,0.26774336995430065,0.26774336995430065,0.26774336995430065,0.26774336995430065,0.26774336995430065,0.26774336995430065,0.26774336995430065,0.26774336995430065,0.26774336995430065,0.26774336995430065,0.26774336995430065
DP 546,206.79466833535162,0.0013104172115719615,-52.039639891700119,-50.656507410223107,-49.273374928744985,-47.890242447265869,-46.507109965785688,-45.123977484304476,-43.740845002822169,-42.357712521338833,-40.974580039854452,-39.591447558369033,-38.2107016512588,-36.875301108465976,-35.539900565672092,-34.204500022877156,-32.8690994800812,-31.533698937284218,-30.198298394486166,-28.862897851687091,-27.527497308886932,-26.19209676608579,-24.866332528679749,-23.627295950678523,-22.388259372676284,-21.149222794673047,-19.910186216668787,-18.671149638663543,-17.432113060657262,-16.193076482649996,-14.954039904641709,-13.715003326632422,-12.496446952429244,-11.393946357015263,-10.291445761600258,-9.1889451661842116,-8.0864445707671511,-6.9839439753490629,-5.8814433799299382,-4.7789427845097876,-3.6764421890886156,-2.5739415936664209,-1.5050749076490713,-0.57074544881991951,0.36358401001023594,1.2979134688414045,2.2322429276735747,3.1665723865067585,4.1009018453409478,5.0352313041761567,5.9695607630123613,6.9038902218495783,7.790727595195718,8.535086916456569,9.2794462377184335,10.023805558981302,10.768164880245189,11.512524201510077,12.25688352277599,13.001242844042908,13.745602165310853,14.489961486579771,15.173799075976589,15.716416907418703,16.2590347388618,16.801652570305926,17.344270401751061,17.886888233197219,18.429506064644382,18.972123896092572,19.514741727541761,20.057359558991983,20.528533651722611,20.867024585982122,21.205515520242688,21.544006454504249,21.882497388766847,22.220988323030454,22.559479257295074,22.897970191560734,23.236461125827397,23.574952060095079,23.8340540386803,23.9740707077509,24.114087376822564,24.254104045895222,24.394120714968931,24.53413738404366,24.674154053119405,24.814170722196202,24.954187391273997,25.094204060352844,25.150278331898882,25.103754576602611,25.057230821307357,25.010707066013154,24.964183310719989,24.917659555427864,24.871135800136756,24.824612044846717,24.7780882895577,24.731564534269722,24.166386660332954,23.94961993998831,23.732853219644745,23.516086499302222,23.299319778960747,23.082553058620331,22.865786338280991,22.649019617942656,22.348966190279906,21.980767661646425,21.612569133014027,21.24437060438267,20.87617207575239,20.507973547123207,20.139775018495065,19.771576489868014,19.403377961242025,19.03517943261712,18.58793627926088,18.087995464182264,17.588054649104745,17.0881138340283,16.588173018952958,16.088232203878693,15.588291388805546,15.088350573733468,14.588409758662486,14.088468943592591,13.515400022674655,12.902953365966336,12.29050670925916,11.678060052553072,11.065613395848114,10.453166739144262,9.8407200824415249,9.2282734257399213,8.6158267690394013,8.0033801123400163,7.324631033250359,6.6174655111702325,5.9102999890912242,5.203134467013383,4.49596894493666,3.7888034228610943,3.08163790078667,2.3744723787133677,1.6673068566412261,0.96014133457021889,0.19365917789512885,-0.59259593787216447,-1.3788510536382996,-2.1651061694032752,-2.9513612851670721,-3.7376164009297357,-4.5238715166912025,-5.3101266324515146,-6.0963817482106863,-6.8826368639686741,-7.7216840888894129,-8.5739299648474585,-9.42617584080431,-10.278421716759926,-11.130667592714321,-11.982913468667466,-12.835159344619417,-13.687405220570117,-14.5396510965196,-15.391896972467881,-16.29157411333534,-17.199622004865819,-18.107669896395095,-19.015717787923194,-19.923765679450057,-20.831813570975768,-21.739861462500233,-22.647909354023533,-23.555957245545613,-24.464005137066504,-25.415592908752867,-26.372018902172712,-27.328444895591311,-28.284870889008538,-29.241296882424532,-30.197722875839176,-31.154148869252552,-32.110574862664578,-33.067000856075374,-34.023426849484785,-35.021688843260421,-36.02215314804284,-37.022617452823951,-38.023081757603741,-39.023546062382174,-40.024010367159335,-41.024474671935131,-42.024938976709585,-43.025403281482724,-44.025867586254506,0.1969569793006378,0.1969569793006378,0.1969569793006378,0.1969569793006378,0.1969569793006378,0.1969569793006378,0.1969569793006378,0.1969569793006378,0.1969569793006378,0.1969569793006378,0.1969569793006378,0.1969569793006378
DP 547,186.19591279097094,0.0019086710787432999,-70.009692884819827,-68.183000515997932,-66.356308147174559,-64.529615778349651,-62.702923409523251,-60.876231040695266,-59.049538671865818,-57.222846303034885,-55.396153934202367,-53.569461565368371,-51.74574249608947,-49.978516680470918,-48.211290864850831,-46.44406504922928,-44.676839233606216,-42.9096134179816,-41.142387602355527,-39.3751617867279,-37.607935971098783,-35.840710155468138,-34.085535158248675,-32.438818665806281,-30.792102173362469,-29.145385680917155,-27.498669188470373,-25.851952696022106,-24.205236203572404,-22.558519711121221,-20.911803218668581,-19.265086726214456,-17.644128339804222,-16.16913417745026,-14.694140015094804,-13.219145852737858,-11.744151690379422,-10.269157528019475,-8.7941633656580436,-7.3191692032951128,-5.8441750409306943,-4.3691808785647828,-2.9368268382442837,-1.6750353013165282,-0.4132437643873112,0.84854777254337932,2.1103393094755276,3.3721308464091551,4.6339223833442444,5.895713920280806,7.1575054572188357,8.4192969941583176,9.6202743062546254,10.638806644516716,11.657338982780272,12.67587132104533,13.694403659311837,14.712935997579834,15.731468335849287,16.750000674120233,17.768533012392631,18.787065350666534,19.727162867083784,20.48424271009381,21.241322553105316,21.99840239611833,22.755482239132807,23.512562082148722,24.269641925166184,25.026721768185062,25.783801611205455,26.540881454227318,27.204078213518976,27.69291813903358,28.18175806454969,28.6705979900673,29.15943791558637,29.648277841106946,30.137117766629011,30.625957692152532,31.114797617677578,31.603637543204105,31.986506105493614,32.210415118784383,32.434324132076647,32.658233145370396,32.882142158665637,33.106051171962385,33.329960185260653,33.553869198560406,33.777778211861659,34.00168722516441,34.111581253536528,34.082121238801022,34.052661224067045,34.023201209334545,33.993741194603615,33.964281179874156,33.934821165146239,33.905361150419822,33.875901135694932,33.846441120971576,33.168860909892928,32.903720382875527,32.638579855859696,32.373439328845386,32.108298801832611,31.843158274821366,31.578017747811675,31.312877220803536,30.930022133221637,30.450853109434181,29.971684085648285,29.492515061863966,29.013346038081192,28.534177014299981,28.055007990520352,27.575838966742289,27.096669942965772,26.617500919190842,26.024078604600707,25.354485629570114,24.684892654541144,24.015299679513774,23.345706704487981,22.67611372946379,22.006520754441208,21.3369277794202,20.667334804400813,19.997741829382988,19.219856471250875,18.383658255142532,17.547460039035833,16.711261822930769,15.875063606827315,15.038865390725507,14.202667174625319,13.366468958526784,12.530270742429863,11.694072526334562,10.757096017941782,9.7769271118280638,8.79675820571598,7.81658929960562,6.8364203934969039,5.8562514873898763,4.8760825812845123,3.8959136751807963,2.9157447690787848,1.935575862978433,0.86270202720302569,-0.24107462014201633,-1.3448512674853605,-2.448627914827004,-3.5524045621669229,-4.6561812095051751,-5.7599578568416785,-6.86373450417649,-7.9675111515096368,-9.0712877988410359,-10.260011344934055,-11.46997261937787,-12.67993389381993,-13.889895168260166,-15.099856442698622,-16.30981771713526,-17.51977899157011,-18.729740266003169,-19.939701540434402,-21.149662814863884,-22.438175397488262,-23.740550849177648,-25.042926300865222,-26.345301752551116,-27.647677204235197,-28.950052655917542,-30.252428107598103,-31.554803559276934,-32.857179010953978,-34.159554462629309,-35.535936847973915,-36.92054300319478,-38.305149158413755,-39.689755313630812,-41.074361468845964,-42.4589676240592,-43.843573779270564,-45.228179934479932,-46.612786089687489,-47.997392244893035,-49.454422937100929,-50.915266167639913,-52.376109398176979,-53.836952628712091,-55.297795859245234,-56.758639089776466,-58.219482320305715,-59.680325550832968,-61.141168781358374,-62.602012011881648,0.28907650909062055,0.28907650909062055,0.28907650909062055,0.28907650909062055,0.28907650909062055,0.28907650909062055,0.28907650909062055,0.28907650909062055,0.28907650909062055,0.28907650909062055,0.28907650909062055,0.28907650909062055
DP 548,298.041204628766,0.00350779821300334,-179.79614604066134,-174.68121315566574,-169.56628027066733,-164.45134738566637,-159.33641450066264,-154.22148161565616,-149.10654873064681,-143.99161584563475,-138.87668296062,-133.76175007560255,-128.6578189721418,-123.76292379813906,-118.8680286241337,-113.97313345012554,-109.07823827611472,-104.18334310210118,-99.2884479280848,-94.393552754065922,-89.498657580044153,-84.603762406019726,-79.752596384241244,-75.29499686605395,-70.837397347863984,-66.379797829671475,-61.922198311476222,-57.464598793278434,-53.006999275077959,-48.549399756874863,-44.091800238669137,-39.634200720460775,-35.26723645854932,-31.413877693668049,-27.560518928784106,-23.707160163897477,-19.853801399008205,-16.000442634116212,-12.14708386922157,-8.29372510432424,-4.4403663394242665,-0.58700757452161645,3.1225636371985379,6.2569778406647929,9.3913920441336476,12.525806247605139,15.660220451079224,18.79463465455596,21.929048858035319,25.063463061517307,28.197877265001857,31.332291468489078,34.27227604142044,36.628964371563725,38.985652701709625,41.342341031858169,43.699029362009291,46.0557176921631,48.4124060223195,50.769094352478511,53.125782682640185,55.48247101280446,57.603839934777511,59.17612096982208,60.748402004869313,62.32068303991916,63.89296407497158,65.4652451100267,67.037526145084414,68.609807180144742,70.182088215207642,71.754369250273285,73.064821885857029,73.889014708569292,74.713207531284155,75.537400354001633,76.3615931767217,77.185785999444562,78.009978822169913,78.834171644898,79.658364467628658,80.482557290362,81.0344303463029,81.177817317037025,81.321204287773782,81.464591258513252,81.607978229255323,81.751365200000066,81.894752170747452,82.0381391414975,82.181526112250182,82.324913083005526,82.200525797804318,81.748853241896327,81.297180685990909,80.845508130088149,80.393835574188174,79.942163018290842,79.4904904623962,79.038817906504121,78.587145350614819,78.135472794728173,75.525435794080323,74.571754555999973,73.618073317922367,72.6643920798475,71.710710841775352,70.757029603705874,69.803348365639138,68.849667127575046,67.670259383718047,66.306162437668064,64.942065491620809,63.5779685455763,62.213871599534556,60.849774653495537,59.485677707459246,58.121580761425733,56.75748381539497,55.393386869366928,53.833510232028573,52.143110716254725,50.45271120048367,48.762311684715392,47.07191216894995,45.381512653187222,43.691113137427365,42.000713621670243,40.310314105916,38.61991459016447,36.76497263737555,34.821428518062476,32.877884398752265,30.934340279444886,28.99079616014032,27.047252040838643,25.10370792153978,23.160163802243815,21.216619682950661,19.273075563660349,17.194889835178717,15.058998287303845,12.923106739431825,10.787215191562794,8.6513236436966121,6.5154320958334075,4.3795405479730976,2.2436490001156537,0.10775745226118223,-2.0281340955903961,-4.271961054257436,-6.5517678434874478,-8.8315746327145082,-11.111381421938606,-13.391188211159696,-15.670995000377895,-17.950801789593033,-20.230608578805249,-22.510415368014545,-24.790222157220803,-27.155463946657328,-29.542065495577756,-31.928667044495189,-34.315268593409435,-36.701870142320573,-39.08847169122852,-41.475073240133447,-43.861674789035156,-46.248276337933824,-48.634877886829379,-51.089518312807918,-53.556166356048465,-56.022814399285821,-58.489462442520349,-60.956110485751637,-63.422758528980033,-65.889406572205232,-68.356054615427468,-70.822702658646563,-73.289350701862688,-75.811574221582944,-78.339973377919321,-80.868372534252345,-83.396771690582071,-85.925170846908586,-88.453570003231633,-90.981969159551454,-93.510368315867936,-96.0387674721812,-98.567166628491208,-101.14450661084314,-103.72442291308383,-106.30433921532114,-108.88425551755496,-111.46417181978549,-114.04408812201281,-116.62400442423672,-119.20392072645701,-121.78383702867427,-124.3637533308878,0.50037767517658249,0.50037767517658249,0.50037767517658249,0.50037767517658249,0.50037767517658249,0.50037767517658249,0.50037767517658249,0.50037767517658249,0.50037767517658249,0.50037767517658249,0.50037767517658249,0.50037767517658249
DP 549,200.70130312723907,0.0029120516346761035,-113.0812556523066,-110.09160334820113,-107.10195104409337,-104.11229873998313,-101.12264643587082,-98.132994131756021,-95.143341827638892,-92.153689523519475,-89.164037219397713,-86.17438491527362,-83.189804964309744,-80.301600682332236,-77.413396400352411,-74.5251921183703,-71.636987836385842,-68.748783554399168,-65.86057927241005,-62.972374990418764,-60.084170708425091,-57.195966426429145,-54.32826669848734,-51.645109895177882,-48.961953091866128,-46.278796288552286,-43.59563948523612,-40.91248268191773,-38.229325878597074,-35.54616907527415,-32.863012271949039,-30.179855468621689,-27.540348644545009,-25.148194453481228,-22.756040262415162,-20.363886071346808,-17.971731880276181,-15.579577689203273,-13.187423498128068,-10.79526930705058,-8.4031151159708291,-6.0109609248887956,-3.6906620951765374,-1.6577881068926799,0.3750858813934097,2.4079598696817519,4.4408338579723168,6.4737078462651434,8.5065818345602,10.539455822857509,12.572329811157051,14.605203799458822,16.536319097429054,18.16215447704479,19.787989856662779,21.413825236283035,23.039660615905511,24.665495995530282,26.291331375157256,27.917166754786511,29.543002134417971,31.168837514051717,32.6645358050089,33.85657576373854,35.048615722470394,36.240655681204537,37.4326956399409,38.624735598679528,39.816775557420435,41.008815516163594,42.200855474908963,43.392895433656648,44.430686331197307,45.18201052082275,45.933334710450481,46.684658900080429,47.435983089712742,48.187307279347181,48.938631468984056,49.689955658623049,50.441279848264365,51.192604037907962,51.771735928514168,52.092575301595524,52.413414674679061,52.734254047764978,53.055093420853154,53.375932793943619,53.696772167036386,54.017611540131362,54.338450913228712,54.659290286328343,54.797131379676124,54.711304065045148,54.625476750416539,54.53964943579026,54.453822121166219,54.367994806544523,54.282167491925158,54.19634017730808,54.1105128626933,54.024685548080875,52.8341835218616,52.375147468782167,51.916111415705089,51.45707536263032,50.998039309557974,50.539003256487945,50.079967203420182,49.620931150354842,48.978206948903505,48.1851892874151,47.392171625929031,46.599153964445378,45.8061363029641,45.013118641485242,44.220100980008731,43.427083318534592,42.634065657062841,41.841047995593492,40.8725552746487,39.787076416362112,38.701597558077928,37.616118699796196,36.530639841516852,35.44516098323998,34.359682124965516,33.274203266693455,32.18872440842388,31.103245550156668,29.8542800609777,28.517280931618323,27.180281802261433,25.843282672906998,24.506283543555089,23.169284414205659,21.832285284858667,20.495286155514208,19.158287026172193,17.8212878968327,16.334933488021179,14.78456715277583,13.234200817532979,11.683834482292722,10.133468147054966,8.5831018118197875,7.0327354765871357,5.4823691413569948,3.9320028061294305,2.3816364709043976,0.696563804188352,-1.0334126707058338,-2.7633891455974418,-4.4933656204864594,-6.2233420953728658,-7.9533185702567373,-9.68329504513795,-11.413271520016588,-13.143247994892693,-14.873224469766152,-16.724116813224438,-18.605239552467978,-20.486362291708861,-22.367485030946956,-24.248607770182378,-26.129730509414998,-28.010853248644935,-29.891975987872108,-31.773098727096567,-33.654221466318361,-35.644908006626373,-37.654930553725571,-39.664953100822004,-41.674975647915872,-43.684998195006976,-45.695020742095494,-47.70504328918129,-49.715065836264408,-51.72508838334489,-53.7351109304227,-55.846490649126764,-57.969133340277,-60.091776031424359,-62.214418722568759,-64.337061413710387,-66.459704104849,-68.582346795984861,-70.704989487117615,-72.8276321782476,-74.950274869374667,-77.170845112735449,-79.396570412131084,-81.622295711523847,-83.84802101091347,-86.073746310300251,-88.299471609684076,-90.52519690906496,-92.750922208442731,-94.976647507817745,-97.2023728071896,0.43880071976107848,0.43880071976107848,0.43880071976107848,0.43880071976107848,0.43880071976107848,0.43880071976107848,0.43880071976107848,0.43880071976107848,0.43880071976107848,0.43880071976107848,0.43880071976107848,0.43880071976107848
DP 550,66.883221220844035,0.0015202819131577092,-25.84364233382329,-25.282038860383224,-24.720435386942345,-24.158831913500663,-23.597228440058149,-23.035624966614815,-22.474021493170689,-21.91241801972571,-21.350814546279931,-20.789211072833336,-20.228177708967554,-19.677976534928273,-19.127775360888169,-18.577574186847258,-18.02737301280553,-17.47717183876296,-16.926970664719583,-16.376769490675375,-15.826568316630349,-15.276367142584506,-14.72853753140728,-14.202052210218689,-13.675566889029286,-13.149081567839051,-12.622596246647996,-12.096110925456125,-11.569625604263424,-11.043140283069905,-10.516654961875563,-9.990169640680401,-9.4689456262617515,-8.9775360151190959,-8.48612640397561,-7.9947167928312695,-7.5033071816860977,-7.011897570540075,-6.5204879593932139,-6.0290783482455073,-5.5376687370969684,-5.0462591259475831,-4.564024791632491,-4.1184919982880928,-3.6729592049428472,-3.227426411596757,-2.7818936182498235,-2.3363608249020382,-1.8908280315534098,-1.4452952382039332,-0.99976244485361387,-0.55422965150244752,-0.12267034820732424,0.266967956599655,0.65660626140749712,1.0462445662162017,1.4358828710257709,1.8255211758362009,2.2151594806474968,2.6047977854596529,2.9944360902726697,3.3840743950865564,3.7542002495778974,4.0787962848402151,4.4033923201034169,4.7279883553675,5.0525843906324583,5.3771804258983051,5.7017764611650268,6.0263724964326366,6.35096853170112,6.6755645669704844,6.9745349918835977,7.2259143055141353,7.4772936191455646,7.7286729327779051,7.980052246411141,8.23143156004527,8.4828108736803127,8.7341901873162548,8.9855695009530887,9.23694881459083,9.45617882738795,9.6271841292238,9.7981894310605817,9.96919473289829,10.140200034736909,10.311205336576467,10.482210638416937,10.653215940258335,10.824221242100654,10.9952265439439,11.127305352266349,11.211806517532169,11.29630768279894,11.380808848066653,11.46531001333531,11.549811178604941,11.634312343875507,11.718813509147015,11.803314674419489,11.887815839692911,11.912237758037433,11.90510611909845,11.897974480160457,11.890842841223426,11.883711202287383,11.876579563352319,11.869447924418221,11.862316285485106,11.802486520427454,11.69953920106752,11.596591881708592,11.49364456235068,11.39069724299377,11.287749923637868,11.18480260428298,11.081855284929096,10.978907965576223,10.875960646224355,10.713533122202884,10.511451191376315,10.309369260550785,10.107287329726294,9.9052053989028419,9.7031234680804381,9.50104153725909,9.2989596064387676,9.0968776756194938,8.89479574480126,8.6266139371417889,8.3228389268984,8.0190639166561049,7.7152889064148589,7.4115138961747009,7.10773888593562,6.8039638756976135,6.5001888654606912,6.1964138552248311,5.89263884499006,5.516348257984343,5.1089783426686495,4.7016084273540617,4.2942385120406117,3.8868685967282666,3.4794986814170508,3.0721287661069518,2.6647588507979667,2.2573889354901087,1.8500190201833673,1.3639151357846615,0.85156560275081949,0.33921606971812507,-0.17313346331341845,-0.685482996343802,-1.1978325293730525,-1.71018206240113,-2.2225315954280602,-2.7348811284538574,-3.2472306614784805,-3.8442859677940517,-4.4625187182442669,-5.080751468693256,-5.6989842191410078,-6.3172169695875349,-6.9354497200328069,-7.5536824704768692,-8.1719152209196722,-8.7901479713612574,-9.4083807218016222,-10.117212119541321,-10.842032521333156,-11.566852923123756,-12.291673324913202,-13.016493726701404,-13.741314128488417,-14.466134530274207,-15.190954932058805,-15.9157753338422,-16.640595735624395,-17.461597805890857,-18.293287738345203,-19.12497767079822,-19.956667603249908,-20.788357535700275,-21.620047468149277,-22.451737400596976,-23.283427333043292,-24.115117265488323,-24.946807197931982,-25.880288309964424,-26.819127865282979,-27.757967420600135,-28.696806975915926,-29.63564653123035,-30.574486086543438,-31.513325641855129,-32.452165197165428,-33.39100475247438,-34.329844307781919,0.19568793084798475,0.19568793084798475,0.19568793084798475,0.19568793084798475,0.19568793084798475,0.19568793084798475,0.19568793084798475,0.19568793084798475,0.19568793084798475,0.19568793084798475,0.19568793084798475,0.19568793084798475
DP 551,142.64073347340684,0.0017596871561442813,-52.3769136076167,-51.0721616546853,-49.767409701752491,-48.462657748818373,-47.157905795882876,-45.853153842946028,-44.548401890007838,-43.243649937068277,-41.938897984127372,-40.634146031185089,-39.331240352929278,-38.063414242768459,-36.795588132606305,-35.527762022442744,-34.259935912277918,-32.9921098021117,-31.724283691944105,-30.456457581775208,-29.188631471604943,-27.920805361433327,-26.66052342817499,-25.468139800235662,-24.275756172295054,-23.083372544353107,-21.890988916409849,-20.6986052884653,-19.506221660519422,-18.313838032572214,-17.121454404623709,-15.929070776673873,-14.753015008889992,-13.669484810944471,-12.5859546129976,-11.502424415049409,-10.418894217099869,-9.3353640191489831,-8.2518338211967581,-7.168303623243192,-6.0847734252882848,-5.0012432273320453,-3.9452146886218977,-2.9991940866507916,-2.05317348467837,-1.10715288270462,-0.16113228072955713,0.78488832124683694,1.7309089232245474,2.6769295252035827,3.6229501271839344,4.5689707291656108,5.4749027226861884,6.260567375126012,7.0462320275671635,7.8318966800096446,8.6175613324534588,9.4032259848986,10.188890637345073,10.974555289792873,11.760219942242003,12.545884594692454,13.278465086025681,13.88718044408761,14.495895802150864,15.104611160215443,15.713326518281374,16.322041876348635,16.930757234417225,17.539472592487169,18.148187950558448,18.756903308631063,19.30009994729,19.721617194771834,20.143134442255032,20.564651689739588,20.986168937225461,21.4076861847127,21.829203432201286,22.250720679691213,22.672237927182511,23.093755174675131,23.438690733529793,23.668751949773185,23.898813166017938,24.128874382264048,24.358935598511522,24.588996814760364,24.819058031010567,25.049119247262137,25.279180463515051,25.509241679769374,25.653628140793515,25.69329921251293,25.732970284233748,25.77264135595594,25.812312427679505,25.851983499404461,25.891654571130804,25.931325642858535,25.970996714587606,26.010667786318123,25.667401351616689,25.522160213832155,25.376919076049067,25.231677938267342,25.086436800487022,24.941195662708154,24.795954524930654,24.650713387154561,24.408641502775772,24.087342797980114,23.766044093185879,23.444745388393063,23.123446683601685,22.802147978811771,22.480849274023239,22.159550569236167,21.838251864450537,21.516953159666322,21.09670544275286,20.610490158953315,20.12427487515524,19.638059591358633,19.151844307563479,18.665629023769782,18.179413739977544,17.693198456186781,17.206983172397496,16.720767888609636,16.135400094412379,15.496641045066664,14.857881995722478,14.219122946379768,13.580363897038566,12.941604847698855,12.302845798360631,11.664086749023935,11.025327699688708,10.386568650354974,9.6498782299738117,8.8712155690317935,8.0925529080912941,7.3138902471523677,6.5352275862149476,5.7565649252790863,4.9779022643447615,4.1992396034119537,3.4205769424807024,2.6419142815509806,1.7673538386597869,0.86082625986437533,-0.045701318929473524,-0.9522288977217559,-1.8587564765124531,-2.7652840553016151,-3.6718116340891642,-4.57833921287516,-5.4848667916596154,-6.3913943704424563,-7.391562039744354,-8.4151408380480177,-9.43871963635006,-10.462298434650421,-11.485877232949136,-12.509456031246168,-13.533034829541549,-14.556613627835274,-15.580192426127322,-16.603771224417727,-17.719342406464115,-18.85114856155321,-19.982954716640624,-21.114760871726514,-22.246567026810688,-23.378373181893288,-24.510179336974232,-25.6419854920536,-26.773791647131311,-27.9055978022074,-29.128714228436422,-30.3619771993216,-31.595240170205027,-32.828503141086635,-34.061766111966534,-35.295029082844621,-36.528292053720961,-37.761555024595481,-38.9948179954683,-40.228080966339348,-41.55391740358845,-42.884627049609975,-44.215336695629752,-45.546046341647674,-46.8767559876638,-48.207465633678133,-49.538175279690662,-50.868884925701344,-52.199594571710222,-53.530304217717244,0.26699762530587823,0.26699762530587823,0.26699762530587823,0.26699762530587823,0.26699762530587823,0.26699762530587823,0.26699762530587823,0.26699762530587823,0.26699762530587823,0.26699762530587823,0.26699762530587823,0.26699762530587823
DP 552,249.89880849909366,0.0039711784957903945,-180.82818876910721,-175.85422893032867,-170.88026909154712,-165.90630925276224,-160.93234941397429,-155.95838957518319,-150.98442973638893,-146.01046989759149,-141.0365100587909,-136.06255021998697,-131.09817674087506,-126.31594590821442,-121.53371507555063,-116.75148424288383,-111.96925341021381,-107.18702257754065,-102.40479174486445,-97.62256091218498,-92.840330079502465,-88.0580992468168,-83.314285675551687,-78.916231088362935,-74.518176501171226,-70.120121913976547,-65.722067326778756,-61.324012739577988,-56.925958152374136,-52.527903565167222,-48.12984897795733,-43.73179439074439,-39.414421461975977,-35.554249681855296,-31.69407790173149,-27.833906121604624,-23.973734341474664,-20.113562561341617,-16.253390781205486,-12.393219001066253,-8.53304722092396,-4.672875440778582,-0.94304609156628771,2.2654073738158491,5.4738608392009969,8.68231430458918,11.89076776998037,15.099221235374619,18.30767470077188,21.516128166172166,24.724581631575475,27.9330350969818,30.961196945828348,33.448477128412868,35.93575731100038,38.423037493590947,40.910317676184505,43.397597858781182,45.884878041380816,48.372158223983519,50.859438406589206,53.346718589198012,55.609827880219882,57.349862928797236,59.089897977377632,60.829933025961004,62.569968074547518,64.310003123137008,66.050038171729568,67.790073220325141,69.530108268923826,71.270143317525452,72.752941499434584,73.758007124794617,74.76307275015769,75.768138375523776,76.773204000892889,77.7782696262651,78.783335251640381,79.788400877018731,80.793466502400065,81.798532127784554,82.526695556258346,82.839499146063375,83.152302735871544,83.465106325682783,83.777909915496991,84.09071350531444,84.403517095134845,84.716320684958333,85.029124274784877,85.341927864614547,85.37202013566008,85.056570412126447,84.741120688596027,84.425670965068576,84.1102212415443,83.794771518023111,83.479321794505069,83.163872070990038,82.848422347478191,82.532972623969385,80.2067804317828,79.339392456224715,78.47200448066981,77.604616505118,76.737228529569265,75.869840554023867,75.002452578481467,74.13506460294218,73.00851972851234,71.6699329375573,70.3313461466053,68.992759355656574,67.654172564711,66.315585773768575,64.976998982829457,63.638412191893408,62.299825400960607,60.961238610031018,59.387302998153125,57.656464464726248,55.9256259313026,54.1947873978821,52.463948864464946,50.733110331050987,49.00227179764034,47.271433264232819,45.540594730828666,43.809756197427667,41.871238501715382,39.82089054474,37.770542587768034,35.7201946307993,33.669846673833895,31.619498716871821,29.569150759913018,27.518802802957552,25.468454846005379,23.418106889056503,21.188780627123567,18.882746356391252,16.576712085662209,14.270677814936684,11.964643544214466,9.6586092734956939,7.3525750027803092,5.0465407320682409,2.7405064613596393,0.4344721906544034,-2.0232049542317103,-4.5314316349739485,-7.0396583157127495,-9.5478849964481,-12.05611167717996,-14.56433835790844,-17.072565038633368,-19.58079171935487,-22.089018400073023,-24.597245080787609,-27.232850075255111,-29.900301153154007,-32.56775223104939,-35.235203308941074,-37.902654386829155,-40.570105464713535,-43.237556542594319,-45.905007620471444,-48.572458698344938,-51.239909776214851,-54.015272825488978,-56.809680363829209,-59.604087902165908,-62.398495440499104,-65.19290297882867,-67.987310517154739,-70.781718055477143,-73.576125593796135,-76.370533132111362,-79.164940670423263,-82.053072345518956,-84.951618797912445,-87.850165250302211,-90.748711702688,-93.647258155070034,-96.545804607448218,-99.444351059822523,-102.34289751219291,-105.24144396455949,-108.13999041692227,-111.12503030101372,-114.11462333155802,-117.10421636209828,-120.09380939263465,-123.08340242316721,-126.07299545369578,-129.06258848422044,-132.05218151474102,-135.04177454525768,-138.03136757577067,0.5836078323551086,0.5836078323551086,0.5836078323551086,0.5836078323551086,0.5836078323551086,0.5836078323551086,0.5836078323551086,0.5836078323551086,0.5836078323551086,0.5836078323551086,0.5836078323551086,0.5836078323551086
DP 553,184.39665310366624,0.001545116735661407,-56.253475792648459,-54.788199011165908,-53.32292222968217,-51.857645448197246,-50.392368666711079,-48.927091885223611,-47.461815103735013,-45.996538322245172,-44.531261540754038,-43.065984759261724,-41.603080423253736,-40.185252999968512,-38.767425576682044,-37.3495981533944,-35.931770730105534,-34.513943306815406,-33.096115883524106,-31.678288460231556,-30.26046103693778,-28.842633613642796,-27.43442477928771,-26.112784154567489,-24.7911435298461,-23.469502905123488,-22.14786228039971,-20.826221655674743,-19.504581030948593,-18.18294040622126,-16.861299781492736,-15.539659156763031,-14.238588270614466,-13.054080532623024,-11.869572794630386,-10.685065056636539,-9.5005573186414924,-8.3160495806452257,-7.1315418426477484,-5.947034104649064,-4.7625263666491762,-3.5780186286480782,-2.4275860656364912,-1.4134558130068808,-0.3993255603760873,0.6148046922558984,1.6289349448890635,2.6430651975234252,3.6571954501589707,4.6713257027957127,5.6854559554336319,6.6995862080727386,7.6650747126962253,8.4846361341932734,9.3041975556915144,10.123758977190949,10.943320398691572,11.762881820193396,12.582443241696401,13.402004663200609,14.221566084705996,15.041127506212584,15.797887853905136,16.408109889342544,17.018331924781162,17.628553960220966,18.238775995661964,18.848998031104173,19.459220066547584,20.06944210199218,20.679664137437967,21.289886172884952,21.824844774995007,22.220026396903414,22.615208018813039,23.010389640723876,23.40557126263591,23.800752884549137,24.19593450646358,24.591116128379234,24.986297750296082,25.381479372214109,25.691589155561655,25.874089170773747,26.056589185987068,26.239089201201594,26.421589216417342,26.6040892316343,26.786589246852483,26.969089262071858,27.151589277292462,27.334089292514268,27.424918607383972,27.403704029634312,27.382489451885828,27.361274874138591,27.340060296392572,27.318845718647783,27.297631140904233,27.2764165631619,27.255201985420808,27.2339874076809,26.6958085816093,26.484779607903359,26.273750634198645,26.062721660495168,25.85169268679299,25.640663713092028,25.429634739392331,25.218605765693866,24.912594844711165,24.528869789072271,24.145144733434673,23.76141967779834,23.377694622163258,22.993969566529469,22.610244510896916,22.226519455265652,21.842794399635654,21.459069344006931,20.982969693068725,20.445285523361449,19.907601353655458,19.369917183950747,18.832233014247365,18.294548844545247,17.756864674844412,17.219180505144891,16.681496335446671,16.143812165749718,15.518382242100371,14.845703328807515,14.17302441551597,13.500345502225748,12.827666588936841,12.154987675649279,11.482308762363003,10.809629849078082,10.136950935794451,9.464272022512155,8.7097445411972014,7.9201377206440124,7.1305309000921415,6.3409240795416659,5.5513172589925146,4.76171043844474,3.9721036178983096,3.1824967973532186,2.3928899768095007,1.6032831562671312,0.73819690869220489,-0.15205009914808565,-1.0422971069870002,-1.932544114824539,-2.8227911226606808,-3.7130381304954723,-4.6032851383288476,-5.4935321461608515,-6.3837791539915063,-7.2740261618207445,-8.2336148608999764,-9.2105398020742442,-10.18746474324707,-11.164389684418422,-12.141314625588345,-13.118239566756788,-14.095164507923787,-15.072089449089308,-16.049014390253397,-17.025939331416058,-18.067147531824773,-19.119700551644893,-20.172253571463589,-21.224806591280881,-22.277359611096706,-23.329912630911156,-24.38246565072415,-25.43501867053574,-26.487571690345884,-27.540124710154622,-28.653378056571352,-29.773376521218033,-30.893374985863186,-32.013373450506784,-33.133371915148878,-34.253370379789345,-35.373368844428349,-36.493367309065725,-37.613365773701652,-38.733364238335952,-39.912857752456318,-41.09548317692186,-42.27810860138576,-43.460734025848112,-44.643359450308914,-45.825984874768139,-47.008610299225751,-48.191235723681757,-49.373861148136243,-50.556486572589,0.23413652526375681,0.23413652526375681,0.23413652526375681,0.23413652526375681,0.23413652526375681,0.23413652526375681,0.23413652526375681,0.23413652526375681,0.23413652526375681,0.23413652526375681,0.23413652526375681,0.23413652526375681
