# 
# 07/03/2024 19:14:05
# The parameters defined in the project are:
# ,P213 - Specific Heat [J kg^-1 C^-1],P214 - Temperature Magnitude [C],P1 - Normal Stress Average [MPa],P2 - Normal Stress 2 Average [MPa],P3 - Normal Stress 3 Average [MPa],P4 - Normal Stress 4 Average [MPa],P5 - Normal Stress 5 Average [MPa],P6 - Normal Stress 6 Average [MPa],P7 - Normal Stress 7 Average [MPa],P8 - Normal Stress 8 Average [MPa],P9 - Normal Stress 9 Average [MPa],P10 - Normal Stress 10 Average [MPa],P11 - Normal Stress 11 Average [MPa],P12 - Normal Stress 12 Average [MPa],P13 - Normal Stress 13 Average [MPa],P14 - Normal Stress 14 Average [MPa],P15 - Normal Stress 15 Average [MPa],P16 - Normal Stress 16 Average [MPa],P17 - Normal Stress 17 Average [MPa],P18 - Normal Stress 18 Average [MPa],P19 - Normal Stress 19 Average [MPa],P20 - Normal Stress 20 Average [MPa],P21 - Normal Stress 21 Average [MPa],P22 - Normal Stress 22 Average [MPa],P23 - Normal Stress 23 Average [MPa],P24 - Normal Stress 24 Average [MPa],P25 - Normal Stress 25 Average [MPa],P26 - Normal Stress 26 Average [MPa],P27 - Normal Stress 27 Average [MPa],P28 - Normal Stress 28 Average [MPa],P29 - Normal Stress 29 Average [MPa],P30 - Normal Stress 30 Average [MPa],P31 - Normal Stress 31 Average [MPa],P32 - Normal Stress 32 Average [MPa],P33 - Normal Stress 33 Average [MPa],P34 - Normal Stress 34 Average [MPa],P35 - Normal Stress 35 Average [MPa],P36 - Normal Stress 36 Average [MPa],P37 - Normal Stress 37 Average [MPa],P38 - Normal Stress 38 Average [MPa],P39 - Normal Stress 39 Average [MPa],P40 - Normal Stress 40 Average [MPa],P41 - Normal Stress 41 Average [MPa],P42 - Normal Stress 42 Average [MPa],P43 - Normal Stress 43 Average [MPa],P44 - Normal Stress 44 Average [MPa],P45 - Normal Stress 45 Average [MPa],P46 - Normal Stress 46 Average [MPa],P47 - Normal Stress 47 Average [MPa],P48 - Normal Stress 48 Average [MPa],P49 - Normal Stress 49 Average [MPa],P50 - Normal Stress 50 Average [MPa],P51 - Normal Stress 51 Average [MPa],P52 - Normal Stress 52 Average [MPa],P53 - Normal Stress 53 Average [MPa],P54 - Normal Stress 54 Average [MPa],P55 - Normal Stress 55 Average [MPa],P56 - Normal Stress 56 Average [MPa],P57 - Normal Stress 57 Average [MPa],P58 - Normal Stress 58 Average [MPa],P59 - Normal Stress 59 Average [MPa],P60 - Normal Stress 60 Average [MPa],P61 - Normal Stress 61 Average [MPa],P62 - Normal Stress 62 Average [MPa],P63 - Normal Stress 63 Average [MPa],P64 - Normal Stress 64 Average [MPa],P65 - Normal Stress 65 Average [MPa],P66 - Normal Stress 66 Average [MPa],P67 - Normal Stress 67 Average [MPa],P68 - Normal Stress 68 Average [MPa],P69 - Normal Stress 69 Average [MPa],P70 - Normal Stress 70 Average [MPa],P71 - Normal Stress 71 Average [MPa],P72 - Normal Stress 72 Average [MPa],P73 - Normal Stress 73 Average [MPa],P74 - Normal Stress 74 Average [MPa],P75 - Normal Stress 75 Average [MPa],P76 - Normal Stress 76 Average [MPa],P77 - Normal Stress 77 Average [MPa],P78 - Normal Stress 78 Average [MPa],P79 - Normal Stress 79 Average [MPa],P80 - Normal Stress 80 Average [MPa],P81 - Normal Stress 81 Average [MPa],P82 - Normal Stress 82 Average [MPa],P83 - Normal Stress 83 Average [MPa],P84 - Normal Stress 84 Average [MPa],P85 - Normal Stress 85 Average [MPa],P86 - Normal Stress 86 Average [MPa],P87 - Normal Stress 87 Average [MPa],P88 - Normal Stress 88 Average [MPa],P89 - Normal Stress 89 Average [MPa],P90 - Normal Stress 90 Average [MPa],P91 - Normal Stress 91 Average [MPa],P92 - Normal Stress 92 Average [MPa],P93 - Normal Stress 93 Average [MPa],P94 - Normal Stress 94 Average [MPa],P95 - Normal Stress 95 Average [MPa],P96 - Normal Stress 96 Average [MPa],P97 - Normal Stress 97 Average [MPa],P98 - Normal Stress 98 Average [MPa],P99 - Normal Stress 99 Average [MPa],P100 - Normal Stress 100 Average [MPa],P103 - Normal Stress 103 Average [MPa],P104 - Normal Stress 104 Average [MPa],P105 - Normal Stress 105 Average [MPa],P106 - Normal Stress 106 Average [MPa],P107 - Normal Stress 107 Average [MPa],P108 - Normal Stress 108 Average [MPa],P109 - Normal Stress 109 Average [MPa],P110 - Normal Stress 110 Average [MPa],P111 - Normal Stress 111 Average [MPa],P112 - Normal Stress 112 Average [MPa],P113 - Normal Stress 113 Average [MPa],P114 - Normal Stress 114 Average [MPa],P115 - Normal Stress 115 Average [MPa],P116 - Normal Stress 116 Average [MPa],P117 - Normal Stress 117 Average [MPa],P118 - Normal Stress 118 Average [MPa],P119 - Normal Stress 119 Average [MPa],P120 - Normal Stress 120 Average [MPa],P121 - Normal Stress 121 Average [MPa],P122 - Normal Stress 122 Average [MPa],P123 - Normal Stress 123 Average [MPa],P124 - Normal Stress 124 Average [MPa],P125 - Normal Stress 125 Average [MPa],P126 - Normal Stress 126 Average [MPa],P127 - Normal Stress 127 Average [MPa],P128 - Normal Stress 128 Average [MPa],P129 - Normal Stress 129 Average [MPa],P130 - Normal Stress 130 Average [MPa],P131 - Normal Stress 131 Average [MPa],P132 - Normal Stress 132 Average [MPa],P133 - Normal Stress 133 Average [MPa],P134 - Normal Stress 134 Average [MPa],P135 - Normal Stress 135 Average [MPa],P136 - Normal Stress 136 Average [MPa],P137 - Normal Stress 137 Average [MPa],P138 - Normal Stress 138 Average [MPa],P139 - Normal Stress 139 Average [MPa],P140 - Normal Stress 140 Average [MPa],P141 - Normal Stress 141 Average [MPa],P142 - Normal Stress 142 Average [MPa],P143 - Normal Stress 143 Average [MPa],P144 - Normal Stress 144 Average [MPa],P145 - Normal Stress 145 Average [MPa],P146 - Normal Stress 146 Average [MPa],P147 - Normal Stress 147 Average [MPa],P148 - Normal Stress 148 Average [MPa],P149 - Normal Stress 149 Average [MPa],P150 - Normal Stress 150 Average [MPa],P151 - Normal Stress 151 Average [MPa],P152 - Normal Stress 152 Average [MPa],P153 - Normal Stress 153 Average [MPa],P154 - Normal Stress 154 Average [MPa],P155 - Normal Stress 155 Average [MPa],P156 - Normal Stress 156 Average [MPa],P157 - Normal Stress 157 Average [MPa],P158 - Normal Stress 158 Average [MPa],P159 - Normal Stress 159 Average [MPa],P160 - Normal Stress 160 Average [MPa],P161 - Normal Stress 161 Average [MPa],P162 - Normal Stress 162 Average [MPa],P163 - Normal Stress 163 Average [MPa],P164 - Normal Stress 164 Average [MPa],P165 - Normal Stress 165 Average [MPa],P166 - Normal Stress 166 Average [MPa],P167 - Normal Stress 167 Average [MPa],P168 - Normal Stress 168 Average [MPa],P169 - Normal Stress 169 Average [MPa],P170 - Normal Stress 170 Average [MPa],P171 - Normal Stress 171 Average [MPa],P172 - Normal Stress 172 Average [MPa],P173 - Normal Stress 173 Average [MPa],P174 - Normal Stress 174 Average [MPa],P175 - Normal Stress 175 Average [MPa],P176 - Normal Stress 176 Average [MPa],P177 - Normal Stress 177 Average [MPa],P178 - Normal Stress 178 Average [MPa],P179 - Normal Stress 179 Average [MPa],P180 - Normal Stress 180 Average [MPa],P181 - Normal Stress 181 Average [MPa],P182 - Normal Stress 182 Average [MPa],P183 - Normal Stress 183 Average [MPa],P184 - Normal Stress 184 Average [MPa],P185 - Normal Stress 185 Average [MPa],P186 - Normal Stress 186 Average [MPa],P187 - Normal Stress 187 Average [MPa],P188 - Normal Stress 188 Average [MPa],P189 - Normal Stress 189 Average [MPa],P190 - Normal Stress 190 Average [MPa],P191 - Normal Stress 191 Average [MPa],P192 - Normal Stress 192 Average [MPa],P193 - Normal Stress 193 Average [MPa],P194 - Normal Stress 194 Average [MPa],P195 - Normal Stress 195 Average [MPa],P196 - Normal Stress 196 Average [MPa],P197 - Normal Stress 197 Average [MPa],P198 - Normal Stress 198 Average [MPa],P199 - Normal Stress 199 Average [MPa],P200 - Normal Stress 200 Average [MPa],P201 - Total Deformation Average [mm],P202 - Total Deformation 2 Average [mm],P203 - Total Deformation 3 Average [mm],P204 - Total Deformation 4 Average [mm],P205 - Total Deformation 5 Average [mm],P206 - Total Deformation 6 Average [mm],P207 - Total Deformation 7 Average [mm],P208 - Total Deformation 8 Average [mm],P209 - Total Deformation 9 Average [mm],P210 - Total Deformation 10 Average [mm],P211 - Total Deformation 11 Average [mm],P212 - Total Deformation 12 Average [mm]
# 
# The following header line defines the name of the columns by reference to the parameters.
Name,P213,P214,P1,P2,P3,P4,P5,P6,P7,P8,P9,P10,P11,P12,P13,P14,P15,P16,P17,P18,P19,P20,P21,P22,P23,P24,P25,P26,P27,P28,P29,P30,P31,P32,P33,P34,P35,P36,P37,P38,P39,P40,P41,P42,P43,P44,P45,P46,P47,P48,P49,P50,P51,P52,P53,P54,P55,P56,P57,P58,P59,P60,P61,P62,P63,P64,P65,P66,P67,P68,P69,P70,P71,P72,P73,P74,P75,P76,P77,P78,P79,P80,P81,P82,P83,P84,P85,P86,P87,P88,P89,P90,P91,P92,P93,P94,P95,P96,P97,P98,P99,P100,P103,P104,P105,P106,P107,P108,P109,P110,P111,P112,P113,P114,P115,P116,P117,P118,P119,P120,P121,P122,P123,P124,P125,P126,P127,P128,P129,P130,P131,P132,P133,P134,P135,P136,P137,P138,P139,P140,P141,P142,P143,P144,P145,P146,P147,P148,P149,P150,P151,P152,P153,P154,P155,P156,P157,P158,P159,P160,P161,P162,P163,P164,P165,P166,P167,P168,P169,P170,P171,P172,P173,P174,P175,P176,P177,P178,P179,P180,P181,P182,P183,P184,P185,P186,P187,P188,P189,P190,P191,P192,P193,P194,P195,P196,P197,P198,P199,P200,P201,P202,P203,P204,P205,P206,P207,P208,P209,P210,P211,P212
DP 53,52,0.0065,-260.35682037286449,-253.42669011924608,-246.49655986562428,-239.56642961199918,-232.63629935837051,-225.70764920447189,-218.83672349978005,-211.96579779508505,-205.09487209038667,-198.22394638568485,-191.35922376638655,-184.61236094246459,-177.86549811853956,-171.11863529461183,-164.371772470681,-157.63868099475812,-151.07543787988092,-144.51219476500052,-137.94895165011698,-131.38570853523041,-124.84652714298581,-118.52390352888744,-112.20127991478618,-105.87865630068211,-99.556032686575293,-93.270056657595973,-87.240616495704586,-81.211176333810386,-75.181736171913442,-69.152296010013728,-63.174022267958136,-57.485694795904593,-51.797367323848341,-46.109039851789433,-40.42071237972781,-34.799501282695438,-29.494699578763857,-24.189897874829651,-18.885096170892837,-13.580294466953443,-8.3595099939755819,-3.4747984155538019,1.409913162870537,6.2946247412974259,11.179336319726836,15.9627065749268,20.397008015042243,24.831309455160188,29.265610895280631,33.699912335403575,38.015617384534217,41.975528776736745,45.93544016894181,49.895351561149319,53.855262953359322,57.679871944337783,61.147769954271183,64.615667964207,68.083565974145259,71.5514639840859,74.868320066421,77.832740225455538,80.7971603844926,83.761580543532077,86.726000702573941,89.524996503877944,91.980413828002,94.435831152128429,96.891248476257473,99.346665800388962,101.62392043192473,103.57029668002744,105.51667292813256,107.4630491762404,109.40942542435057,111.16679727706264,112.60915704013445,114.05151680320897,115.49387656628599,116.93623632936556,118.18079384895134,119.1286433291738,120.07649280939877,121.02434228962636,121.97219176985647,122.71558380673943,123.1823524024941,123.64912099825145,124.11588959401145,124.58265818977414,124.84047560591139,124.84290385799575,124.84533211008304,124.84776036217293,124.8501886142656,124.64129065414168,124.19881741213864,123.75634417013838,123.31387092814101,122.87139768614654,120.48558642772498,119.61975577244341,118.7539251171647,117.6779500966616,116.41184067656013,115.14573125646152,113.87962183636614,112.61351241627381,111.14048961726381,109.4981704977437,107.8558513782268,106.21353225871327,104.57121313920277,102.72670979058458,100.73276260120478,98.738815411828355,96.7448682224553,94.750921033085646,92.56078607279953,90.2398561745898,87.91892627638363,85.597996378180952,83.277066479981912,80.766979036920219,78.143394206242,75.519809375567419,72.896224544896739,70.272639714229669,67.467712808247043,64.565137532380575,61.662562256518306,58.759986980659953,55.857411704805628,52.78186186048994,49.623025542511165,46.464189224536646,43.305352906566227,40.146516588599987,36.823386469862008,33.4298425037638,30.036298537669886,26.64275457158038,23.249210605495158,19.7001434251368,16.09208265313011,12.484021881127919,8.8759611091304453,5.2679003371374336,1.5129639359772853,-2.2909328592809506,-6.0948296545342151,-9.8987264497827514,-13.70262324502637,-17.645071903983485,-21.627746987378874,-25.610422070769211,-29.593097154154414,-33.5757722375345,-37.689185527663277,-41.835284914164305,-45.981384300660132,-50.127483687150423,-54.273583073635429,-58.543295412318585,-62.839230096497296,-67.135164780670252,-71.431099464837629,-75.72703414899928,-80.140276123319666,-84.574220688605649,-89.008165253885551,-93.442109819159541,-97.87605438442742,-102.42212883291621,-106.98422304741823,-111.5463172619142,-116.10841147640369,-120.6705056908871,-125.34030323439794,-130.022068945598,-134.70383465679143,-139.3856003679777,-144.06736607915727,-148.85454094124015,-153.65026356835105,-158.44598619545513,-163.24170882255291,-168.03743144964423,-172.93647254112315,-177.84095247448562,-182.7454324078405,-187.64991234118781,-192.55439227452729,-197.56266890817258,-202.5736080019181,-207.58454709565541,-212.59548618938507,-217.60642528310649,0.49621652342602807,0.49621652342602807,0.49621652342602807,0.49621652342602807,0.49621652342602807,0.49621652342602807,0.49621652342602807,0.49621652342602807,0.49621652342602807,0.49621652342602807,0.49621652342602807,0.49621652342602807
DP 54,72.878626229432271,0.00511350359010082,-259.25153272007822,-251.89579506194752,-244.54005740381345,-237.1843197456767,-229.82858208753692,-222.47478969245213,-215.19686329209154,-207.91893689172792,-200.6410104913617,-193.36308409099266,-186.093239502841,-178.97695087467585,-171.86066224650858,-164.74437361833859,-157.62808499016612,-150.52962474859478,-143.65105018867877,-136.7724756287603,-129.89390106883923,-123.01532650891542,-116.16761337826023,-109.59765602810231,-103.02769867794201,-96.457741327779289,-89.887783977614248,-83.364335174673343,-77.166449719148858,-70.968564263622142,-64.770678808093081,-58.57279335256171,-52.439008664452814,-46.668465697667557,-40.89792273088014,-35.127379764090463,-29.356836797298584,-23.669134987786077,-18.371974537023284,-13.07481408625835,-7.7776536354912507,-2.4804931847220164,2.7147200241199694,7.5021394471618681,12.28955887020587,17.07697829325198,21.864397716300164,26.531156206160563,30.782299746142666,35.03344328612684,39.284586826113021,43.535730366101312,47.64859587118233,51.346622043459128,55.0446482157379,58.742674388018671,62.440700560301572,65.984522999019632,69.121803021787571,72.259083044557485,75.396363067329347,78.533643090103325,81.502971849094237,84.080409034274922,86.657846219457582,89.235283404642217,91.812720589828913,94.210988919695353,96.237132108436157,98.263275297178993,100.28941848592383,102.31556167467065,104.15407411617427,105.64412438849101,107.13417466080968,108.62422493313038,110.11427520545314,111.4110790292966,112.38580056810855,113.36052210692245,114.33524364573837,115.30996518455632,116.08864794630408,116.5732679099952,117.05788787368859,117.54250783738379,118.02712780108126,118.31561258151832,118.33873363426942,118.36185468702293,118.3849757397784,118.4080967925359,118.23747878747169,117.83006453119583,117.42265027492212,117.01523601865058,116.60782176238129,116.01127947696051,115.20569718530099,114.40011489364369,113.5945326019886,112.78895031033571,109.45915020353765,108.28834592873569,107.11754165393576,105.77221656784413,104.26898855803165,102.76576054822149,101.26253253841385,99.75930452860834,98.090867729919552,96.28725726474191,94.483646799566671,92.680036334394018,90.876425869223851,88.917810674361945,86.84462421821253,84.7714377620657,82.69825130592146,80.625064849779818,78.407648761060656,76.094077311833615,73.780505862609232,71.466934413387591,69.153362964168636,66.706621996715157,64.179977304349535,61.653332611986748,59.1266879196269,56.600043227269744,53.951313016803986,51.236842675103077,48.52237233340513,45.807901991710139,43.093431650017983,40.267762139984896,37.388550732505671,34.509339325029593,31.630127917556642,28.750916510086832,25.771007008468104,22.747939821060289,19.724872633655668,16.701805446254411,13.678738258856338,10.564934440454062,7.4167120962905324,4.2684897521303817,1.1202674079737558,-2.0279549361795275,-5.2576130975692745,-8.5144175576888941,-11.771222017804782,-15.028026477917139,-18.284830938025813,-21.614526625315452,-24.965385170784689,-28.316243716250131,-31.667102261711825,-35.017960807169686,-38.433993142032222,-41.866319694279774,-45.298646246523454,-48.730972798763062,-52.16329935099867,-55.653966806873143,-59.157010274357994,-62.660053741838482,-66.163097209314827,-69.666140676786952,-73.22159471304046,-76.786298256005054,-80.351001798965115,-83.9157053419208,-87.48040888487192,-91.092640004637573,-94.711661291642073,-98.330682578641984,-101.9497038656372,-105.56872515262788,-109.23109555219247,-112.89828297508332,-116.56547039796902,-120.23265782084961,-123.89984524372515,-127.60782391674599,-131.31911040524795,-135.03039689374532,-138.74168338223748,-142.45296987072484,-146.20269052721281,-149.95443441704649,-153.70617830687473,-157.45792219669724,-161.20966608651398,-164.99929844950393,-168.78990267910871,-172.5805069087078,-176.37111113830116,-180.16171536788875,0.3705719551653312,0.3705719551653312,0.3705719551653312,0.3705719551653312,0.3705719551653312,0.3705719551653312,0.3705719551653312,0.3705719551653312,0.3705719551653312,0.3705719551653312,0.3705719551653312,0.3705719551653312
DP 55,151.79726800269759,0.0033769244088216804,-254.38935217118188,-245.85231317389142,-237.31527417659942,-228.77823517930545,-220.24119618200979,-211.70803371848848,-203.32605753791088,-194.94408135733144,-186.56210517675044,-178.1801289961675,-169.813957683882,-161.74808185707377,-153.6822060302639,-145.61633020345246,-137.55045437663938,-129.51867749239554,-121.90745853062079,-114.2962395688445,-106.68502060706648,-99.07380164528692,-91.519768749046392,-84.4804158479656,-77.441062946883292,-70.40171004579949,-63.362357144714345,-56.405904474898911,-50.029759692641967,-43.653614910383567,-37.277470128123753,-30.9013253458625,-24.634199878937949,-18.984857402015869,-13.335514925092417,-7.6861724481676026,-2.0368299712414109,3.4790770482486919,8.3659239898351085,13.252770931422861,18.139617873011932,23.026464814602324,27.758909899497809,31.873740260490177,35.988570621483859,40.103400982478831,44.218231343475061,48.162411672168673,51.518790276245355,54.875168880323272,58.231547484402434,61.587926088482824,64.762848885770126,67.393397402112242,70.023945918455652,72.654494434800142,75.285042951145982,77.728977285483026,79.680922362165219,81.632867438848621,83.5848125155333,85.5367575922191,87.3023222800718,88.632993521684583,89.963664763298411,91.2943360049136,92.625007246529947,93.7743181592875,94.54695234521995,95.3195865311535,96.092220717088253,96.864854903024181,97.465100948308859,97.745192934005473,98.025284919703537,98.30537690540271,98.5854688911031,98.705145965606192,98.557460811421223,98.409775657237375,98.262090503054665,98.114405348873234,97.820313920992547,97.306609622941679,96.792905324891919,96.279201026843452,95.7654967287962,95.120529679974169,94.297968931374214,93.475408182775411,92.652847434177815,91.83028668558147,90.891956756172334,89.812128729629435,88.732300703087844,87.652472676547518,86.572644650008456,85.3922509951775,84.10070385527159,82.809156715366939,81.517609575463538,80.226062435561474,75.920741613484864,74.4569223869728,72.993103160462141,71.456469051241541,69.85395349908498,68.251437946929684,66.648922394775781,65.046406842623256,63.383083797123206,61.670008121140874,59.956932445159921,58.243856769180354,56.530781093202208,54.7674995707993,52.967108553993832,51.166717537189889,49.366326520387389,47.565935503586282,45.724528014681809,43.855775564888596,41.987023115096918,40.118270665306682,38.249518215518066,36.347583979043506,34.425740168737583,32.503896358433217,30.582052548130463,28.660208737829237,26.711762700031098,24.748991999047384,22.78622129806531,20.823450597084875,18.860679896105996,16.876756867673052,14.882649089082998,12.888541310494698,10.8944335319081,8.90032575332327,6.8895218042377273,4.8715621280616048,2.853602451887244,0.8356427757147401,-1.1823169004560228,-3.2133725048807595,-5.2493957011028947,-7.2854188973231757,-9.32144209354151,-11.357465289758014,-13.403709544933914,-15.453360948575694,-17.503012352215432,-19.552663755853231,-21.602315159489027,-23.659917583676503,-25.719828465640528,-27.779739347602529,-29.839650229562423,-31.899561111520232,-33.9656511825582,-36.033286123872479,-38.100921065184572,-40.168556006494413,-42.236190947802207,-44.308640604205884,-46.382111618972615,-48.455582633736995,-50.529053648499136,-52.602524663258933,-54.679763853397453,-56.757668057562263,-58.83557226172455,-60.913476465884514,-62.991380670041963,-65.07231837566971,-67.153689471417238,-69.23506056716225,-71.316431662904819,-73.397802758644787,-75.481541617695115,-77.565543586422407,-79.649545555146844,-81.733547523868538,-83.817549492587418,-85.903731351658365,-87.990089980868532,-90.076448610075943,-92.162807239280767,-94.249165868483061,-96.337234512954907,-98.425393175241567,-100.51355183752517,-102.60171049980562,-104.6898691620831,-106.77973431024566,-108.86964323099704,-110.95955215174529,-113.0494610724904,-115.13936999323228,0.20121794467223214,0.20121794467223214,0.20121794467223214,0.20121794467223214,0.20121794467223214,0.20121794467223214,0.20121794467223214,0.20121794467223214,0.20121794467223214,0.20121794467223214,0.20121794467223214,0.20121794467223214
DP 56,105.97317662597993,0.0047411221624785007,-300.0797497137832,-290.85662462159559,-281.63349952940519,-272.41037443721217,-263.18724934501648,-253.96729791674471,-244.87112058152559,-235.77494324630402,-226.67876591107972,-217.58258857585298,-208.49947742456007,-199.66462623812427,-190.82977505168631,-181.99492386524571,-173.16007267880309,-164.35377493236305,-155.89963987785868,-147.44550482335171,-138.99136976884245,-130.53723471433062,-122.13185649605929,-114.16529441252372,-106.19873232898613,-98.232170245446184,-90.265608161904154,-82.371326470527222,-74.983012989940619,-67.594699509351827,-60.20638602876091,-52.818072548167947,-45.527413817433761,-38.790138156202723,-32.052862494969645,-25.315586833734546,-18.578311172497404,-11.964357577602687,-5.9317860992129479,0.1007853791787765,6.1333568575724691,12.165928335968118,18.050665955242287,23.3440611513124,28.637456347384443,33.9308515434584,39.22424673953423,44.347715651974106,48.885875782273651,53.424035912575015,57.962196042878318,62.500356173183462,66.849932583439113,70.633750703483912,74.417568823530587,78.201386943579081,81.985205063629465,85.565917313964562,88.611161654031278,91.656405994099885,94.701650334170324,97.746894674242512,100.57904373751869,102.91396377426688,105.24888381101688,107.58380384776872,109.91872388452239,112.03518923875374,113.69793466818153,115.36068009761136,117.02342552704272,118.68617095647605,120.12957389182047,121.16562055742796,122.20166722303725,123.2377138886483,124.27376055426112,125.09367354414805,125.55335829337193,126.01304304259776,126.47272779182514,126.93241254105443,127.18274593348708,127.1190473436934,127.05534875390144,126.99165016411138,126.92795157432305,126.6646400982909,126.13125968966173,125.59787928103441,125.06449887240896,124.5311184637853,123.81015305177623,122.8599131399089,121.90967322804322,120.95943331617941,120.00919340431757,118.88503060661992,117.56863378997025,116.25223697332252,114.93584015667676,113.61944334003287,108.87399740400939,107.23909779083303,105.6041981776586,103.82517665393765,101.91575652113922,100.00633638834283,98.0969162555486,96.187496122756272,94.149061486489686,92.005067312000435,89.861073137513273,87.717078963028186,85.573084788545387,83.31477319592409,80.971964241130081,78.629155286338388,76.286346331548913,73.94353737676164,71.5003991478826,68.990373155737643,66.480347163594956,63.970321171454721,61.460295179316766,58.862999784919424,56.21334142935968,53.563683073802324,50.914024718247447,48.264366362694886,45.5394300559142,42.773958373034162,40.008486690156822,37.243015007282018,34.477543324409673,31.647637533406066,28.786707010284108,25.925776487164907,23.064845964048352,20.2039154409345,17.28822221608462,14.349058522459734,11.409894828837617,8.4707311352183634,5.5315674416018252,2.5461554562178845,-0.45679958761916878,-3.4597546314533392,-6.4627096752844961,-9.4656647191128,-12.507464228704563,-15.562212383098215,-18.616960537488698,-21.67170869187613,-24.726456846260476,-27.813690466574876,-30.910355747390547,-34.007021028203063,-37.1036863090123,-40.200351589818261,-43.324109648914131,-46.454641222684607,-49.585172796451758,-52.715704370215448,-55.846235943975756,-58.999353988860236,-62.157263362149777,-65.315172735435652,-68.473082108717961,-71.630991481996688,-74.807767419076825,-77.9878729595647,-81.167978500048491,-84.348084040528732,-87.528189581005037,-90.724245840220419,-93.922580945844217,-97.12091605146415,-100.3192511570801,-103.51758626269202,-106.72938782055863,-109.94268579232346,-113.15598376408384,-116.36928173583989,-119.58257970759166,-122.80796168662118,-126.03432357350121,-129.26068546037683,-132.48704734724856,-135.71340923411623,-138.95035692440484,-142.18786186756168,-145.42536681071371,-148.66287175386097,-151.90037669700342,-155.14808654309755,-158.39605815229609,-161.64402976148983,-164.89200137067849,-168.13997297986219,0.31447956206362382,0.31447956206362382,0.31447956206362382,0.31447956206362382,0.31447956206362382,0.31447956206362382,0.31447956206362382,0.31447956206362382,0.31447956206362382,0.31447956206362382,0.31447956206362382,0.31447956206362382
DP 57,177.97556476869244,0.0016836042506323025,-135.51154439474328,-130.76682096472774,-126.02209753471146,-121.27737410469423,-116.53265067467623,-111.79037874268067,-107.14371616047769,-102.49705357827385,-97.850390996069223,-93.203728413863686,-88.56701290805394,-84.119293734200326,-79.67157456034596,-75.223855386490882,-70.776136212635,-66.349722142100717,-62.186073697588462,-58.022425253075411,-53.8587768085616,-49.695128364047022,-45.566851150164275,-41.756918355306262,-37.946985560447523,-34.137052765588109,-30.327119970727988,-26.56781796303428,-23.162935294054723,-19.75805262507448,-16.353169956093534,-12.948287287111919,-9.6089848940551974,-6.6413081970585042,-3.6736315000611546,-0.70595480306314207,2.261721893935531,5.1505271481317916,7.6675056262453225,10.184484104359491,12.70146258247431,15.218441060589756,17.645939754135632,19.715515080535877,21.785090406936728,23.854665733338212,25.924241059740297,27.897052585019487,29.536562508107117,31.176072431195362,32.815582354284217,34.45509227737368,35.994121122133365,37.231702932868473,38.469284743604192,39.706866554340493,40.944448365077385,42.081286394058644,42.952523717532195,43.823761041006364,44.694998364481094,45.566235687956407,46.339537299783984,46.884319165435045,47.429101031086667,47.973882896738857,48.518664762391573,48.970822784746431,49.230605515663747,49.490388246581546,49.750170977499984,50.009953708418955,50.184278215184918,50.199892283493014,50.215506351801558,50.2311204201108,50.24673448842055,50.185250873741886,49.995269177453189,49.805287481165131,49.615305784877606,49.425324088590649,49.167197620030372,48.806852382780143,48.446507145530447,48.086161908281326,47.725816671032824,47.306360560969672,46.806929602457132,46.3074986439452,45.808067685433748,45.308636726923027,44.758810809919112,44.147389996226337,43.535969182534181,42.924548368842622,42.313127555151617,41.659423668536256,40.958985017816573,40.258546367097487,39.558107716379013,38.857669065661085,36.581575729956249,35.811225993658667,35.040876257361688,34.242023369690031,33.417381403317727,32.592739436946019,31.768097470574997,30.943455504204568,30.095866072409379,29.2295010472632,28.363136022117686,27.496770996972813,26.630405971828615,25.745783356624575,24.84766570081505,23.949548045006285,23.051430389198156,22.153312733390759,21.240826684044492,20.318761479319878,19.396696274595964,18.474631069872775,17.552565865150324,16.619305667970412,15.679328306010287,14.739350944050903,13.799373582092292,12.859396220134398,11.910774971772844,10.957499197343562,10.004223422915079,9.0509476484873534,8.0976718740603726,7.1377751211527221,6.1746903970033946,5.2116056728548976,4.2485209487072124,3.2854362245603586,2.3173138806101039,1.3470324887216125,0.37675109683395558,-0.59353029505281985,-1.5638116869387717,-2.5379063662204642,-3.5134475145739188,-4.4889886629265,-5.4645298112781591,-6.4400709596289571,-7.418490056254937,-8.3978685052422737,-9.3772469542286334,-10.356625403214085,-11.336003852198575,-12.317553981209873,-13.299734624456562,-14.281915267702262,-15.264095910946978,-16.246276554190707,-17.230102170515007,-18.214339049544222,-19.198575928572424,-20.182812807599568,-21.167049686625695,-22.152544646133634,-23.138306485611462,-24.124068325088146,-25.109830164563768,-26.095592004038306,-27.08232723457283,-28.069234250823598,-29.056141267073155,-30.043048283321667,-31.029955299568933,-32.01765524472173,-33.005468473996892,-33.993281703270952,-34.981094932543776,-35.968908161815442,-36.957328772067207,-37.94581687547231,-38.934304978876135,-39.922793082278595,-40.911281185679762,-41.900381541988,-42.889531546679066,-43.878681551368835,-44.867831556057361,-45.856981560744636,-46.846587051754341,-47.83621652025883,-48.825845988761934,-49.81547545726356,-50.805104925763722,-51.795222091850107,-52.78535176772936,-53.775481443607084,-54.765611119483353,-55.755740795358108,0.095160995195708961,0.095160995195708961,0.095160995195708961,0.095160995195708961,0.095160995195708961,0.095160995195708961,0.095160995195708961,0.095160995195708961,0.095160995195708961,0.095160995195708961,0.095160995195708961,0.095160995195708961
DP 58,183.26484836863941,0.004277425211443895,-348.27720816326479,-335.98439994109685,-323.69159171892653,-311.39878349675394,-299.10597527457946,-286.81967437374703,-274.78716146566626,-262.75464855758327,-250.72213564949814,-238.68962274141109,-226.68348482639186,-215.17847676570298,-203.67346870501191,-192.16846064431894,-180.66345258362409,-169.21485741366871,-158.46202833914364,-147.70919926461659,-136.9563701900874,-126.2035411155566,-115.54417607010383,-105.72599612070486,-95.907816171304148,-86.08963622190177,-76.27145627249746,-66.586724210068112,-57.836137447393732,-49.085550684717731,-40.334963922039876,-31.5843771593603,-23.006113028642194,-15.404354671136707,-7.80259631362956,-0.20083795612074271,7.4009204013897456,14.796157655440801,21.217784267111139,27.639410878783103,34.061037490456684,40.482664102131864,46.670918656402058,51.92567395175174,57.180429247102992,62.435184542455772,67.689939837810172,72.693421360428871,76.831393776650273,80.969366192873224,85.107338609097752,89.24531102532373,93.123586366074932,96.222760661653865,99.321934957234262,102.42110925281618,105.52028354839958,108.36039796541949,110.51752743472282,112.67465690402742,114.83178637333359,116.98891584264133,118.89555227840144,120.21769707692187,121.53984187544357,122.86198667396667,124.18413147249137,125.2707048684739,125.86800773102999,126.4653105935875,127.06261345614637,127.65991631870688,128.0411489983538,128.02110264596186,128.00105629357139,127.98100994118246,127.96096358879477,127.74717587141458,127.21048099567294,126.67378611993274,126.13709124419391,125.60039636845653,124.89353776530668,123.93142955002196,122.96932133473842,122.00721311945644,121.04510490417599,119.9363497316515,118.62918659080056,117.32202344995096,116.01486030910287,114.70769716825627,113.27634175871744,111.6931931899345,110.11004462115307,108.52689605237312,106.94374748359473,105.2571058967264,103.45607523043776,101.65504456415069,99.854013897865087,98.0529832315811,92.22506623857258,90.254105253391472,88.28314426821197,86.24338958938705,84.141391758701,82.039393928016651,79.937396097333817,77.835398266652632,75.67841084475485,73.476430994102643,71.2744511434521,69.072471292803144,66.870491442155867,64.625075950482568,62.34755514055832,60.070034330635835,57.792513520715,55.514992710795994,53.203536981832542,50.8694574389125,48.5353778959943,46.201298353077867,43.867218810163244,41.506891515942208,39.130815173983528,36.754738832026689,34.3786624900718,32.002586148118723,29.606390135576103,27.199360161680985,24.792330187787897,22.38530021389672,19.978270240007411,17.555939097383177,15.126240511104957,12.696541924828834,10.266843338554757,7.8371447522827555,5.3958847117876436,2.9496696062266885,0.50345450066782915,-1.9427606048888111,-4.3889757104433764,-6.8438851518404444,-9.3020925581140332,-11.760299964385414,-14.218507370654466,-16.676714776921365,-19.141445073599776,-21.608349749287246,-24.07525442497229,-26.542159100655006,-29.0090637763353,-31.480866194992281,-33.95409059876193,-36.42731500252912,-38.900539406293838,-41.373763810056047,-43.850685071994043,-46.328530592152781,-48.806376112309053,-51.284221632462646,-53.762067152613618,-56.242736056719849,-58.724003892798592,-61.20527172887455,-63.686539564947772,-66.167807401018308,-68.651261346982736,-71.135101101353627,-73.61894085572159,-76.102780610086668,-78.586620364448876,-81.072253078828467,-83.558141949719015,-86.044030820606679,-88.529919691491287,-91.0158085623729,-93.503069644044174,-95.990483207989385,-98.4778967719313,-100.9653103358698,-103.45272389980526,-105.9415548577921,-108.43050075410174,-110.91944665040829,-113.4083925467116,-115.8973384430118,-118.38732969054433,-120.87737596695989,-123.36742224337196,-125.8574685197804,-128.3475147961851,-130.83869924731417,-133.32991289344085,-135.82112653956383,-138.31234018568307,-140.80355383179858,0.23935901690498196,0.23935901690498196,0.23935901690498196,0.23935901690498196,0.23935901690498196,0.23935901690498196,0.23935901690498196,0.23935901690498196,0.23935901690498196,0.23935901690498196,0.23935901690498196,0.23935901690498196
DP 59,164.0536607312695,0.0024625683562911967,-191.750960874884,-185.1830946180491,-178.61522836121293,-172.04736210437531,-165.4794958475367,-158.91480487106674,-152.47395102956753,-146.0330971880671,-139.5922433465654,-133.15138950506244,-126.72345008201276,-120.54088705097359,-114.35832401993341,-108.17576098889209,-101.99319795784959,-95.838404784743915,-90.02611002599393,-84.213815267242765,-78.4015205084904,-72.58922574973694,-66.823281026651912,-61.474491005654272,-56.125700984655566,-50.776910963655837,-45.428120942655056,-40.146125992929782,-35.331701592977893,-30.517277193025027,-25.702852793071091,-20.888428393116129,-16.16121907400624,-11.928234042136848,-7.6952490102664406,-3.4622639783950619,0.7707210534773048,4.8978329896628674,8.52582318489368,12.153813380125436,15.78180357535817,19.40979377059184,22.916408555755257,25.937515964363968,28.9586233729736,31.979730781584205,35.000838190195672,37.889165661341551,40.32013443654288,42.75110321174504,45.182071986948159,47.613040762152181,49.904388901804282,51.776869855958687,53.649350810113972,55.521831764270146,57.394312718427223,59.124914666088387,60.481467083691115,61.838019501294561,63.1945719188989,64.551124336504131,65.7677684901446,66.657955619770846,67.548142749398011,68.438329879025972,69.328517008654785,70.084382344021961,70.561267738615228,71.038153133209377,71.515038527804336,71.991923922400247,72.342915997103944,72.460102792128112,72.577289587153217,72.694476382179175,72.811663177205872,72.813403483587962,72.6227300656603,72.432056647733518,72.241383229807511,72.050709811882484,71.7562578585406,71.306135649757664,70.856013440975616,70.405891232194463,69.9557690234141,69.414046632731626,68.748392546969072,68.0827384612074,67.4170843754466,66.751430289686652,66.006275597972589,65.163951829095609,64.321628060219425,63.479304291344192,62.636980522469763,61.726724258590565,60.741383358957712,59.756042459325727,58.7707015596946,57.785360660064477,54.54325955895181,53.443487082112341,52.34371460527386,51.196395535093956,50.006057262527932,48.8157189899629,47.625380717398869,46.435042444835737,45.205682470035867,43.944394977338042,42.683107484641226,41.42181999194537,40.160532499250543,38.867588896466934,37.551246778892633,36.234904661319447,34.9185625437472,33.602220426176011,32.260472383721861,30.901786657780047,29.543100931839355,28.184415205899718,26.825729479961154,25.44685551732681,24.055868307361155,22.664881097396638,21.273893887433267,19.882906677470977,18.476022303406172,17.060577686730145,15.645133070055325,14.229688453381636,12.814243836709052,11.386383043484235,9.9525439173140864,8.5187047911451987,7.0848656649775208,5.6510265388110961,4.2075587181066911,2.7599641840133118,1.312369649921189,-0.13522488416961198,-1.5828194182591744,-3.037837117021903,-4.4956705957143779,-5.9535040744055392,-7.4113375530953149,-8.8691710317837966,-10.332703111774086,-11.798134797349149,-13.263566482922741,-14.728998168494973,-16.194429854065753,-17.6642269005752,-19.135291363177803,-20.60635582577893,-22.077420288378597,-23.548484750976773,-25.022895983402382,-26.49814394782614,-27.97339191224842,-29.448639876669091,-30.923887841088224,-32.401715153155607,-33.880089629123205,-35.358464105089091,-36.836838581053406,-38.315213057016059,-39.795589589567371,-41.2763194484844,-42.757049307399576,-44.237779166313125,-45.7185090252249,-47.200852418316593,-48.683426333719652,-50.166000249120955,-51.648574164520383,-53.131148079918084,-54.614966708310654,-56.098923651217767,-57.582880594122948,-59.066837537026004,-60.550794479927227,-62.035938867183745,-63.521179545844561,-65.006420224503415,-66.491660903160437,-67.976901581815525,-69.463049018623778,-70.94924418856526,-72.4354393585045,-73.921634528441515,-75.407829698376318,-76.894956740155777,-78.382107685116864,-79.869258630075748,-81.356409575032359,-82.843560519986738,0.14305401285784725,0.14305401285784725,0.14305401285784725,0.14305401285784725,0.14305401285784725,0.14305401285784725,0.14305401285784725,0.14305401285784725,0.14305401285784725,0.14305401285784725,0.14305401285784725,0.14305401285784725
DP 60,126.40167940824733,0.0032204460868579831,-223.00493181205721,-215.85876559501392,-208.71259937796913,-201.56643316092232,-194.4202669438738,-187.2769106827831,-180.24314376652515,-173.20937685026558,-166.17560993400437,-159.14184301774145,-152.11959016881147,-145.31610677588949,-138.51262338296615,-131.70913999004134,-124.90565659711498,-118.1271923963774,-111.65730138578203,-105.18741037518507,-98.717519364586565,-92.247628353986457,-85.820113761560819,-79.773990938188788,-73.72786811481528,-67.681745291440407,-61.63562246806412,-55.651694404901512,-50.1031343662208,-44.554574327538738,-39.006014288855177,-33.457454250170279,-27.991912682761154,-22.996814350589446,-18.001716018416364,-13.006617686241938,-8.0115193540661558,-3.1197976699495884,1.2845713754364392,5.6889404208237888,10.093309466212448,14.497678511602407,18.780074868100179,22.57457470452675,26.369074540954621,30.16357437738375,33.95807421381415,37.614829925885751,40.7971278675042,43.979425809123917,47.161723750744841,50.344021692367065,53.376370650101663,55.958866986831879,58.5413633235634,61.123859660296063,63.706355997029995,66.1306895071427,68.138042856260284,70.145396205379015,72.152749554498939,74.160102903620114,76.005172529715878,77.47157502233776,78.9379775149608,80.404380007585,81.870782500210467,83.174706000625378,84.141168407156954,85.107630813689624,86.074093220223517,87.040555626758632,87.847888011565757,88.359688915692232,88.871489819819914,89.3832907239488,89.895091628078873,90.2541199152785,90.35852332353,90.462926731782744,90.567330140036617,90.671733548291712,90.632115647512649,90.37646237991865,90.120809112325745,89.865155844734048,89.609502577143559,89.220329302548947,88.650508343075444,88.08068738360312,87.510866424132047,86.941045464662182,86.249335957087681,85.408648997153833,84.56796203722125,83.727275077289946,82.886588117359793,81.9362098400068,80.8645916079981,79.792973375990542,78.721355143984326,77.6497369119794,73.9478201487624,72.681376721580278,71.414933294399532,70.063047321740413,68.633854650577717,67.204661979416159,65.775469308256191,64.346276637097446,62.843000780913279,61.279110136540581,59.715219492169304,58.151328847799405,56.587438203430885,54.960003741092656,53.285601064389049,51.61119838768699,49.9367957109863,48.26239303428715,46.534033526899044,44.769701949042421,43.005370371187347,41.241038793333729,39.476707215481674,37.666989020849911,35.830038169752186,33.993087318656031,32.156136467561467,30.319185616468488,28.444390008965069,26.549215905375515,24.654041801787677,22.75886769820141,20.863693594616727,18.937218034282843,16.995670963863617,15.054123893446151,13.112576823030421,11.171029752616436,9.2037834860610612,7.2255229312868563,5.2472623765144313,3.2690018217438719,1.2907412669750686,-0.70848004830204814,-2.7156522701478254,-4.7228244919917373,-6.7299967138336969,-8.7371689356738127,-10.761341132559517,-12.791180202039911,-14.821019271518242,-16.850858340994627,-18.880697410468983,-20.924263687353935,-22.97181544993855,-25.019367212521086,-27.066918975101508,-29.114470737679831,-31.173076912658342,-33.234446821344505,-35.295816730028541,-37.357186638710317,-39.418556547389912,-41.48882721587173,-43.560986026286649,-45.633144836699181,-47.705303647109453,-49.777462457517409,-51.856801910627254,-53.937408615826357,-56.018015321022908,-58.098622026217043,-60.179228731408763,-62.2657238193869,-64.353060168512414,-66.440396517635477,-68.527732866755883,-70.615069215873888,-72.707179617576543,-74.799820519702678,-76.892461421825942,-78.98510232394635,-81.077743226064015,-83.174638458169213,-85.27187867941953,-87.369118900667033,-89.466359121912021,-91.56359934315428,-93.66438751215199,-95.7653624505399,-97.866337388924578,-99.967312327306232,-102.06828726568479,-104.17268869474375,-106.27717801575307,-108.38166733675928,-110.48615665776215,-112.59064597876183,0.20313358064670534,0.20313358064670534,0.20313358064670534,0.20313358064670534,0.20313358064670534,0.20313358064670534,0.20313358064670534,0.20313358064670534,0.20313358064670534,0.20313358064670534,0.20313358064670534,0.20313358064670534
DP 61,194.77766679043691,0.002988380584835876,-249.06942308799924,-240.12800712992723,-231.18659117185379,-222.24517521377874,-213.3037592557024,-204.36732227639388,-195.62506735156973,-186.8828124267441,-178.14055750191713,-169.3983025770886,-160.67618680483662,-152.33671873872294,-143.997250672608,-135.65778260649174,-127.31831454037417,-119.02178397231775,-111.25482129170523,-103.48785861109167,-95.720895930476587,-87.953933249860242,-80.2577972975319,-73.199108594435984,-66.140419891338809,-59.081731188240433,-52.0230424851408,-45.064921021713936,-38.810777840589971,-32.556634659464805,-26.30249147833845,-20.048348297210893,-13.923213547086318,-8.5291347020017554,-3.1350558569160283,2.2590229881708503,7.6531018332588721,12.893745263311608,17.4110420208257,21.92833877834093,26.445635535857267,30.962932293374692,35.308323140604131,38.966082222307243,42.623841304011449,46.281600385716679,49.939359467423046,53.413762495646409,56.256598081415483,59.099433667185522,61.9422692529567,64.785104838728827,67.440364104781111,69.53288731970126,71.625410534622318,73.717933749544486,75.810456964467619,77.717897948543524,79.137388507954967,80.556879067367433,81.97636962678088,83.395860186195335,84.638450567033559,85.46826829092511,86.298086014817542,87.127903738710984,87.957721462605491,88.623188931855225,88.94730878466649,89.271428637478792,89.595548490292,89.91966834310621,90.094945673409725,89.993797156546421,89.892648639684026,89.791500122822612,89.690351605962235,89.457489360979864,89.005100915866365,88.552712470753789,88.100324025642124,87.647935580531581,87.0814259931525,86.343731995656171,85.606037998160872,84.868344000666525,84.130650003173116,83.29597287543092,82.330081120421454,81.364189365413125,80.398297610405763,79.432405855399381,78.3855502054643,77.2397369833281,76.093923761193039,74.948110539058945,73.802297316925774,72.5899954345435,71.304204762500248,70.018414090457952,68.73262341841675,67.446832746376586,63.320572280620055,61.927226025403613,60.533879770188406,59.0976458422354,57.622608009655309,56.147570177076233,54.672532344498357,53.197494511921505,51.688696538578036,50.152276051690187,48.6158555648034,47.079435077917807,45.543014591033305,43.980337061718778,42.398251721592061,40.816166381466545,39.234081041342122,37.651995701218972,36.04971340380456,34.4339661500234,32.818218896243479,31.202471642464776,29.586724388687294,27.955596570360871,26.315240180699583,24.674883791039576,23.034527401380885,21.394171011723458,19.742205581156313,18.083988959746208,16.425772338337485,14.767555716930113,13.109339095524032,11.442426235621825,9.7713261761513888,8.1002261166824017,6.4291260572148117,4.75802599774865,3.0804498854995446,1.4000982346124695,-0.28025341627316797,-1.9606050671572872,-3.6409567180399858,-5.3261132142432883,-7.0130923006236658,-8.7000713870025415,-10.387050473379835,-12.074029559755644,-13.7645711805276,-15.456300357661876,-17.14802953479446,-18.839758711925477,-20.531487889054834,-22.225867575234489,-23.921016796366693,-25.616166017497228,-27.311315238626051,-29.006464459753168,-30.703603736769775,-32.4012405512701,-34.098877365768693,-35.796514180265454,-37.494150994760467,-39.193307785040631,-40.892787011839758,-42.592266238637009,-44.29174546543242,-45.991224692225906,-47.69188740455,-49.392758980420737,-51.093630556289455,-52.794502132156232,-54.495373708020949,-56.197235646625337,-57.899239076317564,-59.601242506007885,-61.30324593569599,-63.005249365382134,-64.7080119793359,-66.41085895506842,-68.113705930798687,-69.81655290652661,-71.519399882252372,-73.2230767131083,-74.926820837993276,-76.630564962876136,-78.334309087756807,-80.038053212635262,-81.742400410268516,-83.4467793545709,-85.151158298870769,-86.855537243168214,-88.559916187463173,-90.264975621237582,-91.970052510054714,-93.6751293988692,-95.3802062876812,-97.085283176490591,0.16372996128146886,0.16372996128146886,0.16372996128146886,0.16372996128146886,0.16372996128146886,0.16372996128146886,0.16372996128146886,0.16372996128146886,0.16372996128146886,0.16372996128146886,0.16372996128146886,0.16372996128146886
DP 62,186.9048356713445,0.0010220599601483719,-83.855733410301269,-80.87982045281197,-77.903907495322059,-74.927994537831751,-71.952081580340916,-68.977769796728467,-66.065904399776642,-63.154039002824263,-60.242173605871379,-57.330308208918069,-54.424928435450347,-51.642776734278115,-48.860625033105421,-46.07847333193228,-43.296321630758676,-40.528027918490196,-37.930651149222783,-35.333274379954929,-32.735897610686578,-30.138520841417755,-27.564071867877676,-25.195975223062884,-22.827878578247692,-20.45978193343209,-18.091685288616041,-15.756267465996867,-13.649603869830633,-11.542940273664003,-9.43627667749695,-7.3296130813294855,-5.2650598111340834,-3.4391343749934618,-1.613208938852438,0.21271649728898012,2.0386419334307959,3.814221794688152,5.352455512218838,6.8906892297499089,8.4289229472813574,9.9671566648131869,11.44865297345747,12.703196965108235,13.957740956759372,15.212284948410888,16.466828940062758,17.660466222787342,18.644311171662856,19.628156120538733,20.612001069415008,21.5958460182916,22.516945619546778,23.249806805632428,23.982667991718429,24.715529177804786,25.448390363891527,26.118876928019063,26.624919163083124,27.130961398147527,27.637003633212284,28.143045868277355,28.588997746644527,28.894736899446791,29.200476052249378,29.506215205052293,29.81195435785558,30.061400528984915,30.193928870214,30.32645721144339,30.458985552673166,30.591513893903244,30.672617151298176,30.658215292782796,30.643813434267788,30.629411575753089,30.615009717238756,30.55468991604663,30.417839053000737,30.280988189955174,30.144137326909931,30.00728646386505,29.830279819980031,29.593038555942503,29.355797291905329,29.118556027868493,28.88131476383198,28.60962088389363,28.291313875029314,27.973006866165289,27.654699857301644,27.336392848438283,26.989041369185248,26.606190482718993,26.22333959625308,25.840488709787532,25.457637823322333,25.050695960560279,24.617126749868959,24.183557539177961,23.749988328487358,23.316419117797089,21.917289243942271,21.444351062115707,20.971412880289535,20.4826134493072,19.97946307876024,19.476312708213651,18.973162337667453,18.470011967121653,17.954244855548282,17.428154739034586,16.902064622521266,16.375974506008365,15.84988438949585,15.313877512007595,14.770540691651611,14.227203871296037,13.683867050940853,13.140530230586112,12.589484128100187,12.033298382745354,11.477112637390958,10.920926892036974,10.364741146683425,9.80262202253818,9.2369427813854141,8.6712635402330758,8.1055842990812028,7.5399050579297615,6.9697001102161229,6.3970581777730819,5.8244162453305117,5.25177431288841,4.6791323804467631,4.1030652661043456,3.5253489421430144,2.947632618182177,2.3699162942218264,1.792199970261972,1.2119076978698331,0.63051141279540557,0.049115127721476415,-0.53228115735192616,-1.1136774424248361,-1.6970024041858922,-2.2810589581111698,-2.8651155120359224,-3.4491720659601248,-4.0332286198838139,-4.6187265112025475,-5.2047048664841773,-5.7906832217652235,-6.3766615770457262,-6.962639932325656,-7.5496971245060713,-8.1370675405568917,-8.7244379566071242,-9.3118083726567811,-9.8991787887058287,-10.487361864730323,-11.075748115349869,-11.664134365968827,-12.252520616587136,-12.840906867204842,-13.429913465462702,-14.019051659720791,-14.60818985397823,-15.197328048235018,-15.786466242491159,-16.376085342733425,-16.965789314085157,-17.555493285436174,-18.145197256786524,-18.734901228136163,-19.325001836733563,-19.915159112078921,-20.505316387423605,-21.095473662767535,-21.685630938110798,-22.276091724468319,-22.86658623745873,-23.457080750448391,-24.047575263437221,-24.638069776425308,-25.228883360939729,-25.81972281937816,-26.41056227781586,-27.001401736252824,-27.592241194689041,-28.18331477916912,-28.77440068840118,-29.365486597632369,-29.956572506862674,-30.547658416092133,-31.139002157764875,-31.730352513024606,-32.321702868283381,-32.913053223541247,-33.504403578798296,0.056806727473011666,0.056806727473011666,0.056806727473011666,0.056806727473011666,0.056806727473011666,0.056806727473011666,0.056806727473011666,0.056806727473011666,0.056806727473011666,0.056806727473011666,0.056806727473011666,0.056806727473011666
DP 63,187.82332159882176,0.0019282913487046122,-158.50723306059655,-152.87439381770446,-147.24155457481132,-141.60871533191713,-135.97587608902208,-130.34607988298683,-124.8349632650515,-119.32384664711533,-113.81273002917813,-108.30161341123996,-102.80282112072825,-97.538193381157186,-92.273565641585122,-87.008937902012349,-81.744310162438723,-76.506008504629378,-71.5923985064221,-66.678788508214,-61.765178510005057,-56.851568511795158,-51.981499873206687,-47.503307586800069,-43.025115300392642,-38.546923013984404,-34.068730727575407,-29.652570674119811,-25.670640942030197,-21.688711209939832,-17.706781477848686,-13.724851745756766,-9.8228142576820314,-6.3735045200465859,-2.9241947824103893,0.52511495522655816,3.9744246928642517,7.3282756742911026,10.232101649079624,13.1359276238689,16.03975359865888,18.943579573449576,21.739901720517725,24.106203476001596,26.47250523148611,28.838806986971381,31.20510874245732,33.456092617292647,35.309865614339614,37.163638611387256,39.0174116084356,40.8711846054846,42.606256053286522,43.985218365423876,45.364180677561912,46.743142989700594,48.12210530184,49.383170572005035,50.333412315596561,51.283654059188692,52.2338958027815,53.184137546374934,54.020904564455627,54.592893647752973,55.164882731050987,55.736871814349712,56.308860897648991,56.77464961273369,57.019865243625247,57.265080874517466,57.510296505410288,57.75551213630375,57.903809669617011,57.872113832907331,57.840417996198369,57.808722159489982,57.7770263227823,57.658882384130536,57.396656096592785,57.13442980905571,56.872203521519211,56.609977233983365,56.272233267392679,55.821210997715674,55.370188728039288,54.919166458363634,54.468144188688584,53.952402226760753,53.349096888872424,52.745791550984784,52.142486213097705,51.539180875211393,50.881377639769688,50.15696471815977,49.432551796550491,48.708138874941966,47.983725953333995,47.214162550856479,46.394695086854895,45.57522762285403,44.7557601588538,43.936292694854288,41.293651062423606,40.400487762937473,39.507324463452008,38.584505967120975,37.634856044493247,36.685206121866194,35.735556199239852,34.785906276614263,33.812696206090791,32.8202092460272,31.827722285964327,30.835235325902229,29.84274836584083,28.831766121714928,27.807113146203303,26.782460170692463,25.757807195182366,24.733154219673082,23.694140904236924,22.645553802623972,21.596966701011834,20.548379599400516,19.499792497789997,18.440166867722471,17.373917953641318,16.307669039560992,15.241420125481536,14.1751712114029,13.100513030476851,12.021326660502098,10.942140290528259,9.8629539205552952,8.78376755058318,7.698224528518729,6.6096208071750668,5.5210170858323444,4.4324133644905412,3.3438096431496693,2.2504309114462764,1.1550056822539603,0.059580453062584894,-1.0358447761277991,-2.1312700053172557,-3.2302665093095726,-4.330617681338313,-5.4309688533660676,-6.5313200253927839,-7.6316711974185365,-8.73468869898155,-9.8385950106595761,-10.94250132233649,-12.046407634012384,-13.150313945687213,-14.256214462532389,-15.362693966489989,-16.469173470446528,-17.575652974401926,-18.682132478356213,-19.790113495392216,-20.898469908438319,-22.006826321483295,-23.115182734527078,-24.22353914756971,-25.333041699441235,-26.442787384800891,-27.552533070159335,-28.66227875551651,-29.772024440872524,-30.882658897647826,-31.993450206320535,-33.104241514991884,-34.215032823662021,-35.325824132330787,-36.437349692476161,-37.548980153620157,-38.660610614762845,-39.772241075904141,-40.883871537044094,-41.996063877726684,-43.108318655369239,-44.220573433010394,-45.332828210649993,-46.445082988288178,-47.557931055700323,-48.670827233749989,-49.783723411798213,-50.896619589845045,-52.0095157678905,-53.122846792051106,-54.236200707174305,-55.349554622295877,-56.462908537415892,-57.576262452534195,-58.690096599337778,-59.80394306442831,-60.917789529517137,-62.031635994604287,-63.14548245968971,0.10699403952237685,0.10699403952237685,0.10699403952237685,0.10699403952237685,0.10699403952237685,0.10699403952237685,0.10699403952237685,0.10699403952237685,0.10699403952237685,0.10699403952237685,0.10699403952237685,0.10699403952237685
DP 64,187.03792902218026,0.0019644905819345038,-161.22247742011709,-155.49980416522848,-149.77713091033883,-144.05445765544823,-138.33178440055653,-132.61219208673074,-127.0127576393745,-121.41332319201733,-115.81388874465905,-110.21445429729989,-104.62749881475216,-99.277646022695208,-93.927793230637363,-88.577940438578636,-83.228087646518944,-77.904897669960192,-72.910552444858354,-67.91620721975562,-62.921861994652033,-57.927516769547537,-52.977282581590451,-48.424051897396467,-43.870821213201658,-39.317590529006019,-34.764359844809576,-30.273997004582831,-26.223713826022568,-22.173430647461533,-18.123147468899688,-14.072864290337048,-10.103586282825864,-6.59334268241166,-3.0830990819966835,0.42714451841905438,3.9373881188355511,7.3507929322192149,10.307666804836744,13.264540677455027,16.221414550074041,19.178288422693786,22.026040535582545,24.437300452388836,26.848560369195855,29.259820286003574,31.671080202812,33.965211129744617,35.855892837696118,37.746574545648308,39.637256253601194,41.527937961554791,43.297970310486328,44.706050020784666,46.114129731083672,47.522209441383367,48.930289151683724,50.2184468616779,51.190442448986417,52.162438036295683,53.134433623605553,54.106429210916154,54.9629101763642,55.549853384608376,56.13679659285318,56.723739801098645,57.310683009344807,57.789426682972916,58.043445099427359,58.297463515882427,58.551481932338127,58.80550034879451,58.960690531125287,58.932339895406535,58.903989259688593,58.875638623971184,58.847287988254465,58.7307058598276,58.467069019619885,58.20343217941285,57.939795339206434,57.676158499000671,57.335374516166318,56.8788679963805,56.422361476595313,55.965854956810745,55.50934843702688,54.986662345841687,54.3744377156153,53.762213085389583,53.149988455164554,52.537763824940157,51.869757394012517,51.133572034990173,50.397386675968484,49.661201316947512,48.925015957927236,48.142570097616975,47.308993289019078,46.47541648042192,45.641839671825466,44.808262863229707,42.118570574440049,41.2094088777585,40.300247181077651,39.360638759741882,38.393482753650169,37.426326747559159,36.459170741468938,35.492014735379406,34.500644304770582,33.489461656141778,32.478279007513684,31.467096358886366,30.455913710259821,29.425701937208423,28.3814248463382,27.337147755468795,26.292870664600155,25.248593573732343,24.189525920504689,23.120597659367455,22.051669398231034,20.98274113709541,19.913812875960655,18.833503279939208,17.74636471086195,16.65922614178551,15.572087572709968,14.484949003635258,13.389130827835606,12.288638891429693,11.188146955024695,10.087655018620573,8.9871630822173,7.8801033240744705,6.7698811894208442,5.6596590547681682,4.549436920116424,3.4392147854656354,2.3240540656126805,1.2067767425593614,0.08949941950699937,-1.02777790354435,-2.1450552265947529,-3.2660295725416377,-4.3884062857171173,-5.5107829988915862,-6.6331597120649954,-7.7555364252374215,-8.8806756290655322,-10.006735697926638,-11.132795766786645,-12.258855835645594,-13.384915904503442,-14.513043449050327,-15.64177125368931,-16.770499058327164,-17.899226862963907,-19.027954667599495,-20.158239727313038,-21.288914119194285,-22.419588511074345,-23.550262902953268,-24.680937294830926,-25.812800486701526,-26.944915861886766,-28.077031237070717,-29.209146612253448,-30.34126198743494,-31.474298901862802,-32.607498451110111,-33.740698000356034,-34.873897549600706,-36.007097098844007,-37.141056854613041,-38.275125219525144,-39.409193584435968,-40.543261949345357,-41.67733031425341,-42.811980562015712,-43.946695469538227,-45.081410377059271,-46.21612528457878,-47.35084019209679,-48.486167048834844,-49.6215435293291,-50.7569200098219,-51.892296490313278,-53.027672970803259,-54.163498406503848,-55.299347475891423,-56.435196545277414,-57.5710456146616,-58.706894684044173,-59.843238324501534,-60.979594651061525,-62.115950977619761,-63.25230730417627,-64.388663630731074,0.10916074003746257,0.10916074003746257,0.10916074003746257,0.10916074003746257,0.10916074003746257,0.10916074003746257,0.10916074003746257,0.10916074003746257,0.10916074003746257,0.10916074003746257,0.10916074003746257,0.10916074003746257
DP 65,99.268683188461623,0.0054185603832666036,-330.94681483873296,-320.92426164207507,-310.9017084454141,-300.87915524875069,-290.85660205208353,-280.83733647398361,-270.94628926312197,-261.05524205225765,-251.16419484138999,-241.27314763051939,-231.39565698649955,-221.77574367546092,-212.15583036441956,-202.53591705337581,-192.91600374232937,-183.32576817624062,-174.10156187156349,-164.87735556688372,-155.65314926220114,-146.42894295751574,-137.25555416519782,-128.53952778753981,-119.82350140987954,-111.10747503221674,-102.39144865455128,-93.751005104925028,-85.639647066928589,-77.528289028929876,-69.4169309909287,-61.305572952925118,-53.296741691600175,-45.8689019587656,-38.441062225928647,-31.013222493089355,-23.585382760247718,-16.287620711583596,-9.60308905696167,-2.9185574023374588,3.76597425228901,10.450505906917734,16.978283071029363,22.879034864759536,28.779786658491926,34.680538452226514,40.581290245963281,46.300806219393614,51.396057864822076,56.491309510252734,61.586561155685558,66.681812801120458,71.574630174768245,75.86013707932338,80.14564398388066,84.431150888440087,88.716657793001573,92.782624526455379,96.269795990191355,99.75696745392942,103.2441389176695,106.7313103814118,109.98642297464045,112.70005755851315,115.41369214238796,118.12732672626483,120.8409613101438,123.31481411691948,125.29065164372732,127.26648917053716,129.24232669734909,131.21816422416319,132.95122769155068,134.23341849220884,135.5156092928691,136.79780009353135,138.07999089419565,139.12085861468768,139.75951511885751,140.39817162302938,141.03682812720331,141.67548463137942,142.078250985621,142.12717654081072,142.17610209600247,142.22502765119623,142.27395320639241,142.09582022511412,141.61048535052922,141.12515047594636,140.6398156013658,140.15448072678723,139.45367180019764,138.4895011729615,137.52533054572774,136.56115991849606,135.59698929126668,134.43101029903954,133.04197594020471,131.65294158137209,130.26390722254175,128.87487286371345,123.77422517733619,122.01177226864257,120.24931935995143,118.31608987736864,116.22834518183875,114.14060048631124,112.05285579078624,109.96511109526347,107.72282195881299,105.35408471474774,102.98534747068481,100.61661022662443,98.247872982566676,95.740670622696371,93.13112220542213,90.521573788150377,87.912025370881253,85.302476953614743,82.570026366909147,79.755639064437347,76.941251761968132,74.126864459501618,71.312477157037776,68.389951835647821,65.402542067491467,62.415132299337955,59.427722531187364,56.440312763039486,53.358529363545664,50.225928020974834,47.093326678407109,43.960725335842312,40.828123993280428,37.613781918896592,34.360082051233952,31.106382183574482,27.852682315918081,24.598982448264842,21.274971619159757,17.920826571453478,14.566681523750393,11.212536476050641,7.8583914283540413,4.4441396422516455,1.0070879648453015,-2.4299637125576954,-5.8670153899571869,-9.304067067353369,-12.792230736487245,-16.29743238035271,-19.802634024214477,-23.307835668072734,-26.81303731192736,-30.361523370518842,-33.922576400003919,-37.483629429485305,-41.044682458962896,-44.605735488436693,-48.203350336845652,-51.810106071968015,-55.416861807086526,-59.023617542201,-62.630373277311527,-66.268005706804274,-69.9121880918897,-73.556370476970812,-77.200552862047857,-80.8447352471207,-84.515050789674873,-88.18997835650255,-91.864905923325637,-95.539833490144673,-99.214761056958992,-102.91205838019795,-106.61255162456933,-110.31304486893605,-114.01353811329818,-117.71403135765591,-121.43369002760636,-125.15547839056674,-128.87726675352178,-132.59905511647196,-136.320843479417,-140.05994825681066,-143.80045724475167,-147.54096623268754,-151.28147522061903,-155.02198420854558,-158.77790055275298,-162.53462796374029,-166.29135537472217,-170.0480827856984,-173.80481019666891,-177.57643218558334,-181.34843623114236,-185.12044027669555,-188.89244432224302,-192.6644483677847,0.36571395539812157,0.36571395539812157,0.36571395539812157,0.36571395539812157,0.36571395539812157,0.36571395539812157,0.36571395539812157,0.36571395539812157,0.36571395539812157,0.36571395539812157,0.36571395539812157,0.36571395539812157
DP 66,96.25410372378181,0.0023927129407362263,-143.6368408617225,-139.31657615662866,-134.99631145153376,-130.67604674643729,-126.35578204133958,-122.03690316693395,-117.77207221353785,-113.50724126014052,-109.24241030674172,-104.97757935334154,-100.71846709939027,-96.568011216066878,-92.417555332742324,-88.2670994494166,-84.116643566089749,-79.978718274057769,-75.995338520552167,-72.011958767045456,-68.028579013537353,-64.045199260028213,-60.083300966057259,-56.314737838395217,-52.546174710731975,-48.777611583067731,-45.009048455402336,-41.272483611857055,-37.759909176771409,-34.24733474168471,-30.734760306596907,-27.222185871508032,-23.753095183373294,-20.530415134739748,-17.307735086105136,-14.0850550374695,-10.86237498883281,-7.6949786071794577,-4.7882082130094021,-1.8814378188383261,1.0253325753337517,3.9321029695068241,6.7720923914147741,9.3449547681525083,11.917817144891226,14.490679521630915,17.063541898371568,19.558989676854637,21.787783920307369,24.016578163761057,26.245372407215722,28.474166650671307,30.616241274377924,32.498153760100891,34.380066245824771,36.261978731549625,38.143891217275417,39.93145930094046,41.470297990975219,43.009136681010936,44.547975371047578,46.086814061085128,47.525593325040049,48.730897442224787,49.936201559410463,51.141505676597028,52.346809793784537,53.448353137684634,54.33439031934558,55.220427501007435,56.1064646826702,56.992501864333917,57.773085344325487,58.357823387610615,58.942561430896653,59.527299474183565,60.11203751747145,60.5915363241572,60.895633750550907,61.199731176945619,61.503828603341148,61.807926029737658,62.008726331107979,62.054578503998904,62.100430676890838,62.146282849783674,62.192135022677348,62.138129686298853,61.949020792988733,61.759911899679445,61.570803006371158,61.381694113063823,61.097399103162807,60.6967635069589,60.296127910755942,59.895492314553977,59.494856718353013,59.0046620187055,58.415479159411824,57.826296300119196,57.237113440827514,56.647930581536862,54.464130598454005,53.708446862326753,52.952763126200487,52.120563868632154,51.219134904553307,50.31770594047547,49.416276976398741,48.514848012323057,47.543832183643623,46.515880451665673,45.487928719688782,44.459976987713027,43.432025255738331,42.34141091689812,41.204479708124722,40.067548499352434,38.930617290581338,37.793686081811416,36.600847436677853,35.370736286563712,34.140625136450737,32.910513986338962,31.680402836228403,30.400841560193133,29.091609460750771,27.782377361309667,26.473145261869856,25.163913162431221,23.811294071841605,22.435312124327293,21.059330176814349,19.683348229302727,18.307366281792358,16.893600528125333,15.461642042403485,14.029683556683013,12.597725070963921,11.165766585246226,9.70112773518693,8.22248257341315,6.7438374116407758,5.2651922498698953,3.7865470881004097,2.2798071548967331,0.76241021797098529,-0.75498671895327341,-2.2723836558759727,-3.7897805927972019,-5.3312049409318218,-6.88063872894942,-8.4300725169653745,-9.9795063049797719,-11.528940092992546,-13.098840345435073,-14.67468272426073,-16.250525103084744,-17.826367481907074,-19.40220986072773,-20.995443037517763,-22.593024119273377,-24.190605201027264,-25.788186282779378,-27.385767364529691,-28.998124145832925,-30.613615335720411,-32.229106525606028,-33.84459771548984,-35.460088905371727,-37.088163485780619,-38.718458804445078,-40.348754123107526,-41.979049441768083,-43.609344760426588,-45.250475052874464,-46.893153315762859,-48.535831578649265,-50.178509841533554,-51.821188104415874,-53.473212673548879,-55.126275819310287,-56.779338965069449,-58.432402110826324,-60.085465256580996,-61.747004001564704,-63.409230043902689,-65.0714560862384,-66.7336821285721,-68.395908170903638,-70.065727372799245,-71.735946290218308,-73.406165207634871,-75.0763841250489,-76.7466030424605,-78.4241745805607,-80.101934718673832,-81.77969485678436,-83.457454994892316,-85.135215132997743,0.16277824092205867,0.16277824092205867,0.16277824092205867,0.16277824092205867,0.16277824092205867,0.16277824092205867,0.16277824092205867,0.16277824092205867,0.16277824092205867,0.16277824092205867,0.16277824092205867,0.16277824092205867
DP 67,122.33039088539628,0.0047682483282433883,-324.93632222424526,-314.60624756176463,-304.27617289928105,-293.94609823679542,-283.61602357430655,-273.28990931039453,-263.11825208845215,-252.94659486650687,-242.77493764455926,-232.60328042260886,-222.44786900371608,-212.60113091410818,-202.75439282449821,-192.90765473488585,-183.06091664527133,-173.24951525638991,-163.87393763000193,-154.49836000361157,-145.12278237721884,-135.74720475082378,-126.43157806210183,-117.65551547909163,-108.87945289607924,-100.10339031306502,-91.327327730048367,-82.639428475712734,-74.568679188796665,-66.497929901878635,-58.427180614958473,-50.356431328036173,-42.403646856953891,-35.119337109088555,-27.8350273612212,-20.550717613351836,-13.266407865480449,-6.1294006864896033,0.31317214022248635,6.75574496693654,13.198317793652542,19.640890620370463,25.90911677768711,31.479948017670196,37.050779257655165,42.621610497642031,48.192441737630737,53.565690519890559,58.258369202981548,62.951047886074413,67.643726569169147,72.33640525226572,76.813175190801857,80.642210732477338,84.471246274154709,88.3002818158339,92.129317357514921,95.729674730214072,98.727145433806925,101.72461613740153,104.72208684099779,107.71955754459604,110.48135928453362,112.69325935069607,114.90515941686023,117.11705948302622,119.328959549194,121.30380551589577,122.78630145859138,124.26879740128891,125.75129334398815,127.2337892866891,128.48297551538448,129.29886597444082,130.11475643349902,130.93064689255894,131.74653735162065,132.33729120843995,132.55281172014475,132.76833223185125,132.9838527435594,133.19937325526951,133.20151982454968,132.88360043809914,132.56568105165044,132.24776166520354,131.92984227875831,131.41301506443546,130.62707283569139,129.84113060694941,129.05518837820915,128.26924614947072,127.30068881965822,126.10893141942601,124.91717401919567,123.72541661896699,122.53365921874025,121.17659837208721,119.63683042682304,118.09706248156064,116.55729453630022,115.0175265910417,109.65982306654139,107.82469468744554,105.98956630835153,104.02411006008793,101.94073577424551,99.857361488405,97.773987202566516,95.690612916730046,93.493531688752839,91.203415553987156,88.913299419223577,86.623183284462144,84.333067149702742,81.944800120315463,79.483985164059419,77.023170207805578,74.562355251553853,72.10154029530436,69.556845020386717,66.956228211614487,64.3556114028444,61.754994594076663,59.1543777853112,56.482742762047842,53.768495736051712,51.054248710057905,48.340001684066451,45.625754658077355,42.851899476250694,40.045946728323678,37.239993980399142,34.434041232477,31.628088484557182,28.772505501075177,25.893025783271547,23.01354606547055,20.134066347672114,17.2545866298763,14.334086740144455,11.396006222831646,8.45792570552147,5.519845188214096,2.5817646709093434,-0.38999707065860134,-3.3745348881294883,-6.3590727055975851,-9.3436105230627611,-12.32814834052518,-15.340185735473298,-18.361390002819984,-21.382594270163587,-24.403798537504308,-27.425002804841945,-30.468560176205504,-33.5186074310374,-36.568654685866193,-39.618701940691857,-42.66874919551433,-45.736915220035812,-48.809611151055094,-51.882307082071222,-54.955003013083939,-58.027698944093423,-61.115077006104443,-64.205569627751984,-67.296062249395874,-70.386554871036481,-73.477047492673577,-76.579459123709128,-79.683974241882368,-82.788489360051869,-85.893004478217847,-88.99751959638003,-92.111859023253388,-95.227602028922675,-98.343345034588367,-101.45908804025007,-104.57483104590803,-107.69859892639546,-110.82325854391793,-113.94791816143635,-117.07257777895015,-120.19723739646017,-123.32904402672915,-126.46143021754717,-129.59381640836102,-132.72620259917119,-135.85858878997706,-138.99699472402534,-142.13571754655467,-145.27444036907937,-148.41316319159944,-151.55188601411476,-154.69641198019607,-157.84108680108397,-160.98576162196707,-164.13043644284551,-167.27511126371903,0.30369406500092982,0.30369406500092982,0.30369406500092982,0.30369406500092982,0.30369406500092982,0.30369406500092982,0.30369406500092982,0.30369406500092982,0.30369406500092982,0.30369406500092982,0.30369406500092982,0.30369406500092982
DP 68,107.86611841024083,0.0029073894569097182,-185.76220590547649,-180.02941366814747,-174.29662143081683,-168.56382919348445,-162.8310369561506,-157.10024373940749,-151.44741308157273,-145.79458242373622,-140.14175176589822,-134.48892110805855,-128.844315409769,-123.35598549782767,-117.86765558588479,-112.37932567394057,-106.89099576199504,-101.42063046118791,-96.171830961821826,-90.9230314624544,-85.6742319630855,-80.4254324637151,-75.207286559391832,-70.265025907920048,-65.322765256447056,-60.380504604972693,-55.438243953496979,-50.541382205638463,-45.962316216033933,-41.383250226428217,-36.804184236821143,-32.225118247212762,-27.707320601472766,-23.536714098429304,-19.366107595384591,-15.195501092338617,-11.024894589291419,-6.9315589823029757,-3.2025046303019473,0.52654972170030212,4.2556040737037542,7.9846584257083988,11.621219999382626,14.887806088470237,18.154392177559043,21.420978266649012,24.687564355740136,27.848012047635994,30.64286746815732,33.437722888679787,36.232578309203426,39.027433729728187,41.704707516819489,44.029231958028305,46.353756399238272,48.678280840449375,51.0028052816616,53.200942032614151,55.065870528768919,56.930799024924838,58.795727521081808,60.6606560172399,62.393256081209429,63.817085634126968,65.2409151870455,66.664744739965187,68.0885742928859,69.377048999335585,70.384398164992987,71.391747330651413,72.399096496310918,73.406445661971489,74.278207107339227,74.898159124761492,75.518111142184878,76.138063159609345,76.758015177034849,77.244689315169623,77.509230295132951,77.773771275097246,78.038312255062863,78.302853235029517,78.438628627428358,78.381252595708688,78.32387656399024,78.266500532272744,78.209124500556442,78.029297280682968,77.683798082897042,77.3382988851123,76.992799687328656,76.64730048954614,76.187043350277051,75.586524094291448,74.986004838307082,74.385485582323753,73.784966326341689,73.078346648983938,72.254455973531236,71.430565298079657,70.606674622629313,69.782783947180164,66.826766323262433,65.809137042542872,64.7915077618245,63.686472024614012,62.502352681671816,61.31823333873087,60.134113995791218,58.949994652852737,57.687867589898012,56.36191468813476,55.035961786372773,53.710008884612115,52.3840559828528,50.989195465905929,49.543402100651313,48.097608735398211,46.651815370146373,45.206022004896,43.699942117757836,42.153670266303713,40.607398414850977,39.061126563399625,37.514854711949781,35.916311467499867,34.286404596730733,32.656497725963057,31.026590855196918,29.396683984432215,27.721833986826315,26.022783190449136,24.323732394073616,22.624681597699627,20.925630801327191,19.188237227366354,17.432381779130385,15.676526330896102,13.920670882663426,12.1648154344324,10.376480515027163,8.5742253836919833,6.7719702523584866,4.9697151210267485,3.16745998969666,1.3378675046748114,-0.50209467780913053,-2.342056860291311,-4.1820190427716506,-6.0219812252502578,-7.8848263365948128,-9.7552993792826754,-11.625772421968577,-13.496245464652661,-15.366718507334806,-17.256262616896958,-19.1513437204057,-21.0464248239125,-22.9415059274173,-24.836587030920114,-26.747518076438837,-28.66241179472906,-30.5773055130173,-32.492199231303388,-34.407092949587437,-36.335153983792587,-38.266008235868831,-40.196862487942823,-42.127716740014684,-44.058570992084327,-46.0003847529363,-47.944132666619225,-49.887880580299665,-51.8316284939779,-53.775376407653816,-55.7283595220589,-57.682662050614184,-59.636964579167106,-61.5912671077176,-63.545569636265746,-65.507637679792012,-67.470568639869569,-69.433499599944412,-71.396430560016583,-73.359361520086139,-75.3292495116636,-77.299701657964889,-79.270153804263686,-81.24060595055991,-83.211058096853648,-85.187577801928427,-87.164416912569052,-89.141256023206637,-91.118095133841422,-93.094934244473279,-95.077619452170353,-97.060454616464114,-99.043289780754847,-101.0261249450426,-103.00896010932739,0.1919182360280284,0.1919182360280284,0.1919182360280284,0.1919182360280284,0.1919182360280284,0.1919182360280284,0.1919182360280284,0.1919182360280284,0.1919182360280284,0.1919182360280284,0.1919182360280284,0.1919182360280284
DP 69,124.31975346811785,0.0028872720783424768,-198.32263962742525,-191.99306942173337,-185.66349921604004,-179.33392901034503,-173.00435880464849,-166.67724584194303,-160.44596628499946,-154.2146867280544,-147.98340717110793,-141.75212761415969,-135.53092152082519,-129.50111314049133,-123.47130476015613,-117.44149637981947,-111.41168799948156,-105.40377964839074,-99.665974418054319,-93.928169187716549,-88.190363957377258,-82.452558727036561,-76.751879313773756,-71.385335763400761,-66.018792213026373,-60.652248662650734,-55.285705112273867,-49.973705741673939,-45.0435197539849,-40.11333376629463,-35.18314777860305,-30.25296179091022,-25.395669972772321,-20.951449708812632,-16.507229444851671,-12.063009180889521,-7.6187889169261469,-3.2654692826833309,0.65931390171043314,4.5840970861053867,8.50888027050151,12.433663454898806,16.251022862063621,19.638682083386211,23.026341304709941,26.414000526034851,29.801659747360837,33.067787282338394,35.915300569973269,38.762813857609267,41.610327145246352,44.457840432884559,47.172796224803285,49.490074517767454,51.8073528107327,54.124631103698981,56.44190939666646,58.619073584062818,60.426841222682135,62.234608861302348,64.042376499923776,65.850144138546241,67.5138244429619,68.841296427794973,70.16876841262922,71.4962403974644,72.823712382300613,74.006580410628473,74.889112939090779,75.771645467554137,76.6541779960186,77.53671052448405,78.277263922547675,78.754137958428061,79.231011994309512,79.707886030191986,80.1847600660756,80.524970947304382,80.637406459427254,80.749841971551263,80.862277483676237,80.974712995802335,80.957963350760835,80.747432917286673,80.536902483813549,80.326372050341575,80.1158416168706,79.785208301424547,79.292080180421664,78.7989520594199,78.305823938419167,77.812695817419609,77.209609087944528,76.472126194019509,75.734643300095641,74.99716040617291,74.25967751225123,73.422943956735978,72.476510326558227,71.530076696381457,70.583643066205909,69.637209436031441,66.355859894402229,65.2326064695265,64.109353044651868,62.908311185514904,61.63688791392191,60.365464642330068,59.094041370739546,57.822618099150127,56.4835335469948,55.08908860248237,53.694643657971234,52.300198713461327,50.905753768952643,49.453085271435661,47.957381016764081,46.461676762093923,44.965972507424993,43.470268252757421,41.9249624446173,40.346588152763715,38.768213860911487,37.189839569060666,35.611465277211146,33.991229086844854,32.345875124275963,30.700521161708412,29.055167199142364,27.409813236577651,25.7294362126286,24.030200107870421,22.330964003113749,20.631727898358509,18.932491793604669,17.204189922576283,15.461893016330977,13.71959611008727,11.977299203845092,10.23500229760452,8.4687605766144287,6.692256468834227,4.9157523610556213,3.1392482532786947,1.3627441455033533,-0.43335639269215276,-2.23689031515294,-4.0404242376120481,-5.84395816006939,-7.6474920825250852,-9.4669734889791339,-11.291770924414589,-13.116568359848188,-14.941365795280023,-16.766163230710031,-18.603881439992652,-20.445350999267884,-22.28682055854124,-24.128290117812693,-25.969759677082262,-27.821668735687091,-29.6761877924682,-31.530706849247395,-33.38522590602458,-35.239744962799776,-37.102696859479629,-38.967437636995939,-40.832178414510096,-42.69691919202225,-44.561659969532258,-46.433225335992539,-48.305995117567839,-50.178764899140859,-52.051534680711747,-53.924304462280368,-55.802684999470358,-57.681867133785332,-59.561049268098131,-61.440231402408486,-63.31941353671666,-65.203161895440076,-67.087417660385583,-68.9716734253286,-70.855929190269038,-72.740184955207056,-74.628507988922976,-76.517160842747771,-78.405813696570078,-80.294466550390027,-82.1831194042076,-84.075181485942721,-85.967423034643787,-87.859664583342152,-89.751906132037647,-91.64414768073037,-93.539678398922661,-95.4352934866783,-97.330908574431092,-99.226523662181023,-101.12213874992801,0.183019900348819,0.183019900348819,0.183019900348819,0.183019900348819,0.183019900348819,0.183019900348819,0.183019900348819,0.183019900348819,0.183019900348819,0.183019900348819,0.183019900348819,0.183019900348819
DP 70,89.743268588562586,0.0035654809228921262,-205.58642373642397,-199.49654249959443,-193.406661262763,-187.31678002592929,-181.22689878909335,-175.13887578149416,-169.12332441676969,-163.10777305204306,-157.09222168731444,-151.07667032258385,-145.06879930056223,-139.20685624195806,-133.34491318335219,-127.48297012474448,-121.62102706613508,-115.7759445573291,-110.13881095435826,-104.50167735138572,-98.864543748411378,-93.227410145435186,-87.6192584401021,-82.271946552976019,-76.924634665848217,-71.577322778718823,-66.230010891587767,-60.926009024376448,-55.925180571583972,-50.924352118790026,-45.923523665994388,-40.92269521319713,-35.980952448779078,-31.3740323084154,-26.767112168050186,-22.160192027683415,-17.553271887315095,-13.021811740555352,-8.8460956394226287,-4.6703795382883975,-0.49466343715266003,3.6810526639845631,7.7651433716180067,11.482728174963633,15.200312978310745,18.9178977816593,22.6354825850093,26.246242251912836,29.489044183393123,32.731846114874827,35.974648046357991,39.217449977842541,42.339831038235559,45.100944932424177,47.862058826614238,50.6231727208057,53.384286614998565,56.013496623056064,58.294955488498772,60.5764143539429,62.857873219388338,65.139332084835232,67.2798669947317,69.091574901578753,70.903282808427178,72.71499071527694,74.52669862212818,76.191128638907912,77.549669523731438,78.908210408556386,80.266751293382669,81.625292178210316,82.832916495949547,83.760263113437091,84.687609730925928,85.614956348416243,86.542302965907908,87.317732113001625,87.83996164692249,88.362191180844675,88.884420714768254,89.40665024869341,89.778415627100216,89.924481216719727,90.070546806340744,90.216612395963026,90.362677985586828,90.361916819805145,90.162504425361959,89.9630920309202,89.763679636479836,89.564267242041012,89.223530988581359,88.710062605632373,88.196594222684936,87.683125839738892,87.1696574567943,86.5218797547848,85.7256522380057,84.929424721228074,84.133197204451932,83.336969687677325,80.317565853627656,79.269049346437072,78.22053283924798,77.054842170143814,75.783134673510872,74.511427176879479,73.239719680249678,71.968012183621482,70.588578771372681,69.12100412227619,67.6534294731813,66.185854824088082,64.718280174996551,63.1526163157099,61.514450123409922,59.876283931111857,58.238117738815333,56.599951546520664,54.873274467383027,53.08758873599308,51.301903004604988,49.516217273218693,47.730531541834281,45.865648799818558,43.953246653698777,42.040844507580928,40.128442361465,38.216040215350894,36.233329669024208,34.212759730948932,32.192189792875766,30.1716198548045,28.151049916735225,26.068513804066143,23.956141258130273,21.843768712196532,19.731396166264854,17.619023620335305,15.452396668460848,13.262517095727869,11.072637522997043,8.8827579502684682,6.6928783775420309,4.4557734856012745,2.200754925851343,-0.054263633896326539,-2.3092821936416379,-4.5643007533847255,-6.8602238989015722,-9.169782421854153,-11.479340944804232,-13.788899467751955,-16.098457990697227,-18.443314302683614,-20.798418790374825,-23.153523278063528,-25.5086277657497,-27.863732253433298,-30.249231370769895,-32.642329504634226,-35.035427638495953,-37.4285257723549,-39.821623906211258,-42.240899198078274,-44.665727520344483,-47.090555842607785,-49.515384164868365,-51.940212487126061,-54.387646498624839,-56.839070000777255,-59.290493502926552,-61.741917005072992,-64.193340507216377,-66.664491712572016,-69.138461374347557,-71.612431036120142,-74.086400697889545,-76.560370359655948,-79.0516146695751,-81.544778566265762,-84.037942462953012,-86.531106359636752,-89.024270256317209,-91.533240425339216,-94.043492345523987,-96.553744265705518,-99.063996185883752,-101.5742481060587,-104.09886856562443,-106.62424540706265,-109.14962224849715,-111.67499908992787,-114.20037593135488,-116.73972444495875,-119.27943134201128,-121.81913823905985,-124.35884513610458,-126.89855203314535,0.2468158557984641,0.2468158557984641,0.2468158557984641,0.2468158557984641,0.2468158557984641,0.2468158557984641,0.2468158557984641,0.2468158557984641,0.2468158557984641,0.2468158557984641,0.2468158557984641,0.2468158557984641
DP 71,76.609117058845513,0.0026645789357596585,-139.49469837224723,-135.49690791672796,-131.49911746120722,-127.50132700568491,-123.50353655016123,-119.50683928142294,-115.55277671069533,-111.59871413996632,-107.64465156923586,-103.69058899850386,-99.741062879802442,-95.877730207291648,-92.014397534779519,-88.151064862266168,-84.287732189751438,-80.434395755988078,-76.70434752664876,-72.974299297308022,-69.24425106796599,-65.514202838622552,-61.801432043443363,-58.244159788837266,-54.686887534229889,-51.1296152796213,-47.572343025011513,-44.041058503512957,-40.691690078913922,-37.342321654313714,-33.992953229712271,-30.643584805109608,-27.329952734807421,-24.218828924107569,-21.1077051134066,-17.996581302704435,-14.885457492001112,-11.82039682064884,-8.9724934370652818,-6.1245900534805937,-3.276686669894775,-0.428783286307847,2.362601949167856,4.9279119211154612,7.4932218930641667,10.058531865013967,12.623841836964848,15.122484120194178,17.391490452710514,19.660496785227917,21.929503117746403,24.198509450265934,26.3913932731272,28.355906688937083,30.320420104748024,32.284933520560017,34.249446936373076,36.129409072167014,37.78646038177002,39.443511691374077,41.100563000979136,42.757614310585282,44.322972044511339,45.674375212856269,47.025778381202215,48.377181549549142,49.728584717897178,50.982618839972595,52.03442211104057,53.086225382109568,54.138028653179617,55.189831924250704,56.140162180441493,56.902039811470338,57.663917442500171,58.425795073531113,59.18767270456302,59.845575267098347,60.330183428048215,60.814791588999142,61.299399749951043,61.784007910904037,62.163703409974062,62.386027437103863,62.608351464234779,62.830675491366677,63.052999518499732,63.170947812988238,63.147679559613728,63.12441130624029,63.10114305286799,63.077874799496691,62.952104138811528,62.701050605044728,62.449997071278936,62.198943537514346,61.947890003750778,61.597377668375934,61.136935204703128,60.6764927410315,60.216050277360949,59.755607813691554,57.897111497484623,57.2458011029201,56.594490708356773,55.852558703366348,55.028634085960313,54.20470946855545,53.380784851151866,52.556860233749447,51.647716028971757,50.668845242696484,49.68997445642249,48.711103670149768,47.732232883878346,46.673947424906373,45.556962858919164,44.439978292933326,43.322993726948781,42.206009160965579,41.015645788206633,39.776362054956842,38.537078321708421,37.297794588461421,36.058510855215808,34.751958052007716,33.405042789487446,32.058127526968583,30.711212264451252,29.364297001935309,27.956163455130255,26.515065326567214,25.073967198005725,23.632869069445771,22.191770940887295,20.695332619550442,19.172248245274645,17.649163871000471,16.126079496727893,14.602995122456964,13.030183742315847,11.436060116767168,9.841936491220153,8.2478128656748755,6.6536892401312384,5.0151144161805741,3.3596782133076912,1.7042420104365545,0.048805807567236716,-1.6066303953003565,-3.301634705356177,-5.0098288831428386,-6.7180230609275728,-8.4262172387104854,-10.134411416491494,-11.877722245264135,-13.631228659066872,-15.384735072867651,-17.138241486666487,-18.891747900463336,-20.67637948044144,-22.468792719711228,-24.261205958978998,-26.053619198244657,-27.846032437508267,-29.6660583966925,-31.491941915856238,-33.317825435017724,-35.143708954177086,-36.969592473334266,-38.82005616827319,-40.674857814624069,-42.529659460972539,-44.38446110731882,-46.2392627536627,-48.116156993055824,-49.996207555821414,-51.876258118584673,-53.756308681345445,-55.6363592441039,-57.536375791797248,-59.438610991948316,-61.340846192096805,-63.243081392242551,-65.145316592385768,-67.06621489487577,-68.988626612587026,-70.911038330295668,-72.833450048001836,-74.755861765705518,-76.695724008419589,-78.636504873441112,-80.577285738459707,-82.51806660347539,-84.458847468488131,-86.416774861560341,-88.375142075421721,-90.333509289280059,-92.291876503135455,-94.250243716987825,0.19115266992777971,0.19115266992777971,0.19115266992777971,0.19115266992777971,0.19115266992777971,0.19115266992777971,0.19115266992777971,0.19115266992777971,0.19115266992777971,0.19115266992777971,0.19115266992777971,0.19115266992777971
DP 72,266.99874914978795,0.0013404336417714323,-124.50190346269534,-119.59988521104606,-114.69786695939594,-109.79584870774545,-104.89383045609424,-99.995383930151689,-95.236236057290654,-90.477088184429022,-85.717940311566736,-80.9587924387039,-76.21391235336678,-71.740122928248951,-67.266333503130539,-62.792544078011588,-58.318754652892181,-53.874788284334315,-49.798643371926147,-45.722498459517432,-41.646353547108141,-37.570208634698261,-33.541927079476515,-29.94442026305488,-26.34691344663274,-22.749406630210096,-19.15189981378693,-15.620062760909754,-12.547919018603569,-9.4757752762969,-6.4036315339897207,-3.3314877916820627,-0.34020680206817244,2.1928468267847436,4.7259004556381345,7.2589540844920037,9.7920077133463348,12.233300465280264,14.242001269819191,16.250702074358585,18.259402878898392,20.268103683438685,22.179256735573006,23.70021416791986,25.221171600267144,26.742129032614866,28.263086464963081,29.685817667410227,30.770209951550243,31.854602235690685,32.9389945198316,34.02338680397289,35.01334018481608,35.719973285175136,36.426606385534605,37.133239485894514,37.83987258625482,38.459287150028437,38.8487589377114,39.238230725394786,39.627702513078617,40.017174300762782,40.328902973417065,40.459228594878788,40.589554216340908,40.719879837803482,40.850205459266412,40.913390588313817,40.837128126591772,40.760865664870153,40.684603203148924,40.6083407414281,40.475719201830664,40.23842928128407,40.001139360737859,39.763849440192061,39.526559519646646,39.243161870028217,38.882916843113485,38.522671816199178,38.162426789285249,37.80218176237176,37.405088072726372,36.952720518238927,36.50035296375188,36.047985409265287,35.59561785477905,35.114424142654585,34.594229693800422,34.074035244946685,33.553840796093368,33.033646347240456,32.49133915246999,31.922004803773252,31.352670455076918,30.783336106381043,30.214001757685573,29.628007002888143,29.023597783502293,28.419188564116936,27.814779344731949,27.210370125347406,25.335408592264265,24.706305776227726,24.077202960191656,23.439087775765429,22.792818381489308,22.146548987213627,21.500279592938426,20.85401019866363,20.201252249973994,19.543185372525858,18.885118495078185,18.227051617630988,17.568984740184245,16.906303575624666,16.240211775173609,15.574119974723036,14.908028174272902,14.241936373823274,13.57259790030173,12.901094926919251,12.229591953537295,11.558088980155803,10.88658600677482,10.21281801712602,9.53769098346208,8.8625639497986413,8.1874369161357361,7.5123098824733372,6.835611482352367,6.1580669389805136,5.4805223956092242,4.8029778522384712,4.1254333088682387,3.4468001256446414,2.7676427672475752,2.0884854088510862,1.4093280504551566,0.73017069205980278,0.050255417977402954,-0.62998468734750257,-1.3102247926718309,-1.9904648979955524,-2.6707050033186985,-3.3514801956863112,-4.0324583590810237,-4.71343652247513,-5.3944146858686075,-6.0753928492614815,-6.7567588988342049,-7.4382542486882537,-8.1197495985416275,-8.8012449483943751,-9.4827402982464566,-10.164528647884243,-10.846402065548943,-11.528275483212978,-12.210148900876328,-12.89202231853899,-13.574129722182036,-14.256295625084208,-14.938461527985684,-15.620627430886415,-16.302793333786465,-16.98515898229105,-17.667567003363317,-18.349975024434823,-19.032383045505597,-19.714791066575614,-20.397377851304835,-21.079996184549408,-21.762614517793146,-22.445232851036138,-23.12785118427831,-23.810653510799817,-24.493482124062368,-25.176310737324144,-25.859139350585053,-26.541967963845149,-27.224947415675,-27.907943628929285,-28.590939842182657,-29.273936055435112,-29.956932268686685,-30.640147176341387,-31.323379818208675,-32.00661246007509,-32.689845101940641,-33.373077743805283,-34.056465878659445,-34.739862198901193,-35.42325851914196,-36.106654839381775,-36.790051159620532,-37.473647104442918,-38.157248169778633,-38.840849235113232,-39.524450300446865,-40.20805136577939,0.06547467493535733,0.06547467493535733,0.06547467493535733,0.06547467493535733,0.06547467493535733,0.06547467493535733,0.06547467493535733,0.06547467493535733,0.06547467493535733,0.06547467493535733,0.06547467493535733,0.06547467493535733
DP 73,99.542616212626172,0.0035838544805512655,-219.22428412047759,-212.58109816570831,-205.93791221093696,-199.2947262561635,-192.65154030138797,-186.01053788946248,-179.45469447432214,-172.89885105918032,-166.34300764403639,-159.7871642288903,-153.24032372247967,-146.86454018400821,-140.48875664553489,-134.11297310705984,-127.73718956858312,-121.38111357166711,-115.26809973773058,-109.1550859037924,-103.04207206985231,-96.929058235910333,-90.849786726474534,-85.074199326973968,-79.298611927471853,-73.523024527968,-67.7474371284626,-62.022029292122518,-56.647882192374787,-51.273735092625486,-45.899587992874551,-40.525440893121996,-35.219348504042713,-30.298903763859418,-25.378459023674573,-20.458014283488204,-15.537569543300249,-10.703452472658585,-6.2763133640504911,-1.8491742554408794,2.5779648531702262,7.005103961782817,11.328233937079597,15.235322463577887,19.142410990077636,23.04949951657882,26.956588043081492,30.743451319064306,34.116200348218328,37.488949377373757,40.861698406530621,44.234447435688907,47.4729463827315,50.308690007636415,53.144433632542686,55.980177257450407,58.815920882359457,61.506110391917908,63.812561321754011,66.11901225159157,68.425463181430445,70.7319141112707,72.884558676212791,74.678316877073982,76.472075077936523,78.265833278800471,80.059591479665727,81.6944754231232,82.999385134432814,84.304294845743811,85.6092045570562,86.914114268369957,88.058222797548979,88.903696217303221,89.74916963705887,90.5946430568158,91.440116476574147,92.125807142348279,92.54518919072342,92.964571239099769,93.383953287477553,93.803335335856588,94.066589753452675,94.095649035534407,94.124708317617561,94.1537675997021,94.182826881788088,94.06166337037827,93.7372539150093,93.412844459641619,93.088435004275354,92.764025548910624,92.297114268929732,91.656031098989217,91.01494792905,90.373864759112408,89.732781589176156,88.9582900518648,88.036344506421671,87.1143989609801,86.192453415539987,85.270507870101412,81.8877988569258,80.719103894289617,79.550408931654985,78.26891766128719,76.885370557897915,75.501823454510188,74.118276351124038,72.7347292477395,71.249151992836516,69.6800937696003,68.1110355463657,66.541977323132755,64.9729190999014,63.312488337110153,61.584519847403953,59.856551357699558,58.128582867996776,56.400614378295764,54.591580966747209,52.728502996909917,50.865425027074473,49.002347057240804,47.13926908740892,45.204898475055145,43.227751199003585,41.250603922953886,39.273456646906119,37.296309370860158,35.256973678319007,33.184151011032526,31.111328343748077,29.038505676465618,26.965683009185035,24.839023115207446,22.686440839672695,20.533858564140044,18.381276288609424,16.228694013080897,14.029825546574843,11.811119516076893,9.592413485581055,7.3737074550874224,5.1550014245958726,2.8967466248906848,0.623490052286287,-1.6497665203158942,-3.9230230929157619,-6.196279665513444,-8.5031493634704418,-10.821223860165498,-13.139298356858111,-15.457372853548414,-17.7754473502363,-20.121972286881192,-22.476757375662221,-24.831542464440773,-27.186327553216834,-29.541112641990402,-31.919916771290325,-34.304725944507894,-36.689535117722905,-39.074344290935279,-41.459153464145039,-43.864235816979487,-46.273618773519118,-48.683001730055878,-51.092384686590016,-53.501767643121333,-55.928299739665341,-58.357858345733433,-60.787416951798519,-63.21697555786082,-65.6465341639201,-68.090764629082074,-70.537091232604723,-72.983417836124431,-75.429744439640984,-77.876071043154525,-80.334960067429535,-82.795245048165356,-85.255530028897951,-87.715815009627107,-90.176099990353,-92.647731864391034,-95.120283872751031,-97.592835881107888,-100.0653878894615,-102.53793989781209,-105.02058157706043,-107.50375439200357,-109.98692720694308,-112.47010002187898,-114.95327283681112,-117.44619805098287,-119.93937342121409,-122.43254879144141,-124.92572416166497,-127.41889953188472,0.24171092197275726,0.24171092197275726,0.24171092197275726,0.24171092197275726,0.24171092197275726,0.24171092197275726,0.24171092197275726,0.24171092197275726,0.24171092197275726,0.24171092197275726,0.24171092197275726,0.24171092197275726
DP 74,207.41313531844096,0.0037589137145763074,-320.65213156852741,-308.93428573130092,-297.21643989407221,-285.49859405684174,-273.78074821960956,-262.06978025291136,-250.62705183754207,-239.184323422171,-227.74159500679824,-216.29886659142343,-204.88389711319434,-193.99635268838549,-183.10880826357507,-172.22126383876304,-161.33371941394927,-150.50515264889086,-140.40398445368987,-130.30281625848713,-120.20164806328286,-110.1004798680769,-100.09612822354622,-90.963134686325063,-81.83014114910236,-72.697147611878236,-63.56415407465245,-54.567803142300427,-46.527960776568108,-38.488118410834396,-30.448276045099114,-22.408433679362382,-14.542612361473791,-7.66292128051216,-0.783230199549092,6.0964608814154,12.97615196238131,19.650586993667329,25.357375275862459,31.064163558058986,36.770951840256878,42.477740122456126,47.9566991255029,52.524330244594339,57.091961363687147,61.659592482781306,66.227223601876815,70.554334145946171,74.052974827464908,77.551615508985023,81.050256190506389,84.548896872029,87.8041963692809,90.329463113364483,92.854729857449314,95.379996601535353,97.905263345622672,100.19325768927703,101.85570754915013,103.51815740902451,105.18060726890012,106.84305712877692,108.28155500309185,109.19749118836316,110.11342737363577,111.02936355890961,111.94529974418472,112.65589538910079,112.94000855511115,113.22412172112281,113.50823488713554,113.79234805314955,113.89303351786597,113.6530625836597,113.41309164945463,113.17312071525085,112.93314978104827,112.53315470712077,111.86644870014204,111.19974269316447,110.53303668618811,109.86633067921291,109.06299572172668,108.05471410989337,107.04643249806148,106.03815088623068,105.02986927440107,103.90721544960249,102.62982020476539,101.35242495992971,100.07502971509516,98.79763447026194,97.426221380106028,95.939895615295555,94.453569850486332,92.967244085678388,91.4809183208718,89.918590939573008,88.27226025925556,86.625929578939278,84.979598898624317,83.333268218310579,78.09180520363077,76.3244859051064,74.557166606583252,72.742381553651754,70.884650439776621,69.026919325902867,67.169188212030519,65.31145709815948,63.416971827314669,61.492414341847379,59.567856856381461,57.643299370916971,55.718741885453888,53.766068916147191,51.7926144748683,49.81916003359099,47.845705592314971,45.872251151040537,43.877527061519338,41.868622871429075,39.859718681340318,37.850814491253075,35.841910301167367,33.81707492759476,31.782680602997445,29.748286278401693,27.713891953807551,25.679497629214993,23.633273623497786,21.58067961745968,19.528085611423304,17.475491605388566,15.422897599355426,13.361581464393518,11.296065663737144,9.2305498630825316,7.1650340624296449,5.0995182617785195,3.0276034825487175,0.95294619752371623,-1.1217110874995169,-3.19636837252088,-5.2710256575404948,-7.350367325270045,-9.4314858888915527,-11.512604452511212,-13.593723016128909,-15.674841579744774,-17.759395532406497,-19.845094658044474,-21.930793783680379,-24.016492909314344,-26.102192034946295,-28.190428864259388,-30.279402477203138,-32.368376090144778,-34.457349703084347,-36.546323316021791,-38.63719897225225,-40.728550161777108,-42.819901351299876,-44.911252540820321,-47.002603730338649,-49.095416130207084,-51.188538500525496,-53.281660870841669,-55.374783241155505,-57.467905611466982,-59.56217995047993,-61.656657590895378,-63.7511352313083,-65.845612871718814,-67.940090512126815,-70.035561088448077,-72.13117352348074,-74.226785958511016,-76.322398393538649,-78.418010828563752,-80.514389592824244,-82.610853512823326,-84.70731743281965,-86.803781352813161,-88.900245272803915,-90.997602458527581,-93.095032080327982,-95.192461702125627,-97.289891323920713,-99.387320945713128,-101.48539239436458,-103.58349762975978,-105.68160286515209,-107.7797081005412,-109.87781333592731,-111.97666943451485,-114.07554479328115,-116.17442015204428,-118.27329551080419,-120.37217086956088,0.20142966371541654,0.20142966371541654,0.20142966371541654,0.20142966371541654,0.20142966371541654,0.20142966371541654,0.20142966371541654,0.20142966371541654,0.20142966371541654,0.20142966371541654,0.20142966371541654,0.20142966371541654
DP 75,80.269913427077327,0.0034401012693374361,-185.44824965848912,-180.08248822922386,-174.7167267999564,-169.35096537068716,-163.98520394141596,-158.62095713039247,-153.31578100377061,-148.01060487714685,-142.70542875052109,-137.40025262389352,-132.10135463918351,-126.92174253777787,-121.7421304363707,-116.56251833496172,-111.3829062335512,-106.21711395285247,-101.2217678693075,-96.226421785760877,-91.231075702212593,-86.235729618662432,-81.264232054618972,-76.507373420340414,-71.750514786060265,-66.993656151778453,-62.236797517495134,-57.515745666360552,-53.045344004875886,-48.574942343389722,-44.104540681901909,-39.634139020412682,-35.212866189552479,-31.06999316140719,-26.927120133260445,-22.784247105112183,-18.641374076962403,-14.561664684272447,-10.779730127498896,-6.9977955707238708,-3.2158610139473964,0.56607354283051647,4.2707358570319,7.6663055489926721,11.061875240954855,14.45744493291847,17.853014624883468,21.15773141600009,24.14950662084884,27.141281825698972,30.133057030550511,33.124832235403396,36.013242111569255,38.591552093587957,41.169862075608059,43.7481720576295,46.326482039652305,48.790430237580274,50.952875255763665,53.115320273948392,55.277765292134433,57.440210310321831,59.479150612356705,61.229909352099241,62.980668091843135,64.731426831588408,66.482185571334909,68.102382656492566,69.451409431092372,70.800436205693444,72.149462980295922,73.49848975489968,74.712094873950676,75.674198975486689,76.63630307702401,77.598407178562667,78.560511280102645,79.38454660775173,79.978463832138047,80.572381056525813,81.166298280914873,81.7602155053052,82.215546209906933,82.462993859987279,82.710441510068932,82.95788916015205,83.205336810236417,83.315656191418583,83.24044604137579,83.16523589133439,83.090025741294383,83.014815591255726,82.805699977011358,82.432919316094726,82.060138655179458,81.687357994265724,81.314577333353327,80.812626969821551,80.1679075224969,79.523188075173721,78.878468627852172,78.2337491805319,75.683614576929031,74.792504159175834,73.901393741424187,72.894028283232686,71.781477600156876,70.66892691708253,69.556376234009875,68.443825550938712,67.222647243317127,65.912589921499688,64.602532599683855,63.292475277869656,61.982417956057127,60.571796303502445,59.086842840321253,57.601889377141781,56.116935913963964,54.631982450787866,53.054731116780495,51.415946414870234,49.777161712961728,48.138377011054985,46.49959230915006,44.776777291911472,43.003542814651432,41.230308337393268,39.457073860137037,37.683839382882567,35.834671566753343,33.944615463953554,32.05455936115581,30.164503258359943,28.274447155566016,26.316244646059296,24.325229949429588,22.334215252801947,20.343200556176367,18.352185859552858,16.30039019650728,14.222544727127614,12.144699257750041,10.066853788374717,7.9890083190014725,5.8572439573251511,3.7050268990564743,1.5528098407900315,-0.59940721747408321,-2.7516242757359946,-4.9514609420084721,-7.1671714110904308,-9.3828818801699274,-11.59859234924709,-13.814302818321821,-16.0719350122108,-18.341738540719621,-20.611542069225965,-22.8813455977298,-25.151149126231083,-27.457800415664057,-29.773664080689006,-32.0895277457114,-34.405391410731127,-36.721255075748218,-39.069529359433929,-41.424678994166676,-43.779828628896595,-46.134978263623765,-48.4901278983481,-50.873876994235324,-53.262673371884318,-55.651469749530321,-58.040266127173496,-60.429062504813643,-62.843346258473581,-65.2612713411729,-67.679196423869314,-70.097121506562573,-72.515046589252819,-74.955800498139467,-77.3990911830233,-79.84238186790364,-82.285672552780682,-84.728963237654312,-87.193458878987713,-89.659674057794987,-92.125889236599022,-94.592104415399845,-97.058319594197442,-99.544210207646927,-102.03113656604737,-104.51806292444407,-107.00498928283722,-109.49191564122646,-111.99811485663569,-114.5048084347025,-117.01150201276521,-119.51819559082411,-122.0248891688792,0.24433663868149891,0.24433663868149891,0.24433663868149891,0.24433663868149891,0.24433663868149891,0.24433663868149891,0.24433663868149891,0.24433663868149891,0.24433663868149891,0.24433663868149891,0.24433663868149891,0.24433663868149891
DP 76,62.241350604872764,0.0036264688844796912,-165.32866647155296,-160.77925194981853,-156.22983742808219,-151.68042290634364,-147.13100838460326,-142.5826796556656,-138.07669725663828,-133.570714857609,-129.06473245857759,-124.55875005954439,-120.05729692341991,-115.64190063882016,-111.22650435421853,-106.81110806961524,-102.39571178501029,-97.990337878227322,-93.708574561040237,-89.426811243851319,-85.1450479266605,-80.863284609467968,-76.598952131620976,-72.4914988554825,-68.3840455793425,-64.276592303200758,-60.1691390270574,-56.088093858780766,-52.191907442481352,-48.295721026180367,-44.399534609877733,-40.5033481935735,-36.643797474172139,-32.991851345793293,-29.339905217412916,-25.687959089030972,-22.036012960647497,-18.431772790533973,-15.052434714683258,-11.673096638831032,-8.2937585629773132,-4.9144204871220918,-1.5942990626037152,1.4889529579501359,4.5722049785054573,7.6554569990622507,10.738709019620496,13.751199352895304,16.519952012867677,19.288704672841494,22.057457332816753,24.826209992793455,27.513007507268572,29.953936486638685,32.394865466010216,34.835794445383186,37.276723424757563,39.625198336451263,41.729927528307364,43.834656720164887,45.939385912023752,48.044115103884032,50.046891171163615,51.8117734021786,53.576655633194918,55.341537864212611,57.106420095231748,58.761087250072549,60.18684296434099,61.6125986786108,63.038354392882027,64.464110107154667,65.772807036443425,66.864105918039115,67.955404799636185,69.046703681234661,70.138002562834657,71.106935167521215,71.871920893032254,72.636906618544629,73.4018923440586,74.166878069574,74.8057730326534,75.2555288725187,75.705284712385591,76.155040552253823,76.604796392123589,76.926326566307466,77.074372105731968,77.222417645157847,77.370463184585262,77.518508724014168,77.537721230703227,77.399468435723222,77.26121564074478,77.122962845767816,76.984710050792415,76.718451267851279,76.310709635207473,75.902968002565231,75.495226369924623,75.087484737285521,73.23489256623553,72.575403548441585,71.91591453064936,71.133832850867563,70.2408317935538,69.347830736241818,68.4548296789315,67.561828621622936,66.550494005215583,65.442338988633836,64.334183972053808,63.226028955475591,62.117873938899109,60.896442647284793,59.59128355116502,58.286124455047158,56.980965358931158,55.675806262817019,54.263044982082796,52.778547216489656,51.294049450898569,49.809551685309451,48.325053919722237,46.739067697164387,45.09218686557692,43.445306033991521,41.798425202408204,40.15154437082694,38.4095618575411,36.616369363474575,34.823176869410311,33.029984375348185,31.236791881288234,29.355000762179305,27.430549805168511,25.506098848160008,23.581647891153747,21.657196934149781,19.650623539761604,17.608853706167285,15.567083872575337,13.525314038985826,11.483544205398619,9.3659755933730082,7.219654732343832,5.073333871317133,2.9270130102929959,0.78069214927128938,-1.4353684527234567,-3.6746765139574857,-5.9139845751888052,-8.15329263641754,-10.392600697643587,-12.695952771055664,-15.017899048456277,-17.33984532585411,-19.661791603249196,-21.983737880641463,-24.364479415218153,-26.75992045876243,-29.155361502303844,-31.550802545842295,-33.946243589377836,-36.395754229204684,-38.856734796814045,-41.317715364420252,-43.778695932023474,-46.239676499623513,-48.750573089173386,-51.270278943548874,-53.789984797921043,-56.309690652289987,-58.829396506655662,-61.395578147168656,-63.968399687750043,-66.541221228328212,-69.114042768902877,-71.686864309474231,-74.303210762657457,-76.924393774352112,-79.545576786043071,-82.166759797730165,-84.787942809413607,-87.450902547041309,-90.117250013664659,-92.783597480284257,-95.449944946900416,-98.116292413513122,-100.8228343323993,-103.53149214868773,-106.24014996497206,-108.94880778125227,-111.65746559752817,-114.40613180850104,-117.15582426360407,-119.90551671870294,-122.65520917379742,-125.40490162888779,0.27029997283324619,0.27029997283324619,0.27029997283324619,0.27029997283324619,0.27029997283324619,0.27029997283324619,0.27029997283324619,0.27029997283324619,0.27029997283324619,0.27029997283324619,0.27029997283324619,0.27029997283324619
DP 77,169.5775266382438,0.00534106972761662,-421.60939784881708,-407.03971982458603,-392.47004180035225,-377.90036377611517,-363.33068575187616,-348.76824328386232,-334.48799024443662,-320.20773720500858,-305.92748416557754,-291.64723112614365,-277.39638066106113,-263.70418466703507,-250.01198867300707,-236.31979267897674,-222.62759668494382,-208.99852478907113,-196.14799139262945,-183.2974579961849,-170.44692459973822,-157.59639120328887,-144.85099459301787,-133.0518389960279,-121.2526833990358,-109.45352780204144,-97.654372205044837,-86.006323880491038,-75.416037889319611,-64.825751898146123,-54.235465906970347,-43.645179915792333,-33.251568098068716,-23.972455656510384,-14.693343214949873,-5.4142307733872688,3.864881668177452,12.90612976393078,20.826004524728258,28.745879285527813,36.665754046329432,44.585628807133062,52.233939396460258,58.795980465598383,65.358021534738583,71.920062603880751,78.482103673024852,84.748428239814473,89.9961613200618,95.243894400311163,100.49162748056251,105.73936056081577,110.67768956455203,114.68779464064411,118.69789971673825,122.70800479283427,126.71810986893222,130.41548428047528,133.2883761910428,136.16126810161228,139.03416001218352,141.90705192275666,144.47330821635151,146.32407174248067,148.17483526861153,150.02559879474413,151.87636232087885,153.43448986427666,154.38482647113335,155.33516307799209,156.28549968485243,157.23583629171461,157.91361492654107,158.08520710973289,158.25679929292664,158.42839147612202,158.59998365931938,158.52325804556017,158.03266317786586,157.54206831017328,157.05147344248269,156.56087857479392,155.84856272720512,154.80366017043755,153.75875761367203,152.71385505690805,151.66895250014613,150.42970325148306,148.92751003851421,147.42531682554733,145.92312361258223,144.42093039961898,142.75126096805283,140.87689486262991,139.00252875720903,137.12816265178986,135.25379654637271,133.23736382327496,131.06390727467928,128.89045072608562,126.71699417749386,124.54353762890405,117.42933394882117,115.01834333747381,112.60735272612845,110.09841131784837,107.50084599645278,104.90328067505935,102.30571535366794,99.7081500322785,97.030811531319856,94.288202694304942,91.545593857292289,88.802985020281739,86.060376183273249,83.253553843663667,80.399268294387412,77.544982745113415,74.6906971958416,71.836411646572131,68.9309938133304,65.9914869852616,63.051980157195082,60.11247332913085,57.172966501068935,54.193147962451242,51.189141787851959,48.185135613255078,45.181129438660619,42.177123264068534,39.141623333519128,36.089164768713147,33.036706203909731,29.984247639108759,26.931789074310164,23.854924756666392,20.76630917923061,17.677693601797529,14.589078024367053,11.500462446939245,8.3930654025451261,5.2776189044179924,2.1621724062935521,-0.95327409182805212,-4.068720589946996,-7.1985392843438891,-10.333809688841045,-13.469080093335362,-16.604350497826715,-19.739620902315288,-22.885847655026961,-26.035726661891832,-29.185605668753592,-32.3354846756124,-35.48536368246814,-38.643583070661151,-41.804223961606695,-44.9648648525491,-48.1255057434884,-51.2861466344244,-54.45314820710324,-57.621740025367536,-60.790331843628572,-63.958923661886153,-67.127515480140417,-70.30099141918258,-73.475503439801415,-76.650015460416782,-79.824527481028667,-82.999039501637057,-86.177334543637755,-89.356297219713611,-92.535259895785671,-95.714222571854151,-98.893185247918865,-102.07520596111146,-105.25766356978161,-108.44012117844795,-111.62257878711041,-114.80503639576906,-117.98984432782018,-121.17491343159485,-124.3599825353653,-127.54505163913147,-130.73012074289349,-133.91747808507836,-137.10502098348698,-140.29256388189148,-143.4801067802922,-146.66764967868858,-149.8569203819527,-153.04628203950134,-156.23564369704545,-159.42500535458478,-162.6143670121194,-165.8055324112317,-168.99674407760963,-172.18795574398271,-175.379167410351,-178.57037907671443,0.30686178240251522,0.30686178240251522,0.30686178240251522,0.30686178240251522,0.30686178240251522,0.30686178240251522,0.30686178240251522,0.30686178240251522,0.30686178240251522,0.30686178240251522,0.30686178240251522,0.30686178240251522
DP 78,206.51874353395297,0.0027691547972533651,-235.85083086063963,-227.24257186755966,-218.63431287447867,-210.02605388139625,-201.41779488831239,-192.81457007496195,-184.40768017462403,-176.000790274285,-167.59390037394439,-159.18701047360256,-150.80044249928818,-142.79999496122937,-134.7995474231694,-126.79909988510823,-118.7986523470459,-110.84139155392781,-103.41677272455621,-95.992153895183336,-88.567535065809338,-81.142916236434019,-73.789215810988182,-67.073787724211229,-60.3583596374332,-53.642931550653977,-46.927503463873656,-40.3122097298784,-34.397864037238037,-28.483518344596597,-22.569172651954048,-16.65482695931043,-10.868072071815547,-5.80433978685569,-0.74060750189478208,4.3231247830671755,9.3868570680301815,14.300008452700013,18.50327031707991,22.706532181460808,26.909794045842741,31.113055910225658,35.149067211142288,38.516068353833987,41.883069496526723,45.25007063922039,48.617071781915051,51.807376680620095,54.389053760455859,56.970730840292582,59.552407920130243,62.13408499996887,64.536854645211534,66.402895222451008,68.268935799691477,70.13497637693284,72.001016954175213,73.692465689731492,74.923620841708,76.154775993685391,77.385931145663761,78.617086297643027,79.683305703477885,80.364669838337576,81.04603397319822,81.727398108059674,82.40876224292208,82.938756910495115,83.1543644359704,83.369971961446637,83.585579486923663,83.801187012401726,83.881448209989813,83.710348286328539,83.5392483626682,83.36814843900882,83.197048515350218,82.907752743452718,82.4214609119555,81.9351690804593,81.448877248963882,80.96258541746937,80.375273687049571,79.636429721112847,78.897585755177175,78.158741789242342,77.419897823308361,76.596400205823741,75.658369294697849,74.720338383572908,73.782307472448863,72.844276561325771,71.8365822323254,70.743742262661,69.650902292997486,68.5580623233349,67.465222353673283,66.3160059603302,65.104477661073631,63.892949361817919,62.681421062563331,61.469892763309581,57.610689003106053,56.309312989028477,55.007936974951889,53.671272028786191,52.302678365864061,50.934084702942933,49.565491040022806,48.196897377103767,46.800946972658188,45.3826133095477,43.964279646438236,42.545945983329808,41.127612320222369,39.688327521778589,38.233556757160464,36.778785992543405,35.324015227927418,33.869244463312512,32.398605503356059,30.917387496525841,29.436169489696713,27.954951482868662,26.473733476041794,24.980616315555796,23.480359482919511,21.980102650284358,20.479845817650439,18.979588985017624,17.470486363876553,15.956620497214036,14.442754630552823,12.928888763892802,11.415022897233962,9.8946278276658859,8.3710889763795837,6.8475501250945836,5.3240112738108545,3.8004724225284274,2.2721385254332329,0.74174954395728787,-0.78863943751735044,-2.31902841899061,-3.8494174004625825,-5.38331975065174,-6.9185548037448275,-8.4537898568365275,-9.9890249099268011,-11.524259963015718,-13.062073438527719,-14.600746420675174,-16.139419402821115,-17.678092384965627,-19.216765367108643,-20.757343751016862,-22.298475339320365,-23.839606927622373,-25.380738515922822,-26.921870104221728,-28.464429795575661,-30.007346529565314,-31.550263263553397,-33.093179997539828,-34.636096731524631,-36.180109866683118,-37.724355584347755,-39.268601302010673,-40.812847019671864,-42.357092737331385,-43.902201912686664,-45.447463472529684,-46.992725032370913,-48.5379865922104,-50.083248152048007,-51.629252224818124,-53.175362378883584,-54.721472532947317,-56.267582687008975,-57.813692841068935,-59.360375664647364,-60.907122124184745,-62.453868583720094,-64.000615043253376,-65.547361502784611,-67.094772551716716,-68.642237493065124,-70.1897024344116,-71.7371673757562,-73.284632317098712,-74.832575029508916,-76.380542892516189,-77.928510755521273,-79.476478618524027,-81.0244464815245,-82.57297205841715,-84.121511941070452,-85.67005182372138,-87.21859170637,-88.767131589016174,0.14861946901247303,0.14861946901247303,0.14861946901247303,0.14861946901247303,0.14861946901247303,0.14861946901247303,0.14861946901247303,0.14861946901247303,0.14861946901247303,0.14861946901247303,0.14861946901247303,0.14861946901247303
DP 79,76.309954661770988,0.0024698636972226638,-128.98004514361523,-125.28652245989758,-121.59299977617832,-117.89947709245779,-114.20595440873565,-110.513439105723,-106.86021203130541,-103.20698495688633,-99.55375788246613,-95.90053080804438,-92.251484221512484,-88.681867695202,-85.112251168890239,-81.542634642577369,-77.9730181162633,-74.4126147619841,-70.965841690603114,-67.519068619220732,-64.0722955478373,-60.625522476452517,-57.19467395487807,-53.9071478868143,-50.619621818749408,-47.332095750683408,-44.044569682616213,-40.781000966694194,-37.685135527376652,-34.589270088057987,-31.493404648738153,-28.397539209417243,-25.334624613173805,-22.458433537409245,-19.58224246164362,-16.706051385876908,-13.82986031010911,-10.996150395669124,-8.3627111077035252,-5.7292718197368862,-3.0958325317691981,-0.46239324380047936,2.1189108975256281,4.4916719883414835,6.864433079158359,9.2371941699762417,11.609955260795125,13.92120187155184,16.020562689016714,18.119923506482586,20.219284323949442,22.31864514141726,24.347745742211252,26.166063036551495,27.984380330892751,29.802697625234963,31.621014919578126,33.361269555018239,34.895719952050413,36.430170349083539,37.964620746117689,39.499071143152754,40.948834083065194,42.200990288105885,43.453146493147564,44.70530269819016,45.957458903233729,47.119653369158982,48.0950016066732,49.070349844188343,50.045698081704451,51.021046319221533,51.902603946729265,52.609976479877957,53.317349013027687,54.024721546178334,54.732094079329919,55.343324325518,55.7943150034394,56.245305681361756,56.6962963592851,57.147287037209466,57.501227005661512,57.709588616569718,57.91795022747884,58.126311838389029,58.334673449300176,58.446437761048919,58.427509460875477,58.408581160703093,58.389652860531655,58.370724560361268,58.25688825016217,58.027051267525735,57.797214284890245,57.567377302255807,57.337540319622406,57.015569212431437,56.591763818388365,56.167958424346317,55.744153030305434,55.320347636265566,53.606683614400524,53.005978750052762,52.405273885706094,51.720536084172537,50.95976696939649,50.198997854621545,49.438228739847816,48.67745962507513,47.837625532381878,46.933100553515956,46.0285755746512,45.124050595787637,44.21952561692521,43.241281601092986,42.208548389586966,41.175815178082225,40.143081966578649,39.110348755076373,38.009460894579561,36.863135527744852,35.716810160911457,34.570484794079327,33.42415942724849,32.21531908080744,30.968968801163367,29.722618521520591,28.476268241879204,27.229917962239146,25.926642652004208,24.592714574431785,23.25878649686079,21.924858419291208,20.590930341723023,19.205512094217244,17.795301562385873,16.385091030556008,14.974880498727623,13.564669966900775,12.108163556844314,10.631815430985331,9.1554673051278623,7.6791191792720213,6.2027710534176883,4.6850125914584551,3.1515462207502267,1.6180798500436164,0.084613479338694231,-1.4488528913646286,-3.0192045249763217,-4.6018517110809514,-6.1844988971837926,-7.7671460832849375,-9.3497932693843211,-10.96519808505102,-12.590113579788952,-14.215029074525084,-15.839944569259403,-17.464860063991875,-19.118830013000863,-20.780063918859756,-22.441297824716759,-24.102531730571823,-25.76376563642496,-27.450793611217041,-29.143293350701615,-30.835793090184112,-32.52829282966465,-34.220792569143129,-35.936270069059859,-37.655802723391311,-39.375335377720575,-41.094868032047749,-42.81440068637275,-44.554600380814954,-46.297752732811432,-48.040905084805779,-49.78405743679788,-51.527209788787758,-53.289053451078409,-55.0529741219251,-56.8168947927693,-58.580815463610989,-60.344736134450315,-62.126137661309748,-63.908956733499529,-65.691775805686888,-67.474594877872022,-69.25741395005474,-71.056588249416521,-72.856623512933865,-74.6566587764485,-76.456694039960425,-78.256729303469569,-80.072838924992979,-81.889360865371941,-83.705882805748118,-85.522404746121467,-87.33892668649213,0.17732853845147509,0.17732853845147509,0.17732853845147509,0.17732853845147509,0.17732853845147509,0.17732853845147509,0.17732853845147509,0.17732853845147509,0.17732853845147509,0.17732853845147509,0.17732853845147509,0.17732853845147509
DP 80,108.09584778552907,0.0044136618770774273,-282.32090079392714,-273.603936147204,-264.88697150047841,-256.17000685375018,-247.45304220701956,-238.73912223807764,-230.14394585414036,-221.54876947020048,-212.95359308625851,-204.35841670231414,-195.77576554248847,-187.43109600876471,-179.08642647503871,-170.74175694131074,-162.39708740758067,-154.07977412455097,-146.09985804784682,-138.11994197114043,-130.14002589443177,-122.160109817721,-114.22686725978139,-106.71369078243808,-99.200514305092909,-91.687337827745722,-84.174161350396417,-76.730103672088774,-69.769882813636343,-62.809661955182037,-55.849441096725677,-48.889220238267434,-42.022265046865378,-35.683821179177166,-29.34537731148707,-23.006933443795045,-16.668489576101159,-10.447651881343482,-4.7812496397335629,0.88515260187820077,6.5515548434917967,12.217957085107201,17.743608920648693,22.706252479944908,27.668896039242863,32.631539598542616,37.594183157844121,42.395345354727574,46.64028718620964,50.885229017693383,55.130170849178946,59.375112680666149,63.441201330696956,66.9707236741928,70.500246017690344,74.029768361189539,77.559290704690554,80.896608854911278,83.7272002528976,86.557791650885633,89.388383048875284,92.218974446866667,94.848381171985153,97.008350654997884,99.168320138012263,101.32828962102833,103.48825910404604,105.44249681513355,106.96943947805772,108.49638214098339,110.0233248039108,111.55026746683983,112.87118128829091,113.80946455440285,114.74774782051654,115.68603108663181,116.62431435274885,117.36014114628934,117.75853538249218,118.15692961869664,118.5553238549027,118.9537180911105,119.15656928068213,119.06610127956245,118.97563327844462,118.88516527732844,118.79469727621395,118.51833543243225,117.99046602012579,117.46259660782094,116.93472719551787,116.40685778321675,115.70483099846255,114.7899415448112,113.87505209116144,112.96016263751351,112.04527318386734,110.96942084212883,109.71565894736398,108.46189705260088,107.20813515783968,105.95437326308011,101.45855080930438,99.910973651319338,98.363396493336069,96.683310163271443,94.883332196578479,93.083354229887362,91.2833762631982,89.483398296510885,87.565203428021377,85.550283608240974,83.535363788462575,81.520443968686237,79.505524148911746,77.386217042025649,75.189752398266251,72.993287754508884,70.796823110753508,68.60035846700022,66.312601309421467,63.963981037781721,61.615360766144022,59.266740494508575,56.9181202228752,54.490375503206188,52.015154918088143,49.539934332972386,47.064713747858853,44.589493162747523,42.046267554683723,39.466422868429774,36.886578182178305,34.306733495929166,31.726888809682443,29.089049517901991,26.423286085427041,23.757522652954602,21.091759220484615,18.425995788017161,15.711125853078951,12.975209611140771,10.239293369205102,7.50337712727212,4.767460885341646,1.9902294020265006,-0.8026739183860736,-3.5955772387959737,-6.3884805592030842,-9.1813838796075586,-12.008856183180951,-14.847851916808452,-17.686847650432988,-20.525843384054742,-23.364839117673561,-26.232633311708522,-29.108788700321565,-31.984944088931609,-34.861099477538637,-37.737254866142685,-40.637334620685309,-43.543395749379627,-46.44945687807094,-49.355518006758963,-52.2615791354439,-55.187506991926313,-58.117649230402428,-61.047791468875133,-63.977933707344611,-66.908075945810637,-69.854746714677745,-72.804334466823889,-75.753922218966352,-78.703509971105532,-81.653097723241046,-84.6166080146122,-87.582107390553645,-90.547606766491569,-93.513106142425727,-96.478605518356261,-99.4558060152954,-102.4343067596766,-105.41280750405376,-108.39130824842681,-111.36980899279595,-114.35879101123287,-117.34862296980165,-120.3384549283666,-123.32828688692771,-126.31811884548505,-129.31708668026744,-132.31653544153454,-135.31598420279698,-138.31543296405505,-141.31488172530871,-144.32313270082838,-147.33160945947807,-150.34008621812328,-153.34856297676367,-156.35703973539964,0.29117792435522916,0.29117792435522916,0.29117792435522916,0.29117792435522916,0.29117792435522916,0.29117792435522916,0.29117792435522916,0.29117792435522916,0.29117792435522916,0.29117792435522916,0.29117792435522916,0.29117792435522916
DP 81,143.86615994340954,0.0020747784301486461,-152.62584139273017,-147.57422483128909,-142.52260826984693,-137.47099170840352,-132.41937514695903,-127.36995655875943,-122.40625975817271,-117.44256295758473,-112.47886615699584,-107.51516935640566,-102.56044711734788,-97.77624324399487,-92.992039370641081,-88.207835497286368,-83.423631623930632,-78.658833095999455,-74.133369607272442,-69.607906118544491,-65.082442629815532,-60.556979141085584,-56.064160900443866,-51.865152978273393,-47.666145056102039,-43.467137133929761,-39.268129211756595,-35.116627189163552,-31.297670055887362,-27.478712922610331,-23.6597557893324,-19.840798656053583,-16.084606545457856,-12.684086851818869,-9.2835671581790251,-5.88304746453833,-2.482527770896779,0.840758529883307,3.7999403784903505,6.7591222270982314,9.71830407570693,12.677485924316453,15.546756404432886,18.056377161312057,20.565997918192053,23.075618675072867,25.585239431954452,27.994820292057781,30.059815082862766,32.124809873668511,34.189804664475069,36.254799455282374,38.21264263984051,39.849026954413077,41.485411268986411,43.121795583560527,44.758179898135424,46.283500056574418,47.51601089505084,48.748521733528044,49.981032572005972,51.213543410484668,52.334199949480457,53.1938595988172,54.053519248154736,54.913178897492912,55.7728385468319,56.522694756363684,57.044494474373991,57.566294192384994,58.088093910396715,58.609893628409225,59.026354020019681,59.247181389228395,59.468008758437854,59.688836127648116,59.909663496859054,60.031520708717949,59.988425163717913,59.945329618718574,59.902234073720052,59.859138528722255,59.724810580150972,59.453631870372369,59.182453160594584,58.911274450817494,58.640095741041137,58.286274679530258,57.820641539449539,57.35500839936963,56.889375259290439,56.42374211921198,55.884445603383845,55.255114525473729,54.62578344756443,53.9964523696559,53.367121291748106,52.673102658267346,51.907585965608163,51.14206927294979,50.376552580292213,49.611035887635438,47.034366271561396,46.156801551848382,45.279236832136164,44.353773944929685,43.384973758106959,42.416173571285064,41.447373384464022,40.478573197643833,39.469310944564533,38.426942669179148,37.38457439379458,36.342206118410928,35.299837843028108,34.223670169888159,33.122519777579022,32.021369385270809,30.920218992963477,29.81906860065709,28.689977640774494,27.542259195679328,26.394540750585097,25.246822305491822,24.099103860399506,22.928511387204225,21.744194151215094,20.559876915226962,19.375559679239817,18.191242443253643,16.988366280795713,15.775496580359615,14.562626879924544,13.34975717949048,12.136887479057393,10.909083350015017,9.6740883610327035,8.4390933720514862,7.2040983830713383,5.9691033940922757,4.7221791810201212,3.4701422822569148,2.2181053834948092,0.96606848473386142,-0.28596841402599765,-1.5474725623183925,-2.8125678597230293,-4.0776631571265085,-5.3427584545287718,-6.6078537519298974,-7.8804227807859677,-9.1554831476495657,-10.430543514511873,-11.705603881372992,-12.980664248232834,-14.261602160751412,-15.544246529176622,-16.826890897600542,-18.109535266023176,-19.392179634444506,-20.679438142428268,-21.967850239818226,-23.256262337206859,-24.544674434594096,-25.833086531979966,-27.125125988992728,-28.417934927484165,-29.710743865974194,-31.003552804462785,-32.296361742949905,-33.592031576646107,-34.888206306014972,-36.18438103538233,-37.480555764748189,-38.776730494112471,-40.075215299491958,-41.374030140683729,-42.672844981874015,-43.971659823062694,-45.270474664249775,-46.571110856124768,-47.871949439425258,-49.172788022724014,-50.47362660602105,-51.774465189316366,-53.076954017230641,-54.379576665624128,-55.682199314015989,-56.984821962406187,-58.287444610794758,-59.591386313501424,-60.895397453241742,-62.199408592980177,-63.503419732716729,-64.807430872451263,-66.112739276243815,-67.418080955791723,-68.723422635337585,-70.0287643148816,-71.334105994423581,0.12576461294297345,0.12576461294297345,0.12576461294297345,0.12576461294297345,0.12576461294297345,0.12576461294297345,0.12576461294297345,0.12576461294297345,0.12576461294297345,0.12576461294297345,0.12576461294297345,0.12576461294297345
DP 82,68.628683421995817,0.0016525637707638819,-80.531419867418336,-78.273413853977,-76.015407840534721,-73.7574018270915,-71.499395813647368,-69.241963677175377,-67.006912959629418,-64.771862242082619,-62.5368115245349,-60.301760806986245,-58.069098309368876,-55.881812441936908,-53.69452657450401,-51.507240707070423,-49.319954839636068,-47.137943307173266,-45.020982570750981,-42.904021834327828,-40.787061097903909,-38.670100361479108,-36.56228675537043,-34.536798186710904,-32.511309618050625,-30.485821049389617,-28.460332480727846,-26.448658318931528,-24.533686049801275,-22.618713780670319,-20.7037415115386,-18.788769242406133,-16.892885347827832,-15.105170111896596,-13.31745487596465,-11.529739640032004,-9.7420244040986379,-7.9790532827697209,-6.3327343239173048,-4.6864153650641889,-3.0400964062103841,-1.3937774473558888,0.22198538390098027,1.7155222606652965,3.20905913743029,4.7025960141959624,6.1961328909623044,7.6533675104764258,8.9855594966397163,10.317751482803672,11.649943468968306,12.982135455133585,14.272548747105811,15.43762437690974,16.602700006714308,17.767775636519552,18.932851266325422,20.051122483617753,21.045998641007639,22.040874798398129,23.0357509557893,24.030627113181112,24.974274417046434,25.798386115279563,26.622497813513331,27.446609511747749,28.270721209982813,29.039894062476932,29.694961560622051,30.350029058767774,31.005096556914157,31.66016405506122,32.257375060467105,32.74713673116463,33.236898401862774,33.7266600725616,34.216421743261066,34.646243036636683,34.976162190303889,35.306081343971755,35.636000497640268,35.965919651309449,36.234655187463964,36.411613851560489,36.588572515657667,36.765531179755484,36.942489843854005,37.05783805404505,37.089829574010871,37.12182109397736,37.153812613944545,37.185804133912391,37.156527105064526,37.052365007403694,36.948202909743628,36.844040812084188,36.73987871442548,36.575488133296552,36.34452802983467,36.113567926373435,35.882607822912981,35.651647719453223,34.665897197209574,34.317788787547613,33.969680377886391,33.565174282404072,33.10964069388919,32.654107105375,32.198573516861607,31.743039928348988,31.233707034243974,30.680355601896416,30.127004169549647,29.573652737203673,29.020301304858542,28.416073621380043,27.774240915954696,27.132408210530233,26.490575505106577,25.848742799683762,25.159185025082923,24.437809785859304,23.716434546636595,22.995059307414756,22.273684068193806,21.507874360247307,20.71540329906674,19.922932237887075,19.130461176708348,18.33799011553053,17.504432303324425,16.648750258478163,15.793068213632893,14.937386168788573,14.081704123945174,13.188267677524646,12.276652657221376,11.36503763691913,10.4534226166179,9.5418075963177,8.5956913812062989,7.6347884738779337,6.6738855665506209,5.7129826592244095,4.7520797518992293,3.759796362911811,2.7556096234853964,1.7514228840600869,0.74723614463593,-0.25695059478713667,-1.2895750548634644,-2.3316791135519481,-3.3737831722392113,-4.4158872309253185,-5.4579912896102263,-6.5258043915586219,-7.6010817228466276,-8.67635905413339,-9.75163638541892,-10.826913716703192,-11.925416065607758,-13.02972494332305,-14.13403382103707,-15.238342698749754,-16.34265157646113,-17.467970586202082,-18.597746531330035,-19.727522476456588,-20.857298421581774,-21.987074366705571,-23.135927642482645,-24.288147718163167,-25.44036779384221,-26.592587869519836,-27.744807945195952,-28.914508597392775,-30.086706663637813,-31.258904729881387,-32.4311027961234,-33.603300862363916,-34.791611383001865,-35.981712345567644,-37.171813308131725,-38.361914270694108,-39.552015233254863,-40.757396696514824,-41.9640172754332,-43.17063785434997,-44.377258433265176,-45.58387901217877,-46.805020522487759,-48.02692643681938,-49.248832351149126,-50.470738265477067,-51.692644179803047,-52.928919609000921,-54.165563626601042,-55.402207644199294,-56.638851661795549,-57.875495679389985,0.12113685580644719,0.12113685580644719,0.12113685580644719,0.12113685580644719,0.12113685580644719,0.12113685580644719,0.12113685580644719,0.12113685580644719,0.12113685580644719,0.12113685580644719,0.12113685580644719,0.12113685580644719
DP 83,259.58830661239404,0.0021919315556014,-201.79262180430786,-193.91506087958567,-186.03749995486277,-178.15993903013876,-170.28237810541378,-162.41041844555178,-154.75691023315221,-147.10340202075176,-139.44989380835003,-131.7963855959477,-124.16528111833064,-116.95985183691779,-109.75442255550392,-102.54899327408926,-95.343563992673708,-88.185058059023518,-81.605279328162268,-75.025500597300237,-68.4457218664372,-61.865943135573282,-55.36168340840382,-49.537101852640255,-43.712520296875873,-37.887938741110652,-32.063357185344586,-26.342751982588041,-21.349989113275953,-16.357226243963066,-11.364463374649366,-6.371700505334859,-1.5075023023871419,2.62815468975762,6.763811681903162,10.899468674049485,15.03512566619658,19.024194755635857,22.322198671930103,25.620202588225105,28.918206504520874,32.216210420817369,35.357555045766823,37.8722551015187,40.386955157271323,42.901655213024675,45.416355268778773,47.77239085178703,49.581908807714861,51.391426763643345,53.20094471957259,55.010462675502495,56.666481956934113,57.86199941132223,59.057516865711094,60.253034320100532,61.448551774490738,62.501366626135024,63.177960620208239,63.8545546142821,64.531148608356574,65.207742602431821,65.756250068065484,66.005884931707271,66.255519795349656,66.5051546589928,66.754789522636614,66.893001330984234,66.799792783921944,66.7065842368602,66.6133756897991,66.520167142738714,66.332721948686569,65.970263293833952,65.607804638982017,65.245345984130836,64.8828873292802,64.442733106398222,63.873084311764273,63.303435517131049,62.7337867224985,62.16413792786657,61.531899529447593,60.805775246338335,60.07965096322971,59.3535266801217,58.627402397014471,57.851915104145156,57.009641464928109,56.167367825711743,55.325094186496045,54.482820547281086,53.602364644509869,52.675240728718947,51.748116812928671,50.820992897139128,49.893868981350344,48.937733840039257,47.949533082693726,46.961332325348877,45.973131568004717,44.984930810661325,41.911907680142569,40.880338497421036,39.84876931470022,38.8012350399426,37.739255870668323,36.67727670139476,35.615297532121964,34.5533183628499,33.47974506350743,32.396685458491213,31.313625853475727,30.230566248461006,29.147506643447059,28.056130506911192,26.958607232104974,25.861083957299545,24.763560682494866,23.666037407691014,22.562612669639833,21.455253529788607,20.34789438993824,19.240535250088655,18.133176110239912,17.021666055821189,15.907665389885047,14.793664723949741,13.679664058015305,12.565663392081722,11.448761202309429,10.330296611354344,9.2118320204001787,8.0933674294469089,6.974902838494498,5.85441514746744,4.7329533428899984,3.6114915383135164,2.4900297337379618,1.3685679291633555,0.24569129988281829,-0.87779170194689637,-2.0012747037756586,-3.1247577056034146,-4.2482407074302282,-5.3727239848204071,-6.4975866901198005,-7.622449395418208,-8.7473121007155559,-9.8721748060119019,-10.997760391346699,-12.123586945803922,-13.249413500260038,-14.375240054715119,-15.501066609169097,-16.62743448336337,-17.753959521502843,-18.880484559641204,-20.007009597778438,-21.133534635914547,-22.26048578269134,-23.387543461661938,-24.514601140631395,-25.641658819599623,-26.768716498566683,-27.896131244599584,-29.023621736221212,-30.151112227841626,-31.278602719460782,-32.406093211078733,-33.533897374670993,-34.661756895628073,-35.789616416583804,-36.917475937538264,-38.045335458491429,-39.173511385099161,-40.301732515931441,-41.429953646762378,-42.558174777591958,-43.6863959084202,-44.814874616812887,-45.943381947638763,-47.071889278463189,-48.200396609286031,-49.32890394010748,-50.457778355696036,-51.586682538664085,-52.715586721630814,-53.844490904595979,-54.973395087559794,-56.102560266397468,-57.231739184455236,-58.3609181025114,-59.490097020565919,-60.61927593861877,-61.748787901901345,-62.878308408032233,-64.007828914161323,-65.137349420288757,-66.266869926414458,0.10820628058976284,0.10820628058976284,0.10820628058976284,0.10820628058976284,0.10820628058976284,0.10820628058976284,0.10820628058976284,0.10820628058976284,0.10820628058976284,0.10820628058976284,0.10820628058976284,0.10820628058976284
DP 84,195.3197581894122,0.0017573830122094996,-146.62395297843861,-141.35614939430621,-136.08834581017271,-130.8205422260385,-125.55273864190333,-120.28787516578518,-115.13767701397762,-109.98747886216903,-104.83728071035969,-99.68708255854952,-94.548775744800452,-89.636406602197368,-84.72403745959349,-79.811668316988914,-74.899299174383486,-70.012279269407657,-65.437903156594956,-60.863527043781453,-56.289150930967089,-51.714774818152023,-47.182203812775612,-43.02588272582387,-38.869561638871446,-34.71324055191829,-30.556919464964388,-26.459942672452996,-22.778380428476957,-19.096818184500208,-15.415255940522751,-11.733693696544591,-8.1282348062970957,-4.9540330494446128,-1.7798312925914581,1.3943704642623731,4.5685722211168773,7.6522935328433306,10.309459287639648,12.966625042436634,15.623790797234268,18.280956552032531,20.836789683631746,22.987287533395374,25.137785383159652,27.288283232924567,29.438781082690095,31.481245604408919,33.151590791105974,34.821935977803662,36.492281164501925,38.162626351200821,39.722503845644709,40.95097408671009,42.179444327776068,43.407914568842685,44.636384809909849,45.755912102836476,46.588222424333395,47.420532745830918,48.252843067329025,49.085153388827749,49.813393577795622,50.298800178582454,50.784206779369875,51.269613380157892,51.755019980946479,52.143794337151668,52.331868144210041,52.519941951268969,52.708015758328457,52.896089565388543,52.996701105921652,52.934880360895136,52.87305961586928,52.811238870843923,52.749418125819169,52.610247867145851,52.342159802747929,52.074071738350668,51.805983673953889,51.537895609557793,51.202832025510908,50.767303579337721,50.331775133165124,49.8962466869931,49.46071824082167,48.968309399141631,48.398943463208973,47.829577527276989,47.260211591345445,46.690845655414584,46.074026181572734,45.39920694242609,44.724387703280058,44.049568464134616,43.37474922498977,42.660987178378292,41.904182306479029,41.147377434580335,40.390572562682273,39.633767690784858,37.205973100240286,36.386216119398014,35.566459138556368,34.721617672419889,33.8540802679666,32.9865428635139,32.1190054590619,31.25146805461052,30.364198881923762,29.46078519612297,28.557371510322866,27.653957824523452,26.750544138724678,25.831795076568163,24.901710918927108,23.971626761286757,23.04154260364707,22.111458446008136,21.169586804806912,20.21985665553682,19.270126506267449,18.320396356998806,17.370666207730888,16.411966041316003,15.447883728956338,14.483801416597421,13.519719104239304,12.555636791881886,11.584788850225996,10.610297779025915,9.6358067078266618,8.6613156366281849,7.68682456543047,6.7072689535457961,5.7252747881891537,4.7432806228333684,3.7612864574783913,2.7792922921242629,1.793529082405259,0.80615051706555418,-0.18122804827330494,-1.1686066136112729,-2.1559851789484061,-3.1461584549681914,-4.1373918300958765,-5.1286252052226784,-6.1198585803485459,-7.1110919554735386,-8.104396389817925,-9.098391203336,-10.092386016853082,-11.086380830369245,-12.080375643884446,-13.075910732948719,-14.071893017570179,-15.067875302190641,-16.063857586810126,-17.059839871428597,-18.056978450453226,-19.054406116740338,-20.051833783026421,-21.049261449311441,-22.046689115595431,-23.045000056269565,-24.043498368296852,-25.041996680323034,-26.040494992348133,-27.038993304372084,-28.03817960928091,-29.037487332348505,-30.036795055414888,-31.036102778480139,-32.035410501544185,-33.035294598543921,-34.0352610409025,-35.035227483259952,-36.035193925616106,-37.03516036797113,-38.035568715104652,-39.036026167409005,-40.036483619712037,-41.036941072013704,-42.037398524314092,-43.038340346462455,-44.039321446790126,-45.040302547116539,-46.041283647441681,-47.042264747765515,-48.043597677567035,-49.044949128208593,-50.046300578848687,-51.047652029487296,-52.049003480124469,-53.05075257495637,-54.052511869646686,-55.05427116433556,-56.056030459022907,-57.05778975370874,0.096191411844195038,0.096191411844195038,0.096191411844195038,0.096191411844195038,0.096191411844195038,0.096191411844195038,0.096191411844195038,0.096191411844195038,0.096191411844195038,0.096191411844195038,0.096191411844195038,0.096191411844195038
DP 85,161.84845721775719,0.0035080501578362267,-271.61711266486952,-262.34709688518041,-253.07708110548953,-243.80706532579694,-234.53704954610222,-225.27146631831488,-216.17875429086118,-207.08604226340594,-197.99333023594863,-188.90061820848979,-179.82594254414408,-171.0939611886262,-162.36197983310657,-153.62999847758533,-144.89801712206247,-136.2048426183953,-127.99029084506149,-119.77573907172605,-111.56118729838889,-103.34663552504999,-95.196910371225769,-87.630630920536547,-80.064351469845676,-72.49807201915344,-64.931792568459684,-57.459034480480717,-50.640933003313357,-43.822831526144654,-37.004730048974395,-30.186628571802657,-23.490796611339398,-17.487832950268338,-11.484869289195855,-5.4819056281219734,0.52105803295331976,6.3753772702596265,11.528936195481798,16.682495120705354,21.836054045930261,26.989612971156511,31.972476824564154,36.272552323547018,40.572627822531246,44.872703321516809,49.172778820503652,53.285777529301029,56.754392768459425,60.223008007619121,63.691623246780047,67.160238485942358,70.431744938341822,73.111917578072308,75.7920902178041,78.472262857537046,81.152435497271327,83.631881112193653,85.58213039881214,87.532379685431849,89.482628972052837,91.432878258675032,93.1847374113757,94.473680000905446,95.762622590436365,97.051565179968534,98.340507769501912,99.438522716809388,100.13999008512509,100.84145745344205,101.54292482176029,102.24439219007957,102.76646218714905,102.95536079279891,103.14425939844999,103.3331580041022,103.52205660975574,103.54601353036959,103.29506348512444,103.04411343988052,102.79316339463773,102.54221334939623,102.14259006163884,101.51995339691707,100.8973167321966,100.27468006747738,99.652043402759389,98.897813169099933,97.965541650785184,97.033270132471728,96.10099861415955,95.168727095848524,94.121917069469433,92.935113127383346,91.74830918529841,90.5615052432148,89.37470130113249,88.089737261250448,86.696278528389627,85.302819795530084,83.909361062671778,82.515902329814878,77.9209138118602,76.361609837737291,74.8023058636157,73.173882465863983,71.482921202305349,69.791959938747979,68.100998675192045,66.410037411637546,64.662173760190129,62.867752631653218,61.073331503117672,59.278910374583567,57.484489246050877,55.64376151731436,53.76880640982742,51.893851302342036,50.01889619485798,48.143941087375495,46.231704432802729,44.294612826188228,42.35752121957524,40.420429612963829,38.483338006353932,36.51652710630264,34.531884180731204,32.547241255161332,30.562598329593126,28.577955404026458,26.569835443410575,24.549073660988071,22.52831187856734,20.507550096148222,18.486788313730695,16.447632063988056,14.399618961287539,12.351605858588837,10.303592755891863,8.255579653196671,6.1932571622716308,4.1248018831722852,2.056346604074728,-0.012108675020934781,-2.0805639541148238,-4.1600843908481755,-6.2438021006009023,-8.3275198103517472,-10.411237520100599,-12.49495522984761,-14.587191871779524,-16.682268265134255,-18.777344658486911,-20.872421051837577,-22.967497445186225,-25.069116867950505,-27.172635959698979,-29.276155051445325,-31.379674143189568,-33.4831932349317,-35.591739932397594,-37.701543590694556,-39.81134724898935,-41.921150907281856,-44.030954565572152,-46.144639604032669,-48.259148010027168,-50.373656416019273,-52.488164822009047,-54.602673227996462,-56.720197689513562,-58.83825442966107,-60.956311169806021,-63.074367909948592,-65.192424650088569,-67.312910425293566,-69.43374323174497,-71.554576038193872,-73.675408844640174,-75.796241651083861,-77.918951417242852,-80.041869754191225,-82.164788091136785,-84.287706428079559,-86.410624765019477,-88.53532064444542,-90.66016066709912,-92.785000689750177,-94.90984071239852,-97.034680735044148,-99.1608843617445,-101.28715977064351,-103.41343517953949,-105.53971058843233,-107.66598599732197,-109.79365477022404,-111.92135928391342,-114.0490637975995,-116.17676831128249,-118.30447282496222,0.20470218633322865,0.20470218633322865,0.20470218633322865,0.20470218633322865,0.20470218633322865,0.20470218633322865,0.20470218633322865,0.20470218633322865,0.20470218633322865,0.20470218633322865,0.20470218633322865,0.20470218633322865
DP 86,186.40518740315892,0.00446798069185369,-366.20046868612496,-353.21421294860983,-340.22795721109259,-327.2417014735733,-314.2554457360518,-301.27616138035251,-288.56876355159994,-275.86136572284516,-263.15396789408788,-250.44657006532825,-237.76741447573954,-225.62486676941435,-213.48231906308729,-201.33977135675838,-189.19722365042739,-177.1150285547601,-165.77718993010802,-154.43935130545387,-143.10151268079781,-131.76367405613948,-120.52570727514558,-110.18659652715449,-99.84748577916136,-89.508375031166509,-79.169264283169767,-68.972535260691657,-59.772489083324579,-50.572442905955761,-41.37239672858513,-32.172350551212674,-23.155831021347282,-15.179307392131092,-7.2027837629131355,0.77373986630655,8.75026349552797,16.507296046017512,23.2295730844491,29.951850122882387,36.674127161317315,43.396404199753938,49.871233349253522,55.356259248472242,60.841285147692517,66.326311046914569,71.8113369461381,77.030619500108557,81.334552701151964,85.638485902197033,89.942419103243608,94.246352304291833,98.276401053569813,101.48478609238649,104.69317113120472,107.90155617002458,111.10994120884607,114.04592961831638,116.26377209686447,118.481614575414,120.69945705396505,122.91729953251755,124.87258823516228,126.21524318839411,127.55789814162762,128.9005530948624,130.24320804809895,131.33977137807705,131.92521417948467,132.5106569808936,133.09609978230421,133.68154258371626,134.04205042508869,133.98481583749947,133.9275812499117,133.87034666232546,133.81311207474062,133.55491513668235,132.96177588245104,132.36863662822137,131.77549737399312,131.18235811976641,130.41337078325552,129.38060716797884,128.34784355270358,127.31507993742987,126.2823163221577,125.09858771161001,123.71060898524692,122.32263025888541,120.93465153252539,119.54667280616697,118.03134726130322,116.36037293005253,114.68939859880327,113.01842426755552,111.3474499363094,109.5707800373162,107.67728661808417,105.78379319885367,103.89029977962485,101.99680636039761,95.884232166643287,93.817900846256109,91.751569525870579,89.615558287993537,87.416502060724781,85.217445833457646,83.018389606192287,80.819333378928548,78.564813470286879,76.2649132327931,73.965012995301009,71.665112757810618,69.365212520322,67.021688409404049,64.6459198488427,62.270151288283245,59.894382727725485,57.518614167169723,55.108909336934445,52.676579792297986,50.244250247663452,47.8119207030308,45.37959115839994,42.921125169436216,40.446976918602324,37.972828667770344,35.498680416940395,33.0245321661123,30.530434795854369,28.025595301963907,25.520755808075513,23.015916314189127,20.511076820304673,17.991129257159731,15.463907226885865,12.936685196614189,10.409463166344624,7.8822411360772344,5.3436496121077948,2.800185294459359,0.25672097681310097,-2.2867433408308511,-4.8302076584726548,-7.3821895941031208,-9.93740246139604,-12.49261532868668,-15.047828195974892,-17.603041063260861,-20.164622702873164,-22.728327346857071,-25.292031990838439,-27.855736634817411,-30.419441278793897,-32.987914898399978,-35.557773117479705,-38.127631336556867,-40.697489555631435,-43.267347774703431,-45.840799257740862,-48.415149099222333,-50.9894989407012,-53.563848782177274,-56.1381986236507,-58.7152916579469,-61.292966613056429,-63.870641568163123,-66.448316523266968,-69.025991478368041,-71.605792430519188,-74.185968582259349,-76.766144733996356,-79.346320885730577,-81.926497037461687,-84.508425131990435,-87.090603522984267,-89.672781913975086,-92.25496030496268,-94.837138695947161,-97.420658032883679,-100.0043263778948,-102.58799472290249,-105.17166306790668,-107.75533141290751,-110.34040569223497,-112.92559398060108,-115.51078226896388,-118.09597055732345,-120.68115884567982,-123.26737946720301,-125.85365443231858,-128.43992939743015,-131.02620436253818,-133.61247932764223,-136.19988934486287,-138.7873284769841,-141.37476760910127,-143.96220674121466,-146.54964587332424,0.24856294773432278,0.24856294773432278,0.24856294773432278,0.24856294773432278,0.24856294773432278,0.24856294773432278,0.24856294773432278,0.24856294773432278,0.24856294773432278,0.24856294773432278,0.24856294773432278,0.24856294773432278
DP 87,284.85013793363242,0.0030919469183309403,-292.94270180742183,-281.17713720444624,-269.41157260146957,-257.64600799849131,-245.88044339551155,-234.12394937294926,-222.72121141618061,-211.31847345941077,-199.91573550263936,-188.51299754586691,-177.14638313517494,-166.46612292892996,-155.78586272268385,-145.10560251643651,-134.42534231018786,-123.82022109172117,-114.14182352555403,-104.46342595938565,-94.785028393216066,-85.106630827045279,-75.548017555476022,-67.067474257489479,-58.586930959501757,-50.106387661512876,-41.625844363522852,-33.308273915228604,-26.131525738318459,-18.954777561407209,-11.77802938449485,-4.6012812075813825,2.3767791313012263,8.22892920120085,14.081079271101554,19.933229341003329,25.785379410906174,31.4146187660479,35.992981283151948,40.571343800257033,45.149706317363147,49.728068834470228,54.072449106246,57.480889338559287,60.889329570873514,64.297769803188814,67.706210035505066,70.882276746370408,73.257936010364332,75.633595274359124,78.009254538355066,80.3849138023519,82.54045340604344,84.035625706433635,85.530798006824909,87.025970307217051,88.521142607610187,89.816203645846429,90.583691751216776,91.351179856588033,92.118667961960185,92.886156067333346,93.4782015748464,93.660875493008,93.843549411170486,94.026223329334059,94.208897247498342,94.242648533692176,93.9670946376896,93.6915407416879,93.415986845687186,93.14043294968738,92.742085415524954,92.115689237176568,91.489293058829034,90.862896880482452,90.236500702136865,89.511479699295208,88.622081503059093,87.732683306823844,86.843285110589477,85.953886914356119,84.9871444304668,83.904383687426417,82.8216229443869,81.738862201348368,80.656101458310729,79.513992488788318,78.291587539983823,77.069182591180279,75.846777642377575,74.624372693575836,73.3573279414332,72.035722492006329,70.714117042580327,69.392511593155263,68.070906143731207,66.716332647188608,65.325320126741119,63.93430760629461,62.543295085848996,61.152282565404434,56.859528416904908,55.4206291710703,53.981729925236706,52.525705882200448,51.054187666713162,49.582669451227005,48.111151235741794,46.639633020257669,45.156034765515038,43.6625526346851,42.169070503856112,40.675588373028219,39.18210624220135,37.680205846433324,36.172083116456236,34.663960386480213,33.15583765650527,31.647714926531403,30.133785257194383,28.615984203469296,27.098183149745321,25.580382096022465,24.062581042300703,22.540804367209397,21.016642259172059,19.492480151135872,17.968318043100879,16.444155935067034,14.91728197564505,13.388947749118131,11.860613522592466,10.332279296068021,8.80394506954474,7.2737572445986656,5.7426769203823724,4.2115965961673769,2.6805162719536493,1.1494359477412162,-0.38292498729980912,-1.9158347728443552,-3.4487445583875975,-4.9816543439294758,-6.5145641294700649,-8.04837919636747,-9.5825376576501462,-11.116696118931454,-12.650854580211336,-14.185013041489874,-15.719836831156035,-17.254882405335522,-18.789927979513461,-20.324973553690008,-21.860019127865066,-23.395581558475349,-24.931294050482283,-26.467006542487734,-28.002719034491644,-29.538431526494044,-31.074573815327081,-32.610823558444665,-34.147073301560646,-35.683323044675006,-37.2195727877878,-38.756206929027407,-40.292922613666384,-41.829638298303628,-43.366353982939273,-44.903069667573163,-46.44014422178082,-47.977282109902596,-49.514419998022547,-51.051557886140685,-52.588695774257047,-54.126218921370288,-55.663797109643326,-57.201375297914481,-58.738953486183718,-60.276531674451192,-61.81443040696508,-63.352364758870969,-64.89029911077489,-66.428233462676744,-67.9661678145766,-69.504581290450176,-71.0430336191076,-72.58148594776307,-74.119938276416647,-75.65839060506832,-77.197184336578388,-78.735996040054587,-80.2748077435286,-81.813619447000335,-83.35243115046984,-84.891684940105776,-86.430950069568055,-87.970215199027976,-89.509480328485651,-91.048745457940939,0.14736345221264605,0.14736345221264605,0.14736345221264605,0.14736345221264605,0.14736345221264605,0.14736345221264605,0.14736345221264605,0.14736345221264605,0.14736345221264605,0.14736345221264605,0.14736345221264605,0.14736345221264605
DP 88,249.94940923629665,0.0012983539522920197,-118.08398880632541,-113.52648791183537,-108.96898701734472,-104.4114861228535,-99.85398522836168,-95.299620724799325,-90.867576653335348,-86.43553258187076,-82.003488510405589,-77.5714444389399,-73.1519652486631,-68.97122117628426,-64.790477103904834,-60.609733031524904,-56.428988959144476,-52.274631368451445,-48.445710377354267,-44.616789386256571,-40.7878683951583,-36.958947404059522,-33.172647814057541,-29.769944862558031,-26.367241911058041,-22.964538959557565,-19.561836008056567,-16.21808289922657,-13.2869831467028,-10.355883394178543,-7.4247836416538089,-4.4936838891285786,-1.6358707529093115,0.80664693948337718,3.2491646318765333,5.6916823242701655,8.1342000166642556,10.492637481132883,12.454692186887776,14.416746892643117,16.378801598398905,18.340856304155139,20.212429427093518,21.722071942548169,23.231714458003268,24.741356973458814,26.250999488914751,27.668306792242895,28.767566708183118,29.866826624123767,30.966086540064868,32.065346456006353,33.074547272844448,33.81356738737621,34.55258750190842,35.291607616441041,36.030627730974075,36.685195303719922,37.117112363553836,37.549029423388177,37.980946483222915,38.412863543058066,38.768284306319153,38.945211300735004,39.122138295151231,39.299065289567878,39.475992283984908,39.585738890674712,39.555955045941189,39.526171201208058,39.496387356475353,39.46660351174301,39.379438163180282,39.185705614999684,38.991973066819469,38.798240518639645,38.60450797046024,38.362981656102875,38.041797860109874,37.720614064117342,37.39943026812518,37.078246472133429,36.718156495747444,36.299706329406206,35.881256163065352,35.462805996724875,35.044355830384823,34.594891064359274,34.103464679574593,33.612038294790416,33.120611910006552,32.629185525223129,32.113506079602089,31.568183494640326,31.02286090967895,30.477538324718033,29.932215739757524,29.368259816445541,28.783708779956974,28.199157743468778,27.614606706981025,27.030055670493706,25.205978525675125,24.593257821793806,23.98053711791291,23.357327907006191,22.724628905669466,22.091929904333156,21.459230902997319,20.826531901661909,20.186128496826065,19.539421356721082,18.892714216616522,18.246007076512445,17.599299936408819,16.947003012009912,16.290574416027212,15.634145820045013,14.977717224063266,14.321288628082,13.660848522228823,12.997734013265807,12.334619504303305,11.671504995341285,11.008390486379756,10.342423434890282,9.6747448147441855,9.0070661945985986,8.3393875744535428,7.6717089543089791,7.0020158664002681,6.3312380357865248,5.6604602051733321,4.989682374560676,4.3189045439485305,3.6467094401338946,2.9738319256720831,2.3009544112108444,1.6280768967501642,0.95519938229005252,0.28132392508667003,-0.39297923533869311,-1.067282395763484,-1.7415855561876696,-2.4158887166112888,-3.0908997923057195,-3.7661793968146178,-4.4414590013229152,-5.11673860583058,-5.7920182103376572,-6.4678084876524515,-7.1437689956719863,-7.8197295036908505,-8.4956900117090957,-9.17165051972668,-9.8479901446536,-10.524439840403312,-11.200889536152363,-11.877339231900734,-12.55378892764843,-13.230532262474945,-13.907349010539992,-14.584165758604344,-15.26098250666797,-15.937799254730898,-16.614856547170877,-17.291964866931036,-17.969073186690427,-18.646181506449096,-19.323289826207024,-20.000604461053765,-20.677955506739234,-21.355306552423865,-22.032657598107761,-22.710008643790829,-23.387561996311995,-24.065144251994703,-24.742726507676597,-25.420308763357674,-26.097891019037959,-26.775636253287743,-27.45339959797835,-28.131162942668052,-28.808926287356854,-29.486689632044776,-30.164679382557757,-30.842687492612573,-31.520695602666517,-32.198703712719592,-32.876711822771817,-33.554880773248073,-34.233058190609128,-34.911235607969211,-35.589413025328291,-36.267590442686384,-36.945971288809396,-37.624357353025694,-38.302743417241,-38.981129481455248,-39.659515545668455,0.065006442368584383,0.065006442368584383,0.065006442368584383,0.065006442368584383,0.065006442368584383,0.065006442368584383,0.065006442368584383,0.065006442368584383,0.065006442368584383,0.065006442368584383,0.065006442368584383,0.065006442368584383
DP 89,77.5453956150324,0.0035832629721732033,-189.03689605950976,-183.60588155266018,-178.17486704580855,-172.74385253895471,-167.31283803209897,-161.88332069918198,-156.51219371601664,-151.14106673284931,-145.76993974967991,-140.39881276650854,-135.0338979986474,-129.78701649608675,-124.54013499352449,-119.29325349096031,-114.04637198839448,-108.81317504018722,-103.74875598706332,-98.684336933937544,-93.61991788080995,-88.555498827680509,-83.514721677959074,-78.686723893584968,-73.858726109209186,-69.0307283248318,-64.202730540452663,-59.410278007532291,-54.866644922655418,-50.323011837776995,-45.77937875289701,-41.235745668015277,-36.740964885543086,-32.523016895116129,-28.305068904687605,-24.087120914257529,-19.869172923825865,-15.714149359672815,-11.855772918090407,-7.997396476506462,-4.1390200349210149,-0.280643593334066,3.5005808544097361,6.9731936805293113,10.445806506650356,13.918419332772876,17.391032158896852,20.77271511407136,23.841191360507242,26.909667606944545,29.978143853383315,33.046620099823492,36.01136712207056,38.664922549893873,41.31847797771858,43.972033405544771,46.625588833372362,49.164043905695046,51.399048630079108,53.634053354464605,55.869058078851481,58.104062803239749,60.214378812917687,62.03375055969736,63.853122306478369,65.672494053260834,67.491865800044692,69.17898303995436,70.591413996095127,72.003844952237216,73.41627590838074,74.828706864525657,76.10347659929576,77.122586062399563,78.14169552550473,79.160804988611346,80.179914451719341,81.05814797199281,81.701584703341183,82.345021434690935,82.988458166042221,83.631894897394815,84.133377004691965,84.421923821478288,84.710470638266116,84.999017455055252,85.287564271845881,85.435080735056047,85.3917882892225,85.348495843390481,85.305203397559922,85.261910951730854,85.0803203005429,84.729695604560945,84.3790709085804,84.028446212601452,83.677821516623922,83.193206583056025,82.560494510066,81.9277824370775,81.295070364090563,80.66235829110515,78.12238393289698,77.232936118879081,76.343488304862717,75.332340813411562,74.2110818989125,73.089822984415036,71.968564069919353,70.847305155425133,69.611789092060974,68.282787943310652,66.953786794561978,65.624785645815066,64.295784497069846,62.860489989269759,61.346629077479179,59.832768165690453,58.31890725390339,56.805046342118253,55.1931395426854,53.515867273587311,51.838595004491125,50.161322735396737,48.484050466304311,46.717056354974773,44.896227781406836,43.075399207840782,41.254570634276767,39.433742060714664,37.531410161294851,35.585190670447417,33.63897117960208,31.692751688758726,29.746532197917425,27.726773210157955,25.671605286693552,23.616437363231352,21.561269439771312,19.506101516313436,17.384979484057798,15.235590514596998,13.086201545138429,10.936812575682172,8.7874236062281259,6.5791940462987606,4.3486448745801658,2.1180957028639149,-0.11245346884989513,-2.3430026405613891,-4.6258219508487253,-6.9260652994103049,-9.2263086479692955,-11.52655199652585,-13.826795345079846,-16.173331844052335,-18.533308854522208,-20.893285864989451,-23.253262875454052,-25.613239885916009,-28.014159563860112,-30.425315392415651,-32.836471220968477,-35.247627049518485,-37.658782878065722,-40.106180773024519,-42.561266794266956,-45.016352815506359,-47.471438836742919,-49.926524857976553,-52.413799597529476,-54.906755057078755,-57.399710516624936,-59.892665976168104,-62.385621435708082,-64.907444863848369,-67.433392599343762,-69.959340334836085,-72.485288070325083,-75.01123580581087,-77.563212537490728,-80.118081653220841,-82.672950768947587,-85.227819884670609,-87.782689000390178,-90.361849086207854,-92.942978958355567,-95.524108830499813,-98.105238702640818,-100.6863685747785,-103.29016674185732,-105.89515820262724,-108.50014966339343,-111.10514112415557,-113.71013258491384,-116.33737965234162,-118.96519759210307,-121.59301553186047,-124.22083347161366,-126.84865141136297,0.25640259760813078,0.25640259760813078,0.25640259760813078,0.25640259760813078,0.25640259760813078,0.25640259760813078,0.25640259760813078,0.25640259760813078,0.25640259760813078,0.25640259760813078,0.25640259760813078,0.25640259760813078
DP 90,117.466414883748,0.0039868392507900856,-266.23274444353456,-257.85082285618228,-249.46890126882792,-241.08697968147118,-232.70505809411242,-224.32625230793477,-216.06896394595177,-207.81167558396641,-199.55438722197911,-191.29709885998946,-183.05260423024208,-175.05119293169147,-167.04978163313896,-159.04837033458469,-151.04695903602831,-143.07341500032118,-135.44357071850698,-127.81372643669076,-120.18388215487262,-112.55403787305247,-104.97156129742027,-97.8153985547486,-90.659235812075224,-83.503073069400045,-76.346910326723,-69.260574520506665,-62.663032549624575,-56.065490578740835,-49.467948607855291,-42.870406636967964,-36.366561103943134,-30.393667956344185,-24.420774808743587,-18.447881661141285,-12.474988513537285,-6.6194874118279534,-1.3174122956471526,3.9846628205353083,9.2867379367193976,14.588813052905106,19.751418433594427,24.35613828087434,28.960858128155866,33.565577975439,38.170297822723647,42.616298097610354,46.515590955408662,50.414883813208533,54.314176671009989,58.213469528812972,61.938523081102289,65.140852129129016,68.343181177157319,71.545510225187073,74.747839273218375,77.764712079604934,80.292648420004966,82.8205847604065,85.348521100809521,87.876457441214086,90.212253054653871,92.099714251388562,93.987175448124717,95.874636644862363,97.762097841601459,99.4552053028748,100.74464935340005,102.03409340392676,103.32353745445499,104.61298150498463,105.71001111904877,106.44969444046777,107.18937776188828,107.92906108331024,108.66874440473372,109.22160698326908,109.46309694805589,109.70458691284418,109.94607687763397,110.1875668424252,110.25085777986146,110.04684596537209,109.84283415088436,109.63882233639796,109.43481052191315,109.06357507025504,108.46609215508843,107.86860923992336,107.27112632475968,106.67364340959752,105.92157905331683,104.9805785776223,104.03957810192922,103.0985776262378,102.15757715054792,101.07566053574146,99.837991699901153,98.600322864062349,97.362654028225208,96.124985192389715,91.777955164665016,90.286676441319628,88.795397717975973,87.191384872708255,85.485372458889742,83.77936004507292,82.07334763125786,80.367335217444364,78.562222428534881,76.676025811442358,74.78982919435164,72.903632577262542,71.01743596017532,69.045039018002626,67.008927375071664,64.972815732142678,62.936704089215318,60.900592446289949,58.790238169330436,56.630387633433166,54.470537097537665,52.3106865616441,50.150836025752447,47.927629591102452,45.666408659043306,43.405187726986071,41.143966794930904,38.8827458628777,36.567922336644912,34.224235095612372,31.880547854581923,29.536860613553522,27.1931733725271,24.804495391897873,22.394154573302046,19.983813754708436,17.573472936117021,15.163132117527809,12.715303089338105,10.251407179403111,7.7875112694703486,5.3236153595399474,2.8597194496117653,0.36479059886264609,-2.1419097719573,-4.6486101427748867,-7.1553105135900017,-9.6620108844027932,-12.194256256313608,-14.735016950527564,-17.275777644738934,-19.816538338947829,-22.357299033154163,-24.918993924691872,-27.486766741739629,-30.054539558784747,-32.622312375827256,-35.19008519286708,-37.774964576328856,-40.364120803510353,-42.953277030689094,-45.542433257864992,-48.131589485038162,-50.734718700775424,-53.340812043871487,-55.946905386964538,-58.552998730054711,-61.159092073141956,-63.776619165653514,-66.396164105793957,-69.015709045931231,-71.635253986065479,-74.254798926196443,-76.883832197130914,-79.514221046388457,-82.144609895642816,-84.774998744893921,-87.405387594141928,-90.043599698068988,-92.682681134675363,-95.3217625712781,-97.960844007877284,-100.599925444473,-103.24597887788407,-105.89259767957473,-108.53921648126178,-111.18583528294559,-113.83245408462601,-116.48501526047446,-119.13788925197839,-121.79076324347849,-124.4436372349746,-127.09651122646679,-129.75510680144325,-132.41384913915243,-135.07259147685744,-137.7313338145585,-140.39007615225555,0.25693952613103849,0.25693952613103849,0.25693952613103849,0.25693952613103849,0.25693952613103849,0.25693952613103849,0.25693952613103849,0.25693952613103849,0.25693952613103849,0.25693952613103849,0.25693952613103849,0.25693952613103849
DP 91,245.14908443918736,0.0037811588360558623,-341.72025998550868,-328.60771149642204,-315.49516300733393,-302.38261451824388,-289.27006602915191,-276.16639181269761,-263.40881758442077,-250.65124335614226,-237.89366912786184,-225.13609489957977,-212.41410229361978,-200.36816723825308,-188.32223218288465,-176.27629712751474,-164.23036207214309,-152.25924573429438,-141.21090300852441,-130.16256028275271,-119.11421755697937,-108.06587483120435,-97.138605533531134,-87.301008532793915,-77.46341153205519,-67.625814531315058,-57.788217530573412,-48.118458525057477,-39.623578177524941,-31.12869782999099,-22.633817482455584,-14.13893713491878,-5.8532784270717286,1.2467778052789247,8.3468340376309573,15.446890269984353,22.546946502339104,29.406221560582953,35.130372364346535,40.8545231681114,46.578673971877684,52.302824775645178,57.766965857607453,62.191055764137722,66.615145670669278,71.039235577202064,75.463325483736114,79.6210725160834,82.861405126214052,86.101737736345854,89.342070346478891,92.582402956613208,95.561896854438061,97.758864753424035,99.9558326524113,102.15280055139968,104.34976845038933,106.30107407827794,107.60471618407135,108.90835828986579,110.21200039566158,111.51564250145856,112.59574758452754,113.15425923823943,113.71277089195257,114.27128254566689,114.82979419938231,115.19105338013739,115.14262861104278,115.09420384194931,115.04577907285712,114.99735430376596,114.77961125968723,114.24741541801556,113.71521957634499,113.1830237346755,112.65082789300726,111.97688222186865,111.06668326205167,110.15648430223591,109.2462853424213,108.33608638260786,107.30988909774072,106.10969158422003,104.90949407070063,103.70929655718227,102.50909904366516,101.21593287993659,99.796983533568422,98.378034187201621,96.959084840835814,95.540135494471286,94.0480857358459,92.466689493450076,90.885293251055373,89.303897008661849,87.7225007662697,86.084627930800181,84.384332473881059,82.684037016963174,80.983741560046525,79.2834461031311,73.967896547167356,72.181735653846616,70.395574760527168,68.5772599261752,66.729852851989179,64.882445777804463,63.035038703621048,61.187631629438819,59.316469226901617,57.425870238368731,55.535271249837145,53.644672261306937,51.754073272778015,49.846139550805383,47.925392914809869,46.004646278815819,44.083899642823077,42.163153006831763,40.229894943942284,38.288295732688965,36.346696521437089,34.405097310186612,32.46349809893767,30.512952499083124,28.557038930766314,26.60112536245104,24.645211794137243,22.689298225824952,20.727033392050764,18.761348553747233,16.795663715445329,14.829978877144988,12.864294038846143,10.894119611431416,8.92178346713047,6.9494473228311842,4.9771111785335442,3.0047750342375754,1.02926563442399,-0.947603774887421,-2.9244731841971547,-4.901342593505114,-6.87821200281142,-8.8573375490036668,-10.837318900669136,-12.817300252332849,-14.797281603994705,-16.77726295565482,-18.758871777692679,-20.741023110365941,-22.723174443037255,-24.705325775706726,-26.68747710837431,-28.670832802016694,-30.654538163532571,-32.638243525046526,-34.621948886558513,-36.605654248068468,-38.590286009862645,-40.575149382671754,-42.560012755478859,-44.544876128283846,-46.529739501086766,-48.515353940985641,-50.50112770675058,-52.486901472513267,-54.472675238273837,-56.458449004032204,-58.444859392748825,-60.431382133770846,-62.41790487479048,-64.404427615807862,-66.390950356822827,-68.378088255087391,-70.365314039602083,-72.3525398241144,-74.3397656086243,-76.326991393131777,-78.3147101622631,-80.30248371263886,-82.290257263011952,-84.278030813382387,-86.265804363750291,-88.254252697010131,-90.242755749289458,-92.231258801566213,-94.219761853840481,-96.20826490611222,-98.197247247103846,-100.18625481858339,-102.1752623900601,-104.16426996153392,-106.15327753300483,-108.14288806984372,-110.13251407317564,-112.12214007650455,-114.11176607983046,-116.10139208315327,0.1906840959285252,0.1906840959285252,0.1906840959285252,0.1906840959285252,0.1906840959285252,0.1906840959285252,0.1906840959285252,0.1906840959285252,0.1906840959285252,0.1906840959285252,0.1906840959285252,0.1906840959285252
DP 92,188.37112417914085,0.0047705514529397149,-392.58258513381128,-378.62016987584292,-364.65775461787251,-350.69533935989938,-336.73292410192431,-322.77806989712263,-309.11809962492896,-295.45812935273358,-281.79815908053519,-268.13818880833463,-254.50883860684652,-241.46127553743622,-228.41371246802404,-215.36614939860962,-202.31858632919293,-189.33642089621227,-177.16083455458619,-164.98524821295814,-152.80966187132765,-140.63407552969502,-128.56662881641125,-117.47244897977271,-106.37826914313219,-95.2840893064896,-84.1899094698451,-73.249753237958856,-63.38777388618626,-53.525794534411645,-43.663815182635084,-33.801835830856611,-24.138163092365673,-15.598240325293578,-7.0583175582196365,1.4816052088561567,10.021527975933799,18.324591566135251,25.511020529224904,32.697449492316366,39.883878455409587,47.0703074185046,53.990096968297934,59.84331626334928,65.6965355584024,71.549754853457173,77.402974148513735,82.970303673964,87.552889760709647,92.135475847456988,96.71806193420602,101.30064802095667,105.58909808643216,108.99512896725074,112.40115984807086,115.80719072889269,119.2132216097162,122.32726129145377,124.67149595765856,127.01573062386483,129.35996529007284,131.70419995628259,133.76755171721325,135.17550118270253,136.58345064819346,137.99140011368598,139.39934957918024,140.54457476827011,141.14413420390611,141.74369363954355,142.34325307518284,142.94281251082361,143.3027550916793,143.2176884711177,143.13262185055802,143.04755522999972,142.96248860944294,142.66382554649948,142.00916302907706,141.35450051165637,140.69983799423719,140.04517547681957,139.20404394246913,138.08320447640423,136.96236501034102,135.84152554427936,134.72068607821913,133.44014677748513,131.94353944277884,130.44693210807404,128.95032477337088,127.45371743866937,125.82272498437527,124.0274812278614,122.23223747134888,120.43699371483817,118.64174995832916,116.73524826346708,114.70577505437868,112.67630184529177,110.64682863620658,108.61735542712313,102.07526347893763,99.864320998432646,97.653378517929283,95.369465585770058,93.019530455018071,90.669595324267888,88.319660193519553,85.969725062772824,83.561859590999845,81.106595571907434,78.6513315528169,76.196067533728169,73.740803514641257,71.240096196344965,68.705799605528938,66.1715030147149,63.637206423902718,61.102909833092454,58.533355770721975,55.940296171882885,53.3472365730459,50.754176974210708,48.161117375377685,45.540976148267156,42.904585534625518,40.268194920985913,37.631804307348439,34.995413693713019,32.338407194927036,29.670299535116897,27.002191875309002,24.334084215503271,21.665976555699611,18.98229638707998,16.29111812578261,13.599939864487583,10.908761603194804,8.2175833419043389,5.514715406826082,2.8068374537087726,0.098959500593779823,-2.6089184525187616,-5.3167964056290069,-8.0334115479564137,-10.7533409104472,-13.473270272935547,-16.193199635421337,-18.913128997904717,-21.639577863363833,-24.368199978643894,-27.096822093921215,-29.825444209196057,-32.554066324468195,-35.287562384590565,-38.02247352040159,-40.75738465620995,-43.492295792015568,-46.2272069278184,-48.965786794302666,-51.705283886801482,-54.4447809792976,-57.184278071790658,-59.923775164280954,-62.666072669470459,-65.408964233678276,-68.151855797883059,-70.894747362084942,-73.637638926283714,-76.382702728753841,-79.128149891542463,-81.873597054327874,-84.619044217110172,-87.364491379889174,-90.1117345238179,-92.8592342558803,-95.606733987939421,-98.354233719995264,-101.10173345204775,-103.85060778896283,-106.59963487418484,-109.34866195940322,-112.09768904461797,-114.84671612982903,-117.59719860051017,-120.34779909028731,-123.09839958006101,-125.84900006983122,-128.5996005595978,-131.35126683786316,-134.10298922086002,-136.85471160385305,-139.60643398684189,-142.35815636982684,-145.11105787607994,-147.86398962768993,-150.61692137929586,-153.36985313089755,-156.122784882495,0.26443411763231589,0.26443411763231589,0.26443411763231589,0.26443411763231589,0.26443411763231589,0.26443411763231589,0.26443411763231589,0.26443411763231589,0.26443411763231589,0.26443411763231589,0.26443411763231589,0.26443411763231589
DP 93,104.81418017990244,0.0030131829845498337,-189.58980300911387,-183.77727377364039,-177.96474453816549,-172.15221530268869,-166.3396860672101,-160.52914087663265,-154.79597418739857,-149.06280749816298,-143.3296408089256,-137.5964741196868,-131.87147779477135,-126.30171993658185,-120.73196207839096,-115.1622042201984,-109.59244636200452,-104.04054779899067,-98.708916127323789,-93.377284455655129,-88.045652783985119,-82.714021112313574,-77.412900166947637,-72.386378642255309,-67.359857117561575,-62.333335592866518,-57.306814068169984,-52.325550385457255,-47.661095018898123,-42.996639652337578,-38.332184285775753,-33.667728919212507,-29.064460733284818,-24.807923759953503,-20.551386786620885,-16.294849813286977,-12.038312839951745,-7.8591074361360169,-4.0444693226141037,-0.22983120909092564,3.5848069044335045,7.3994450179591746,11.121296330974685,14.471996056788806,17.822695782604153,21.173395508420718,24.524095234238494,27.768035403021194,30.644243723775528,33.520452044531027,36.396660365287744,39.272868686045619,42.030462757101837,44.432209594429395,46.833956431758146,49.235703269088084,51.637450106419131,53.911296912237056,55.847948329789581,57.78459974734325,59.721251164898035,61.657902582454042,63.460190376299636,64.948958814752686,66.437727253206845,67.926495691662168,69.415264130118615,70.76610270370719,71.8304675464813,72.89483238925655,73.9591972320329,75.023562074810442,75.94923757631561,76.617343412865225,77.285449249415862,77.95355508596775,78.6216609225207,79.152900112664241,79.4560247756481,79.759149438633074,80.062274101619209,80.365398764606368,80.535744741431529,80.506919551415862,80.478094361401361,80.44926917138811,80.420443981375882,80.264808942540341,79.937604817365042,79.610400692190879,79.283196567017853,78.955992441846092,78.509420239494986,77.916951213301687,77.32448218710951,76.732013160918612,76.139544134728979,75.436207963318779,74.61033221471007,73.784456466102625,72.958580717496389,72.132704968891389,69.146601951781179,68.117335510169511,67.088069068559122,65.96660091576922,64.761710507149033,63.556820098530139,62.351929689912645,61.147039281296408,59.859458035068286,58.504219227880093,57.1489804206932,55.793741613507727,54.438502806323534,53.009853794037511,51.526943858187231,50.044033922338464,48.561123986491019,47.078214050645009,45.530751636206311,43.94025321911122,42.349754802017571,40.75925638492545,39.168757967834779,37.521999724862816,35.841484735524304,34.160969746187327,32.480454756851941,30.799939767518044,29.070798167509981,27.315472300794898,25.560146434081538,23.804820567369784,22.049494700659629,20.252462847310731,18.435349749715193,16.618236652121421,14.801123554529317,12.984010456938947,11.131378479431376,9.263523645205769,7.3956688109819027,5.52781397675988,3.659959142539579,1.7620454935434795,-0.147270166737632,-2.0565858270169053,-3.9659014872942553,-5.8752171475697983,-7.8098326646935909,-9.75288178628148,-11.695930907867334,-13.638980029451263,-15.582029151033193,-17.546281564277379,-19.516690030474585,-21.487098496669731,-23.457506962862823,-25.427915429053854,-27.416045561314931,-29.408606319475684,-31.401167077634273,-33.393727835790706,-35.386288593944954,-37.3936556310598,-39.404163563649988,-41.4146714962378,-43.425179428823434,-45.435687361406693,-47.458590422139629,-49.483680996261832,-51.50877157038159,-53.533862144499047,-55.558952718613916,-57.594544492474661,-59.631636551163695,-61.668728609850255,-63.705820668534315,-65.742912727215852,-67.788892633717992,-69.8358601722074,-71.882827710694158,-73.929795249178113,-75.9767627876593,-78.03171411120762,-80.08731285026019,-82.142911589310089,-84.198510328357415,-86.254109067402084,-88.316720711431941,-90.379701525496728,-92.442682339558488,-94.50566315361722,-96.568643967672827,-98.638388187028127,-100.70830589259661,-102.77822359816203,-104.84814130372429,-106.91805900928328,0.20046043662413435,0.20046043662413435,0.20046043662413435,0.20046043662413435,0.20046043662413435,0.20046043662413435,0.20046043662413435,0.20046043662413435,0.20046043662413435,0.20046043662413435,0.20046043662413435,0.20046043662413435
DP 94,217.12668393074435,0.0030638871901787087,-265.67932680812186,-255.84184759366974,-246.00436837921654,-236.16688916476164,-226.32940995030512,-216.49793245872743,-206.90052442864268,-197.30311639855651,-187.70570836846898,-178.10830033838002,-168.53507481377108,-159.42132146483402,-150.30756811589572,-141.19381476695608,-132.08006141801511,-123.01754937107941,-114.58701984008047,-106.1564903090802,-97.725960778078559,-89.295431247075527,-80.9487073786765,-73.356242395136817,-65.763777411595925,-58.171312428053881,-50.578847444510565,-43.104115436714885,-36.45352316176696,-29.802930886817844,-23.152338611867552,-16.501746336916039,-10.000264732366567,-4.3437529895096052,1.3127587533485063,6.9692704962077618,12.625782239068165,18.107535699236493,22.765419244791651,27.423302790347908,32.081186335905244,36.739069881463706,41.204355415790978,44.899239802898911,48.594124190007882,52.289008577117961,55.983892964229113,59.477034976394862,62.275278110892941,65.073521245392058,67.871764379892255,70.670007514393589,73.265864374073359,75.254554757375,77.243245140677743,79.231935523981591,81.2206259072863,83.013751802977708,84.291291873150385,85.568831943324028,86.846372013498723,88.123912083674455,89.218620426035059,89.8867156430057,90.55481085997738,91.222906076950125,91.891001293923779,92.393129129340409,92.550550653084485,92.707972176829443,92.865393700575353,93.022815224322372,93.033517520935078,92.771737290565127,92.509957060196015,92.2481768298279,91.9863965994608,91.597991241437484,90.9985408123207,90.399090383204921,89.79963995409004,89.200189524976182,88.493821615206315,87.627074957962321,86.760328300719408,85.893581643477319,85.026834986236338,84.071603444707165,82.996655091802253,81.921706738898266,80.846758385995315,79.7718100330933,78.624968297222765,77.390255360958918,76.1555424246961,74.920829488434237,73.68611655217353,72.393974488784167,71.038356984196938,69.682739479610674,68.327121975025491,66.97150447044136,62.678844299907269,61.232903561864774,59.786962823823288,58.306018828200038,56.793404588375033,55.280790348551058,53.768176108728234,52.255561868906469,50.716177358947157,49.154889440629113,47.593601522312142,46.032313603996315,44.471025685681653,42.889513403919281,41.293052347151672,39.696591290385278,38.100130233619993,36.503669176855965,34.892097872727994,33.270452832318334,31.648807791909892,30.027162751502651,28.405517711096635,26.77269435828423,25.133163848974725,23.493633339666466,21.854102830359516,20.214572321053804,18.566841440657431,16.9146948565808,15.262548272505557,13.610401688431608,11.958255104358949,10.300132216911976,8.6391317663763658,6.9781313158421518,5.3171308653093261,3.6561304147779174,1.9907922483817961,0.32359500232949417,-1.3436022437213893,-3.0107994897707719,-4.6779967358187529,-6.3483403219585774,-8.01987738846271,-9.6914144549653525,-11.362951521466423,-13.03448858796602,-14.708317510179919,-16.382910413181371,-18.05750331618118,-19.732096219179439,-21.406689122176047,-23.082969713192675,-24.759740298732865,-26.4365108842714,-28.113281469808239,-29.79005205534343,-31.468090137749638,-33.1464451093479,-34.824800080944428,-36.503155052539185,-38.181510024132194,-39.860847121320283,-41.540392559430906,-43.219937997539652,-44.89948343564658,-46.5790288737517,-48.259359673093769,-49.939829074327143,-51.620298475558457,-53.3007678767879,-54.981237278015364,-56.662402101857808,-58.343666279298468,-60.024930456737337,-61.706194634174025,-63.387458811608646,-65.069264004887586,-66.751129316718135,-68.432994628546339,-70.114859940372341,-71.796725252196154,-73.47925204005837,-75.161832467870283,-76.844412895680009,-78.526993323487659,-80.209573751293192,-81.892626631228964,-83.5757043817647,-85.258782132297924,-86.941859882828766,-88.624937633357092,-90.308581738035571,-91.992240370103346,-93.675899002168592,-95.3595576342313,-97.043216266291509,0.16151746980415016,0.16151746980415016,0.16151746980415016,0.16151746980415016,0.16151746980415016,0.16151746980415016,0.16151746980415016,0.16151746980415016,0.16151746980415016,0.16151746980415016,0.16151746980415016,0.16151746980415016
DP 95,112.03551057533234,0.0015025685024228172,-97.933851264555557,-94.884791537134973,-91.835731809713607,-88.7866720822913,-85.737612354868233,-82.689646345338318,-79.6843357471906,-76.679025149041976,-73.673714550892555,-70.668403952742409,-67.667589266531053,-64.752197757092262,-61.836806247652824,-58.92141473821254,-56.006023228771539,-53.100440116916047,-50.315828478091916,-47.531216839267039,-44.746605200441429,-41.96199356161506,-39.194089808768759,-36.576558608998745,-33.959027409228085,-31.341496209456722,-28.72396500968469,-26.131129027010076,-23.71116143139853,-21.291193835786277,-18.871226240173378,-16.451258644559783,-14.064535680342487,-11.866201055587869,-9.6678664308326017,-7.46953180607669,-5.2711971813201428,-3.1146698506607868,-1.1552363074186258,0.80419723582416069,2.7636307790675669,4.7230643223115916,6.6326175046084046,8.3426468857403115,10.052676266872846,11.762705648005962,13.472735029139692,15.125732150786959,16.582282427199669,18.038832703612986,19.495382980026882,20.951933256441354,22.345551894734893,23.550373239316517,24.755194583898707,25.960015928481475,27.164837273064816,28.302302814072597,29.262191648727079,30.22208048338214,31.181969318037751,32.141858152693949,33.031548335525933,33.757439452348919,34.483330569172509,35.209221685996638,35.935112802821322,36.589547778429626,37.09557176716806,37.601595755907049,38.107619744646641,38.6136437333868,39.048454787682687,39.351011326260064,39.65356786483801,39.956124403416524,40.258680941995564,40.491612761331929,40.608501626995313,40.725390492659209,40.842279358323715,40.959168223988804,41.009164579280309,40.958820588322737,40.908476597365762,40.858132606409306,40.80778861545344,40.694200392580306,40.495045037603596,40.295889682627468,40.096734327651895,39.897578972676946,39.63950687404261,39.309424184518811,38.979341494995573,38.649258805472996,38.319176115950988,37.934956632794837,37.490900668870523,37.046844704946785,36.602788741023673,36.158732777101172,34.580991571311593,34.0387060960878,33.496420620864633,32.91010460942482,32.283950653443405,31.657796697462615,31.031642741482468,30.405488785502968,29.740298176731404,29.043167817532414,28.346037458334091,27.648907099136466,26.951776739939483,26.220395453236314,25.463697700561767,24.706999947887915,23.950302195214753,23.193604442542277,22.407145917371203,21.600846408364493,20.794546899358515,19.988247390353276,19.181947881348748,18.350023474371394,17.502723741075723,16.65542400778082,15.808124274486689,14.9608245411933,14.091647556300854,13.210690194722838,12.329732833145624,11.448775471569187,10.567818109993501,9.6683294558775774,8.7599180680801148,7.8515066802834985,6.9430952924877154,6.03468390469279,5.1106881051969362,4.1800130616790669,3.2493380181620517,2.3186629746459384,1.3879879311306704,0.44429133698983403,-0.50434463577542532,-1.4529806085397834,-2.4016165813032018,-3.3502525540657295,-4.3097081560930146,-5.2727704375656543,-6.2358327190372931,-7.198895000508001,-8.1619572819777275,-9.1339700426698,-10.108581438749404,-11.083192834827999,-12.05780423090558,-13.032415626982147,-14.014410173860258,-14.998250595670807,-15.982091017480343,-16.965931439288774,-17.949771861096156,-18.939699807438348,-19.930919116608148,-20.92213842577679,-21.913357734944345,-22.904577044110759,-23.900824721269718,-24.897959813401346,-25.895094905531757,-26.892229997661005,-27.88936508978907,-28.890708061307883,-29.892652203908128,-30.894596346507171,-31.89654048910495,-32.898484631701486,-33.903936343040748,-34.909777821076766,-35.915619299111427,-36.921460777144695,-37.927302255176691,-38.936277086208932,-39.945506004906854,-40.954734923603439,-41.963963842298746,-42.9731927609928,-43.985127384602123,-44.997204440652496,-46.009281496701355,-47.021358552748708,-48.033435608794576,-49.048117837026936,-50.062866889800389,-51.077615942572272,-52.092364995342656,-53.107114048111491,0.098147234038504519,0.098147234038504519,0.098147234038504519,0.098147234038504519,0.098147234038504519,0.098147234038504519,0.098147234038504519,0.098147234038504519,0.098147234038504519,0.098147234038504519,0.098147234038504519,0.098147234038504519
DP 96,221.35700276602861,0.0010520373137349105,-91.845515260602014,-88.425611324071966,-85.0057073875413,-81.5858034510103,-78.165899514478667,-74.748116579768634,-71.413053518041565,-68.077990456314026,-64.742927394585948,-61.407864332857436,-58.081340468296581,-54.917062964204014,-51.752785460110978,-48.588507956017494,-45.42423045192357,-42.278026211471463,-39.354727833684052,-36.431429455896144,-33.508131078107816,-30.584832700319037,-27.691045845809334,-25.062865490279943,-22.434685134750154,-19.806504779219953,-17.178324423689311,-14.591519468785494,-12.29434544695274,-9.9971714251195767,-7.6999974032860017,-5.4028233814520235,-3.1579257458855152,-1.2092642599862642,0.73939722591338342,2.6880587118134218,4.6367201977138528,6.5242825107019513,8.1238025655791013,9.7233226204566314,11.32284267533454,12.922362730212814,14.454754629985793,15.718630736821625,16.982506843657848,18.246382950494421,19.510259057331364,20.704058301554625,21.656478741776503,22.608899181998758,23.561319622221369,24.513740062444317,25.396116772950478,26.068359646060507,26.740602519170892,27.41284539228165,28.085088265392709,28.689913129644943,29.116997289659359,29.544081449674106,29.971165609689219,30.398249769704673,30.762564797250853,30.980416538032074,31.198268278813657,31.416120019595574,31.633971760377815,31.795090321318231,31.838376781822593,31.881663242327289,31.924949702832325,31.968236163337703,31.961594538719154,31.862227979082075,31.76286141944535,31.663494859808935,31.564128300172854,31.421871741432227,31.208130769781025,30.994389798130157,30.780648826479645,30.566907854829424,30.31712572352853,30.013281001088931,29.709436278649662,29.405591556210727,29.101746833772129,28.768220789106191,28.394537001306354,28.020853213506804,27.64716942570762,27.273485637908763,26.87580713624196,26.448801258068276,26.021795379894904,25.594789501721941,25.167783623549248,24.721708504806603,24.2545564775506,23.787404450294932,23.320252423039648,22.853100395784715,21.377055133393277,20.880067377486686,20.383079621580443,19.874590396214113,19.355694872358878,18.83679934850398,18.317903824649466,17.799008300795343,17.271363285211127,16.736559444209366,16.201755603207982,15.666951762206997,15.132147921206386,14.590769334226508,14.044531044313839,13.498292754401579,12.952054464489708,12.405816174578261,11.854691933643085,11.30031031505467,10.745928696466686,10.1915470778791,9.6371654592919516,9.0791883830776641,8.5190539779118541,7.9589195727464679,7.3987851675815346,6.8386507624170152,6.2758923359716015,5.7117209368327595,5.14754953769439,4.5833781385564762,4.0192067394189905,3.4531323523777009,2.886141685253707,2.3191510181301993,1.7521603510071622,1.1851696838846064,0.61680391484930241,0.047848797855117163,-0.52110631913858418,-1.0900614361317735,-1.6590165531244829,-2.2289654319032608,-2.7992912677635244,-3.3696171036232792,-3.9399429394824992,-4.5102687753412187,-5.0813167085339561,-5.652605349938141,-6.2238939913417619,-6.7951826327448526,-7.3664712741473837,-7.9382913190496023,-8.5102656488679109,-9.0822399786856476,-9.6542143085028247,-10.226188638319423,-10.798562801833992,-11.371036928496663,-11.943511055158757,-12.515985181820232,-13.088459308481113,-13.661244774624162,-14.234096286042066,-14.806947797459372,-15.37979930887604,-15.952650820292082,-16.525753112343441,-17.098899662589236,-17.672046212834346,-18.245192763078791,-18.818339313322578,-19.391710766843726,-19.965114351833403,-20.538517936822384,-21.111921521810665,-21.68532510679826,-22.258904360651666,-22.832503135112177,-23.406101909571923,-23.979700684030917,-24.553299458489153,-25.127117248479308,-25.700952798722906,-26.274788348965785,-26.848623899207922,-27.422459449449359,-27.996451202429053,-28.57045117815883,-29.144451153887754,-29.718451129615854,-30.292451105343115,-30.866640044523045,-31.440833830750766,-32.015027616977605,-32.58922140320356,-33.1634151894287,0.055074909530896665,0.055074909530896665,0.055074909530896665,0.055074909530896665,0.055074909530896665,0.055074909530896665,0.055074909530896665,0.055074909530896665,0.055074909530896665,0.055074909530896665,0.055074909530896665,0.055074909530896665
DP 97,181.68766661267739,0.0054508550507774683,-442.32217945095863,-426.74706579754911,-411.17195214413709,-395.59683849072178,-380.02172483730425,-364.45479721361033,-349.20712784429838,-333.95945847498365,-318.711789105666,-303.46411973634582,-288.249639673604,-273.66576271009779,-259.08188574658925,-244.49800878307806,-229.91413181956483,-215.40127296198921,-201.7643130279701,-188.12735309394833,-174.49039315992411,-160.85343322589742,-147.33420619201817,-134.87458638774368,-122.41496658346693,-109.95534677918783,-97.495726974906546,-85.204333983647572,-74.090541404354823,-62.976748825059815,-51.862956245762618,-40.749163666463211,-29.852802063635469,-20.188563028709559,-10.524323993781502,-0.860084958851308,8.80415407608101,18.207540456931142,26.38117880790228,34.554817158875522,42.728455509850789,50.902093860828117,58.780614537676065,65.478650570571233,72.176686603468482,78.874722636367721,85.572758669268936,91.952627541883587,97.23657394082953,102.52052033977748,107.80446673872727,113.08841313767911,118.04306426902858,122.00981714742285,125.97657002581909,129.94332290421727,133.91007578261727,137.54784501540703,140.31828242034734,143.08871982528953,145.85915723023345,148.62959463517944,151.08142050141669,152.78980940549175,154.49819830956872,156.20658721364745,157.91497611772803,159.32322791771531,160.10810931095426,160.89299070419511,161.67787209743793,162.46275349068256,162.97186081721458,162.96880885800141,162.96575689879012,162.96270493958073,162.95965298037305,162.70887506629418,162.04521431667339,161.38155356705451,160.71789281743742,160.05423206782231,159.17258319321624,157.96394698000358,156.75531076679283,155.54667455358396,154.33803834037676,152.94117567265079,151.28964949789884,149.63812332314879,147.98659714840039,146.3350709736541,144.52382327177619,142.51735701516975,140.51089075856495,138.50442450196226,136.49795824536139,134.35812135937897,132.0708721764297,129.78362299348223,127.49637381053672,125.2091246275932,117.79877527408345,115.292084954439,112.78539463479656,110.18968018165575,107.51341848112955,104.83715678060527,102.16089508008314,99.484633379562865,96.737059526237914,93.931138140526812,91.125216754818013,88.319295369111245,85.513373983406566,82.65100277823889,79.746906865520884,76.8428109528052,73.938715040091566,71.034619127380324,68.08632520183204,65.108565238119226,62.130805274408743,59.153045310700556,56.175285346994691,53.163265201045874,50.130688427622857,47.098111654202178,44.065534880784,41.032958107368167,37.974063295270618,34.900996848867052,31.827930402466063,28.754863956067503,25.681797509671338,22.588673424038923,19.485891675683767,16.383109927331297,13.280328178981437,10.177546430634246,7.0595781508332465,3.9351011524898913,0.81062415414921907,-2.3138528441886175,-5.4383298425238005,-8.5742493700742148,-11.714509316505884,-14.854769262934735,-17.995029209360638,-21.135289155783742,-24.284148753233943,-27.435875009404352,-30.58760126557161,-33.739327521735952,-36.89105377789722,-40.04924638924377,-43.209316408378129,-46.369386427509355,-49.529456446637376,-52.689526465762249,-55.854482150206856,-59.020659308703635,-62.18683646719704,-65.353013625687254,-68.519190784174,-71.689100483948451,-74.85980197766645,-78.030503471380825,-81.201204965091762,-84.371906458799174,-87.545497007657659,-90.719597421901625,-93.893697836141882,-97.067798250378516,-100.24189866461147,-103.41836336071992,-106.59516583691857,-109.77196831311352,-112.94877078930458,-116.12557326549189,-119.30418552205568,-122.48299888433108,-125.66181224660225,-128.84062560886929,-132.01943897113193,-135.20010784315107,-138.38092718086406,-141.5617465185729,-144.74256585627793,-147.92338519397879,-151.10557647692914,-154.28783998116987,-157.47010348540613,-160.65236698963747,-163.83463049386438,-167.01838026486394,-170.20216815967163,-173.38595605447463,-176.56974394927286,-179.75353184406623,0.30592877951214181,0.30592877951214181,0.30592877951214181,0.30592877951214181,0.30592877951214181,0.30592877951214181,0.30592877951214181,0.30592877951214181,0.30592877951214181,0.30592877951214181,0.30592877951214181,0.30592877951214181
DP 98,131.44659465124019,0.0013583024076232158,-95.839290053003253,-92.738427232024435,-89.637564411044877,-86.5367015900646,-83.435838769083531,-80.336232700472891,-77.285640449496185,-74.235048198518669,-71.184455947540428,-68.133863696561491,-65.088416171164681,-62.140719404413232,-59.19302263766118,-56.245325870908488,-53.297629104155114,-50.361095216584914,-47.562238245786773,-44.763381274987985,-41.964524304188508,-39.165667333388363,-36.3856803395439,-33.7755249219189,-31.165369504293281,-28.555214086667071,-25.94505866904025,-23.362530500882908,-20.973395168103409,-18.584259835323284,-16.195124502542587,-13.805989169761299,-11.453620928525227,-9.3096018562268625,-7.1655827839279356,-5.0215637116284384,-2.8775446393283777,-0.77915253068088708,1.1041385706230746,2.9874296719275928,4.8707207732326587,6.754011874538266,8.5836789565120064,10.198847426855012,11.814015897198555,13.429184367542636,15.044352837887237,16.599222735619872,17.9463950168033,19.293567297987245,20.640739579171726,21.987911860356721,23.269752122676312,24.35559385829616,25.441435593916548,26.527277329537412,27.613119065158813,28.630398875411473,29.466922162218559,30.303445449026146,31.139968735834231,31.97649202264282,32.743047232167172,33.346341390207371,33.949635548248068,34.55292970628922,35.15622386433089,35.68986701707275,36.078848363886607,36.467829710700947,36.856811057515756,37.245792404331034,37.566967823552538,37.762216117501637,37.957464411451184,38.152712705401271,38.347960999351841,38.47852132201718,38.501266728705652,38.524012135394663,38.546757542084151,38.569502948774137,38.53166334992406,38.402944811123348,38.27422627232307,38.14550773352336,38.016789194724083,37.832282565843414,37.57229669199301,37.312310818143132,37.052324944293737,36.792339070444875,36.481778856745279,36.1094044987076,35.737030140670434,35.364655782633754,34.992281424597664,34.57471886178768,34.107210541861683,33.639702221936204,33.172193902011252,32.704685582086853,31.102977804431294,30.555796206740091,30.0086146090495,29.426752493940278,28.813512143444676,28.200271792949625,27.587031442455146,26.973791091961239,26.330709638172024,25.663212223393366,24.9957148086153,24.328217393837829,23.660719979060897,22.967824666408806,22.25615657695565,21.544488487503124,20.832820398051169,20.121152308599839,19.388087299389571,18.640757339930161,17.893427380471387,17.146097421013238,16.398767461555728,15.633581911216321,14.857682736311252,14.08178356140685,13.305884386503113,12.529985211600037,11.739316779951185,10.940695456823189,10.142074133695893,9.3434528105692625,8.54483148744327,7.7340929353197119,6.9175199921482768,6.1009470489775754,5.2843741058076015,4.467801162638354,3.6413602033366077,2.8106899610163518,1.9800197186968327,1.1493494763780945,0.31867923406008636,-0.51997450670374967,-1.3616565750994849,-2.2033386434944444,-3.0450207118885828,-3.8867027802819623,-4.7348077234260719,-5.5850537057661649,-6.4352996881053874,-7.2855456704438089,-8.1357916527813714,-8.991182858457428,-9.8480679014029686,-10.704952944347648,-11.561837987291462,-12.418723030234387,-13.279719343104116,-14.141743522030028,-15.003767700955031,-15.865791879879104,-16.727816058802251,-17.593125810911761,-18.459132540430438,-19.325139269948128,-20.191145999464851,-21.057152728980626,-21.925790910002476,-22.79489349408081,-23.663996078158103,-24.533098662234387,-25.402201246309627,-26.273449647324831,-27.145004616796246,-28.016559586266645,-28.888114555735921,-29.759669525204185,-30.632949033189803,-31.506420174676865,-32.3798913161628,-33.253362457647512,-34.126833599131075,-35.001845172162589,-35.87698166078922,-36.752118149414741,-37.627254638039133,-38.5023911266624,-39.3787965136668,-40.255268697420256,-41.131740881172441,-42.008213064923353,-42.884685248672938,-43.762387113049037,-44.64012051961739,-45.517853926184436,-46.395587332750132,-47.273320739314507,0.084672200656844138,0.084672200656844138,0.084672200656844138,0.084672200656844138,0.084672200656844138,0.084672200656844138,0.084672200656844138,0.084672200656844138,0.084672200656844138,0.084672200656844138,0.084672200656844138,0.084672200656844138
DP 99,145.49911346935505,0.0035215158230339104,-260.36566874619325,-251.7231539500458,-243.08063915389647,-234.43812435774524,-225.79560956159227,-217.15688873326465,-208.66613408464193,-200.17537943601764,-191.68462478739119,-183.1938701387632,-174.71860282370235,-166.53759777421809,-158.35659272473214,-150.17558767524454,-141.99458262575533,-133.84704989607189,-126.11234666247334,-118.37764342887301,-110.64294019527097,-102.90823696166721,-95.229807536462175,-88.057847705927543,-80.885887875391347,-73.71392804485366,-66.5419682143143,-59.45183415775081,-52.934486706441056,-46.417139255129818,-39.89979180381706,-33.382444352502809,-26.973100645584807,-21.175784962678531,-15.378469279770769,-9.5811535968615988,-3.7838379139509648,1.880721152134142,6.9194204255735876,11.958119699014443,16.996818972456698,22.03551824590031,26.919863230373185,31.186783764087391,35.453704297802929,39.720624831519871,43.987545365238169,48.082959363456055,51.58762142339463,55.092283483334519,58.5969455432757,62.101607603218227,65.422848191266823,68.1938174287491,70.964786666232655,73.735755903717489,76.506725141203646,79.087881782875783,81.168616875108981,83.249351967343571,85.330087059579441,87.410822151816546,89.300724356359993,90.745343810370642,92.189963264382527,93.634582718395535,95.079202172409978,96.3368269350799,97.206072669588025,98.075318404097374,98.94456413860793,99.813809873119766,100.50400598345634,100.86167652776057,101.21934707206604,101.5770176163728,101.93468816068085,102.12446941377038,102.03443094973966,101.94439248571022,101.85435402168213,101.76431555765528,101.51983249896321,101.04367889870467,100.56752529844726,100.09137169819114,99.615218097936292,98.999460207410891,98.19482281933027,97.390185431250885,96.585548043172849,95.780910655096108,94.8521085391336,93.771546925491378,92.6909853118504,91.610423698210823,90.529862084572386,89.340510386329939,88.03091485079679,86.721319315264864,85.411723779734345,84.102128244205176,79.703323610431113,78.20572050861918,76.708117406808711,75.130333124349761,73.480002520577969,71.8296719168075,70.179341313038634,68.529010709271,66.811108241035427,65.037918540605233,63.264728840176339,61.491539139748973,59.718349439323077,57.8888507592726,56.017731472997873,54.146612186724731,52.275492900453038,50.404373614182958,48.4868198910455,46.538309145157996,44.589798399272105,42.64128765338782,40.69277690750512,38.706345525803137,36.697161189122376,34.687976852443221,32.678792515765771,30.669608179089966,28.629733147856772,26.573331911721382,24.516930675587766,22.460529439455833,20.40412820332557,18.323091405393811,16.230192695694907,14.137293985997859,12.044395276302613,9.9514965666092241,7.8389683359024271,5.7180271882763352,3.5970860406520941,1.4761448930298158,-0.64479625459062,-2.781277630059924,-4.9236537773160363,-7.0660299245702021,-9.2084060718223029,-11.350782219072489,-13.505396989912873,-15.664091456189704,-17.822785922464359,-19.981480388736973,-22.140174855007452,-24.308471949113258,-26.479557020027759,-28.650642090940071,-30.821727161850205,-32.992812232758119,-35.1714195836905,-37.351907593503974,-39.532395603315173,-41.712883613123992,-43.893371622930566,-46.079761754284888,-48.267403918435235,-50.455046082583138,-52.642688246728653,-54.83033041087176,-57.0226194620415,-59.215728603770188,-61.408837745496257,-63.601946887219832,-65.795056028940863,-67.99191429676209,-70.1893081945235,-72.386702092282277,-74.584095990038364,-76.781489887791736,-78.981833161301338,-81.182504174201171,-83.383175187097891,-85.58384619999174,-87.784517212882733,-89.987868114088812,-92.1914363309187,-94.395004547745756,-96.598572764570079,-98.8021409813915,-101.00784276861857,-103.21365687024981,-105.41947097187786,-107.62528507350262,-109.83109917512421,-112.03901749695933,-114.24698979355482,-116.45496209014688,-118.66293438673584,-120.87090668332134,0.21269838497888374,0.21269838497888374,0.21269838497888374,0.21269838497888374,0.21269838497888374,0.21269838497888374,0.21269838497888374,0.21269838497888374,0.21269838497888374,0.21269838497888374,0.21269838497888374,0.21269838497888374
DP 100,172.01482898616456,0.0030217764320872166,-239.91945183880193,-231.59649173380762,-223.2735316288119,-214.95057152381455,-206.62761141881569,-198.30883318974702,-190.15314970313389,-181.99746621651906,-173.84178272990295,-165.68609924328513,-157.54740149235113,-149.73143593046413,-141.91547036857594,-134.09950480668641,-126.28353924479535,-118.50401541094604,-111.17394414898313,-103.84387288701879,-96.513801625053048,-89.183730363085942,-81.914298561940214,-75.190627639914112,-68.466956717886717,-61.743285795858078,-55.019614873828111,-48.382995121740556,-42.355740141799885,-36.328485161857991,-30.301230181914825,-24.273975201970448,-18.359861679366539,-13.086890211205533,-7.8139187430433417,-2.5409472748799407,2.7320241932846527,7.868380513034424,12.360686611382514,16.852992709731765,21.345298808082184,25.837604906433736,30.174227192265331,33.8881068703081,37.601986548352016,41.31586622639707,45.029745904443232,48.574436598941624,51.536358131467928,54.498279663995255,57.460201196523734,60.422122729053285,63.207413137244849,65.462803494270887,67.718193851298011,69.9735842083262,72.228974565355443,74.306253784113039,75.913961152783813,77.521668521455666,79.129375890128514,80.737083258802471,82.1705876855151,83.197613092364264,84.2246384992145,85.251663906065716,86.278689312918,87.139901316577678,87.656726814261475,88.173552311946324,88.69037780963221,89.207203307319091,89.570016486342936,89.646802628586968,89.723588770832009,89.800374913078159,89.877161055325345,89.814032435988892,89.517709020706548,89.221385605425169,88.925062190144814,88.6287387748655,88.2078559852921,87.600131190904918,86.992406396518717,86.384681602133455,85.776956807749315,85.060382824929221,84.1965398722137,83.332696919499313,82.468853966785943,81.605011014073639,80.647661309127955,79.576023609594358,78.504385910061842,77.4327482105304,76.361110510999978,75.21040630950931,73.972311243019675,72.734216176531234,71.496121110043788,70.258026043557493,66.214320625975873,64.844457223146833,63.474593820318987,62.05057372888102,60.577553753662713,59.104533778445557,57.631513803229531,56.158493828014684,54.641515751818289,53.088571201188621,51.535626650560033,49.982682099932738,48.42973754930658,46.841529042750395,45.227255293430879,43.612981544112714,41.998707794795649,40.384434045479964,38.742176424356,37.081262447849262,35.420348471343864,33.759434494839731,32.098520518336947,30.415620494835434,28.71952851063206,27.023436526430039,25.327344542229419,23.631252558030095,21.918042879332255,20.195615731599911,18.47318858386901,16.750761436139488,15.028334288411326,13.292687160445549,11.55067467168954,9.8086621829350467,8.06664969418203,6.3246372054305215,4.5724851692561828,2.8159874758443388,1.059489782434007,-0.697007910974724,-2.4535056043819585,-4.217737548157551,-5.984903273940775,-7.7520689997224093,-9.5192347255023684,-11.28640045128077,-13.059444640767996,-14.834448392242244,-16.609452143714719,-18.384455895185543,-20.159459646654625,-21.93892646954027,-23.719689077268654,-25.500451684995259,-27.281214292720058,-29.061976900443074,-30.846135970169556,-32.63114419552501,-34.416152420878689,-36.201160646230441,-37.986168871580276,-39.773781551547259,-41.561946721422473,-43.350111891295612,-45.13827706116686,-46.926442231036113,-48.71662353655671,-50.507160653139785,-52.297697769720628,-54.088234886299389,-55.878772002876119,-57.670941803385,-59.463344862090686,-61.255747920794242,-63.048150979495638,-64.84055403819481,-66.634210473975855,-68.428006187038463,-70.221801900098527,-72.015597613156331,-73.809393326211733,-75.604420966063273,-77.399548504457513,-79.1946760428496,-80.989803581239329,-82.784931119626833,-84.580984697395635,-86.3770870232904,-88.17318934918255,-89.969291675072057,-91.7653940009589,-93.562470031458744,-95.3595710381803,-97.156672044899253,-98.953773051615443,-100.75087405832889,0.17277998951797463,0.17277998951797463,0.17277998951797463,0.17277998951797463,0.17277998951797463,0.17277998951797463,0.17277998951797463,0.17277998951797463,0.17277998951797463,0.17277998951797463,0.17277998951797463,0.17277998951797463
DP 101,52.277110127737259,0.0023971103172491137,-96.3951218529268,-93.8268304482797,-91.258539043631259,-88.6902476389815,-86.121956234330582,-83.554214635629947,-81.007915676914635,-78.4616167181981,-75.91531775948026,-73.369018800761268,-70.825026634576943,-68.32486396265692,-65.8247012907358,-63.324538618813612,-60.824375946890264,-58.329331284053104,-55.897409378304339,-53.465487472554358,-51.033565566803233,-48.601643661050979,-46.178664646035394,-43.836172492951796,-41.493680339867147,-39.151188186781447,-36.808696033694716,-34.479822008060374,-32.246275904360189,-30.012729800658985,-27.779183696956757,-25.545637593253545,-23.331101262034963,-21.224288172784746,-19.117475083533535,-17.010661994281335,-14.903848905028152,-12.821967741990521,-10.857624149169709,-8.8932805563479285,-6.9289369635252029,-4.9645933707015155,-3.0314506187684604,-1.223112704970339,0.5852252088287262,2.3935631226287342,4.2019010364296756,5.97261214504,7.6137182328675843,9.2548243206960858,10.895930408525528,12.537036496355883,14.134124063303929,15.599154403330946,17.06418474335889,18.529215083387768,19.994245423417578,21.409068910968337,22.691527152670091,23.973985394372725,25.25644363607627,26.538901877780738,27.765334230886019,28.861037745382156,29.956741259879205,31.052444774377168,32.148148288876,33.182511884517083,34.089475403170169,34.996438921824151,35.903402440479077,36.810365959134906,37.651292408162533,38.369576801623495,39.087861195085374,39.806145588548162,40.524429982011874,41.172685095646088,41.704222977765156,42.235760859885133,42.7672987420061,43.298836624127986,43.757118422461517,44.105514364050649,44.453910305640719,44.802306247231748,45.150702188823757,45.423411049502619,45.593718058586362,45.764025067671213,45.934332076756881,46.104639085843637,46.197632491899149,46.196129870301434,46.194627248704734,46.193124627109022,46.191622005514347,46.111965098289453,45.945925583319685,45.77988606835094,45.613846553383233,45.447807038416656,44.558464803145519,44.235935516203213,43.91340622926203,43.513240879826007,43.042831980847986,42.572423081871058,42.10201418289526,41.6316052839206,41.0847967681255,40.475478161954662,39.866159555785046,39.256840949616624,38.647522343449332,37.963593163430787,37.224515811040121,36.485438458650727,35.74636110626254,35.007283753875619,34.195851813305545,33.336182340774641,32.476512868245038,31.616843395716742,30.757173923189772,29.827785587323543,28.85656487906979,27.885344170817458,26.914123462566458,25.942902754316837,24.90488770528324,23.830905501447546,22.756923297613358,21.682941093780656,20.608958889949385,19.471306142118106,18.302996314849427,17.134686487582318,15.966376660316714,14.798066833052635,13.569324010943602,12.314680517874674,11.06003702480734,9.80539353174162,8.5507500386774939,7.23894017814906,5.9054457777661211,4.5719513773848464,3.2384569770052969,1.9049625766274014,0.51752026068389667,-0.88790537367560263,-2.2933310080332703,-3.6987566423891898,-5.1041822767433045,-6.5604598608980176,-8.03150153455224,-9.5025432082045942,-10.973584881855073,-12.444626555503657,-13.963615803060405,-15.494592510599592,-17.025569218136855,-18.556545925672111,-20.0875226332054,-21.663798507093414,-23.249683814052073,-24.835569121008593,-26.421454427963116,-28.007339734915497,-29.636181001213689,-31.272603208599726,-32.909025415983535,-34.545447623365185,-36.181869830744539,-37.859322957989136,-39.542638088445152,-41.225953218898923,-42.909268349350377,-44.592583479799522,-46.315282926801018,-48.042358822600178,-49.76943471839683,-51.496510614190818,-53.223586509982454,-54.989187659210089,-56.757912871303247,-58.526638083393934,-60.295363295482282,-62.064088507568172,-63.870556967158883,-65.679012288987209,-67.487467610812814,-69.295922932635648,-71.104378254455526,-72.950741956827741,-74.79807803645636,-76.645414116082023,-78.492750195704758,-80.340086275324552,0.18289299529642822,0.18289299529642822,0.18289299529642822,0.18289299529642822,0.18289299529642822,0.18289299529642822,0.18289299529642822,0.18289299529642822,0.18289299529642822,0.18289299529642822,0.18289299529642822,0.18289299529642822
DP 102,102.98375316566032,0.0014423450915491175,-89.890743637712063,-87.145847778463519,-84.400951919214037,-81.656056059963788,-78.9111602007127,-76.167189293323275,-73.459291858279983,-70.751394423236,-68.043496988191251,-65.335599553145627,-62.631512206192127,-59.999817253271459,-57.36812230035013,-54.73642734742802,-52.104732394505263,-49.481370831294065,-46.960788791443392,-44.440206751591937,-41.919624711739807,-39.39904267188691,-36.892707118349655,-34.514591288254145,-32.136475458157918,-29.758359628061065,-27.380243797963512,-25.023279715950238,-22.814379469961025,-20.605479223971152,-18.396578977980628,-16.187678731989472,-14.007406369333701,-11.989360482875204,-9.97131459641609,-7.9532687099563493,-5.935222823495983,-3.9534039239606775,-2.1423713480555104,-0.33133877214973151,1.4796938037566461,3.2907263796636212,5.0582288125024366,6.6516086158075325,8.2449884191132075,9.8383682224194686,11.431748025726307,12.974962874416812,14.345385216472327,15.715807558528399,17.086229900585074,18.456652242642289,19.771241972222441,20.918331753425427,22.065421534629007,23.21251131583313,24.359601097037821,25.446372349419889,26.374119952586813,27.301867555754324,28.229615158922332,29.157362762090948,30.0216158131516,30.737712908767634,31.453810004384181,32.169907100001275,32.886004195618945,33.536780593412296,34.05188902674378,34.566997460075811,35.082105893408375,35.597214326741472,36.046492489015378,36.373512655792915,36.700532822571,37.027552989349616,37.3545731561288,37.616474105652252,37.769841385045069,37.923208664438413,38.0765759438323,38.229943223226734,38.319978724628534,38.315015062493615,38.310051400359285,38.305087738225538,38.300124076092317,38.234519500531427,38.0868699875455,37.939220474560109,37.791570961575289,37.643921448591044,37.4390375608872,37.164199346335714,36.8893611317848,36.614522917234488,36.339684702684714,36.011541892549808,35.624482416050391,35.237422939551521,34.850363463053263,34.463303986555637,33.056960425217873,32.571834710598431,32.086708995979649,31.556998991998949,30.986950018756378,30.416901045514471,29.846852072273183,29.276803099032492,28.666650378963311,28.023684813189053,27.380719247415456,26.73775368164252,26.094788115870259,25.416112521399068,24.711041970872138,24.005971420345922,23.300900869820367,22.595830319295526,21.859261885212582,21.101694365888751,20.344126846565665,19.586559327243258,18.828991807921575,18.043886901093284,17.242259145303166,16.440631389513772,15.639003633725149,14.837375877937244,14.011871468931323,13.173510053293368,12.335148637656218,11.496787222019876,10.658425806384278,9.799519933111192,8.9307219962524531,8.0619240593945367,7.193126122537449,6.3243281856811828,5.4379764431293189,4.5441014039649446,3.6502263648014095,2.7563513256387537,1.8624762864769329,0.95369672318207488,0.039263525383309524,-0.87516967241457255,-1.7896028702115305,-2.7040360680076172,-3.6310561706003255,-4.5622720667549892,-5.4934879629086817,-6.4247038590614487,-7.3559197552132529,-8.2977203618480413,-9.2425940780388416,-10.187467794228651,-11.132341510417479,-12.077215226605302,-13.030966161089463,-13.986936505032389,-14.942906848974301,-15.898877192915164,-16.854847536854969,-17.818260603783074,-18.783252515404083,-19.748244427023973,-20.713236338642787,-21.678228250260492,-22.649473035375792,-23.621821338287198,-24.594169641197421,-25.566517944106504,-26.538866247014361,-27.516529665975927,-28.49495244464584,-29.473375223314616,-30.451798001982127,-31.430220780648455,-32.413160011308818,-33.396601117400579,-34.380042223491095,-35.36348332958022,-36.346924435668051,-37.334429891691833,-38.322264931132693,-39.31009997057226,-40.297935010010569,-41.285770049447628,-42.277190372499113,-43.268799430358825,-44.260408488217109,-45.25201754607388,-46.243626603929151,-47.238695836542107,-48.233853825127824,-49.229011813711978,-50.224169802294661,-51.219327790875823,0.096410333344193772,0.096410333344193772,0.096410333344193772,0.096410333344193772,0.096410333344193772,0.096410333344193772,0.096410333344193772,0.096410333344193772,0.096410333344193772,0.096410333344193772,0.096410333344193772,0.096410333344193772
DP 103,200.65100423814621,0.0013234710494983487,-111.53559741322779,-107.49788610106977,-103.46017478891116,-99.422463476751844,-95.384752164591944,-91.34934584088613,-87.403834938404458,-83.458324035922246,-79.512813133439266,-75.567302230955747,-71.63110476895919,-67.8718644368653,-64.112624104770774,-60.35338377267572,-56.594143440580055,-52.854727775245941,-49.359818831780267,-45.864909888314045,-42.370000944847177,-38.875092001379819,-35.412810720273988,-32.244181484434307,-29.075552248594075,-25.906923012753296,-22.738293776911977,-19.615863032590621,-16.816825222300565,-14.017787412009975,-11.218749601718875,-8.4197117914272237,-5.6797381410887686,-3.2744651190293363,-0.86919209696939159,1.5360809250910565,3.94135394715201,6.2766506605197279,8.2820552819076969,10.287459903296156,12.292864524685102,14.298269146074528,16.225614008272796,17.840716144556353,19.4558182808404,21.070920417124928,22.686022553409881,24.218262904078276,25.465086956648051,26.7119110092183,27.958735061789014,29.205559114360153,30.36805136567413,31.277545024760705,32.18703868384771,33.096532342935156,34.006026002023056,34.83276859646692,35.441346448948941,36.04992430143141,36.658502153914341,37.267080006397713,37.797027027894835,38.143499632998818,38.489972238103256,38.836444843208113,39.182917448313454,39.456785139305843,39.579855897079355,39.702926654853364,39.825997412627778,39.949068170402661,40.006805205882792,39.943206421267732,39.8796076366531,39.816008852038905,39.752410067425181,39.631379154776184,39.414626581121865,39.197874007468009,38.981121433814572,38.764368860161554,38.498195331810216,38.157889203580318,37.817583075350875,37.47727694712183,37.136970818893261,36.754960323975823,36.316525346610284,35.878090369245143,35.439655391880486,35.00122041451624,34.5282199140266,34.012971937012139,33.497723959998162,32.982475982984596,32.467228005971485,31.923802601317316,31.349233163299477,30.774663725282061,30.200094287265131,29.625524849248656,27.788714485636643,27.168904142272265,26.549093798908395,25.911380385576173,25.257468634231131,24.60355688288659,23.949645131542542,23.295733380198975,22.627836790496332,21.948497819979636,21.269158849463427,20.589819878947711,19.910480908432497,19.220349282305449,18.52224029852913,17.82413131475333,17.126022330978046,16.427913347203297,15.721567044891955,15.009729067123006,14.297891089354602,13.586053111586731,12.874215133819419,12.156152774173231,11.434355691266298,10.712558608359931,9.9907615254541575,9.2689644425489117,8.5425051989936946,7.8135354934468211,7.0845657879005461,6.3555960823548681,5.6266263768097593,4.8941902680745359,4.1600851018557705,3.4259799356376366,2.6918747694201137,1.9577696032032208,1.22110124246683,0.48333433518307872,-0.25443257210004211,-0.9921994793824972,-1.7299663866643298,-2.4696228494059396,-3.2099960647150194,-3.950369280023442,-4.6907424953311665,-5.4311157106382364,-6.1728824265226789,-6.9151136601611469,-7.6573448937988839,-8.3995761274359246,-9.1418073610722441,-9.8850714905680519,-10.628635505652243,-11.372199520735698,-12.115763535818415,-12.859327550900383,-13.603666016512713,-14.34819810390727,-15.092730191301071,-15.837262278694039,-16.581794366086264,-17.326919116789423,-18.072169590742025,-18.81742006469381,-19.562670538644753,-20.307921012594896,-21.053635219895817,-21.799431267649972,-22.54522731540327,-23.29102336315572,-24.036819410907267,-24.783008567863167,-25.529253887522614,-26.275499207181184,-27.021744526838791,-27.767989846495546,-28.514537254576595,-29.261118231209849,-30.007699207842123,-30.754280184473405,-31.500861161103721,-32.247782393504956,-32.994731217687978,-33.741680041870048,-34.48862886605118,-35.235577690231381,-35.982772336490157,-36.729979923197789,-37.477187509904361,-38.224395096609811,-38.971602683314174,-39.719092530610375,-40.466589618092932,-41.214086705574374,-41.961583793054636,-42.709080880533719,0.071758758345477291,0.071758758345477291,0.071758758345477291,0.071758758345477291,0.071758758345477291,0.071758758345477291,0.071758758345477291,0.071758758345477291,0.071758758345477291,0.071758758345477291,0.071758758345477291,0.071758758345477291
DP 104,117.52847904185724,0.005007788224743322,-334.49886660925597,-323.9663739348585,-313.43388126045852,-302.90138858605542,-292.36889591164959,-281.84031975547231,-271.46448929109653,-261.08865882671819,-250.71282836233681,-240.33699789795313,-229.97725036558933,-219.92308158201612,-209.86891279844065,-199.81474401486273,-189.76057523128239,-179.74143634177696,-170.15433722731825,-160.56723811285718,-150.98013899839339,-141.39303988392737,-131.86548275372189,-122.87380910986423,-113.88213546600426,-104.89046182214194,-95.8987881782775,-86.994884141064446,-78.7053739872936,-70.415863833520589,-62.126353679745392,-53.836843525967886,-45.665102708205858,-38.160728882337381,-30.656355056466793,-23.151981230594064,-15.647607404719228,-8.2907811572669967,-1.6295443203115747,5.0316925166459354,11.692929353605495,18.354166190567089,24.84011768164914,30.624919505121834,36.409721328596547,42.194523152073273,47.979324975551926,53.564657286479481,58.46291956346532,63.361181840453128,68.259444117442982,73.157706394434626,77.837007639999058,81.859417512699466,85.881827385401948,89.904237258106292,93.926647130812555,97.7160145083655,100.89098911598836,104.06596372361315,107.24093833123983,110.41591293886819,113.3494626587815,115.71968003410629,118.08989740943281,120.46011478476126,122.83033216009152,124.95636055837984,126.57522013326673,128.19407970815567,129.81293928304643,131.43179885793882,132.80892518948878,133.73711182657351,134.66529846366029,135.59348510074878,136.52167173783934,137.21517041235583,137.51751656712358,137.81986272189329,138.12220887666467,138.42455503143808,138.50306261975413,138.24580706901594,137.98855151827956,137.73129596754512,137.47404041681258,137.006750344325,136.25529124765157,135.50383215098,134.75237305431037,134.00091395764261,133.05531618265644,131.87243372301393,130.68955126337315,129.50666880373444,128.32378634409761,126.96394349842049,125.40850933627972,123.85307517414087,122.29764101200414,120.74220684986928,115.27978043939002,113.40589610562903,111.5320117718701,109.51658425117019,107.37309129870151,105.22959834623482,103.08610539377044,100.94261244130807,98.674705979455055,96.305004508155392,93.935303036858,91.56560156556273,89.19590009426966,86.71799083742556,84.160100134232181,81.602209431041288,79.0443187278525,76.486428024666125,73.835349676785768,71.12214476441045,68.408939852037534,65.695734939667048,62.982530027298935,60.189809997394732,57.349379694433,54.508949391473742,51.66851908851708,48.828088785562883,45.92039125652996,42.976471935275505,40.032552614023693,37.088633292774404,34.144713971527615,31.144340671739648,28.116785036197605,25.089229400658372,22.061673765121903,19.034118129588194,15.959527340860372,12.864777994220777,9.7700286475839828,6.6752793009501605,3.5805299543191107,0.44684882658031649,-2.7016000360421097,-5.85004889866157,-8.9984977612779335,-12.146946623891372,-15.327439075691922,-18.518613127725377,-21.709787179755551,-24.900961231782635,-28.092135283806485,-31.309566425970637,-34.534620914540518,-37.759675403107089,-40.984729891670334,-44.209784380230296,-47.4562927826702,-50.708164917058269,-53.96003705144286,-57.21190918582397,-60.463781320201527,-63.733175660334936,-67.006287032742975,-70.279398405147333,-73.552509777548053,-76.825621149945064,-80.113068951147184,-83.403046869793485,-86.693024788435821,-89.983002707074419,-93.272980625708968,-96.574854631312633,-99.878428206414753,-103.18200178151302,-106.485575356607,-109.7891489316972,-113.10252976867012,-116.41700040440325,-119.73147104013188,-123.04594167585599,-126.36041231157577,-129.68362297687409,-133.00754238252532,-136.33146178817236,-139.65538119381512,-142.97930059945369,-146.31066824833445,-149.64242798411945,-152.97418771989948,-156.30594745567473,-159.63770719144506,-162.97663829465554,-166.31575334860014,-169.65486840253968,-172.99398345647418,-176.33309851040377,0.32268747935414144,0.32268747935414144,0.32268747935414144,0.32268747935414144,0.32268747935414144,0.32268747935414144,0.32268747935414144,0.32268747935414144,0.32268747935414144,0.32268747935414144,0.32268747935414144,0.32268747935414144
DP 105,80.455199107517117,0.0057741258320063195,-311.71569209082151,-302.69220814203823,-293.66872419325176,-284.64524024446206,-275.62175629566889,-266.60082348458667,-257.67938600889363,-248.75794853319729,-239.83651105749766,-230.91507358179499,-222.0042106491704,-213.2942660341279,-204.58432141908224,-195.87437680403414,-187.16443218898297,-178.4777624358525,-170.07815224640217,-161.67854205694874,-153.27893186749228,-144.87932167803314,-136.51987190321518,-128.52186965620345,-120.52386740918892,-112.52586516217188,-104.52786291515218,-96.590154578640323,-89.0745081749406,-81.558861771238284,-74.043215367533321,-66.5275689638258,-59.094640273703071,-52.130450506289662,-45.166260738873653,-38.202070971455178,-31.237881204034185,-24.380023732628519,-18.02345282853452,-11.666881924438071,-5.3103110203391966,1.0462598837620958,7.272764140983571,12.978995663654775,18.685227186328351,24.391458709004308,30.097690231682613,35.651022486733844,40.677695285635536,45.70436808453956,50.731040883445942,55.757713682354584,60.610462777720635,64.941434186668047,69.2724055956178,73.603377004569865,77.93434841352412,82.0729272517949,85.70428270001922,89.335638148245835,92.966993596474737,96.598349044705841,100.02197886830628,102.96090902294601,105.899839177588,108.8387693322323,111.77769948687865,114.497082209357,116.76047541829365,119.0238686272326,121.28726183617361,123.550655045117,125.58638340660256,127.19929947448279,128.81221554236541,130.4251316102503,132.03804767813725,133.41890740624,134.41300071890771,135.40709403157774,136.40118734424996,137.3952806569244,138.15650737154618,138.56842868638577,138.98035000122772,139.39227131607183,139.80419263091829,139.98576244797039,139.85567511551656,139.72558778306512,139.59550045061593,139.4654131181691,139.11045273976643,138.48064280402886,137.85083286829374,137.22102293256103,136.59121299683073,135.74454493404815,134.65818725764598,133.57182958124619,132.48547190484894,131.39911422845421,127.10622707425209,125.6063429661222,124.10645885799494,122.4115195012341,120.54009807440762,118.66867664758379,116.79725522076259,114.92583379394402,112.87221418089244,110.66952019336478,108.46682620583977,106.26413221831768,104.0614382307982,101.69012582868378,99.194179652652267,96.698233476623869,94.202287300597987,91.7063411245753,89.05568898435223,86.301897097500557,83.548105210651968,80.794313323806222,78.040521436963544,75.145930638460314,72.166858363607432,69.187786088757591,66.20871381391099,63.22964153906743,60.123382379597885,56.9486361250475,53.773889870500525,50.599143615956812,47.424397361416261,44.13554842458781,40.791759561458477,37.447970698332647,34.104181835210284,30.760392972091374,27.31487213855959,23.825750515451006,20.336628892345981,16.847507269244687,13.358385646146916,9.7790513959738217,6.1654973869822634,2.5519433779944585,-1.0616106309894371,-4.6751646399696378,-8.3683601712487388,-12.088103880331792,-15.807847589410713,-19.527591298485731,-23.247335007556654,-27.037162699511033,-30.847338208997868,-34.657513718480473,-38.467689227958942,-42.277864737433127,-46.1496159303803,-50.036761771717153,-53.923907613049685,-57.811053454377749,-61.698199295701329,-65.639482914568333,-69.592250924687434,-73.545018934801831,-77.497786944911567,-81.450554955016671,-85.451073756717534,-89.460019699690974,-93.468965642659285,-97.477911585622834,-101.48685752858127,-105.53834014153239,-109.59589988111932,-113.65345962070113,-117.71101936027775,-121.7685790998493,-125.86422150032344,-129.96409570751641,-134.06396991470373,-138.16384412188546,-142.26371832906145,-146.39895492549496,-150.53705910402454,-154.67516328254879,-158.81326746106765,-162.95137163958117,-167.12227513481727,-171.29490523621439,-175.4675353376054,-179.64016543898987,-183.8127955403684,-188.01754829324935,-192.2231250152671,-196.42870173727843,-200.63427845928302,-204.839855181281,0.40990593904093942,0.40990593904093942,0.40990593904093942,0.40990593904093942,0.40990593904093942,0.40990593904093942,0.40990593904093942,0.40990593904093942,0.40990593904093942,0.40990593904093942,0.40990593904093942,0.40990593904093942
DP 106,52.751857307999394,0.0017492616633154774,-70.815223230751187,-68.925366023232428,-67.03550881571276,-65.145651608192267,-63.255794400670744,-61.366344114444232,-59.492763912607728,-57.619183710770287,-55.745603508931993,-53.872023307092739,-52.000149184829255,-50.160690897043658,-48.321232609257315,-46.48177432147012,-44.642316033682185,-42.806643105926945,-41.017656762313393,-39.228670418698975,-37.439684075083761,-35.6506977314677,-33.868323839319586,-32.145462635406425,-30.422601431492545,-28.699740227577884,-26.976879023662466,-25.264084549427984,-23.621757944179993,-21.979431338931281,-20.337104733681823,-18.694778128431576,-17.066500032840228,-15.517831043906913,-13.969162054972871,-12.420493066038107,-10.871824077102607,-9.3415732171804322,-7.8981516745540086,-6.4547301319268753,-5.0113085892990448,-3.5678870466705135,-2.147506684247384,-0.81929213158726044,0.50892242107355123,1.8371369737350507,3.1653515263972345,4.46579302097545,5.6705705932000079,6.8753481654252333,8.0801257376511444,9.28490330987772,10.457204241960277,11.532074025717842,12.606943809476086,13.681813593234995,14.756683376994573,15.794531124313313,16.73477404851803,17.675016972723441,18.615259896929473,19.555502821136187,20.454457506696389,21.25707166787695,22.059685829058193,22.862299990240079,23.664914151422622,24.42234910053407,25.085948987531065,25.74954887452872,26.413148761527058,27.076748648526049,27.691743219257109,28.216469461424698,28.741195703592954,29.265921945761889,29.790648187931495,30.263866794893509,30.651238044893478,31.038609294894112,31.425980544895442,31.813351794897436,32.146880654483674,32.399644656135337,32.652408657787696,32.90517265944078,33.157936661094539,33.355114907081465,33.47708765915948,33.59906041123827,33.721033163317742,33.843005915397953,33.908242732926169,33.904134438725656,33.900026144525818,33.895917850326761,33.891809556128443,33.830398094444831,33.705650412623072,33.5809027308021,33.456155048981863,33.331407367162427,32.670569166823896,32.431183206341004,32.191797245858893,31.895589076135249,31.547969313117395,31.200349550100356,30.852729787084161,30.505110024068745,30.101626444548991,29.652435146015012,29.203243847481918,28.75405254894968,28.30486125041833,27.8011681178807,27.257190125151993,26.713212132424193,26.169234139697323,25.625256146971356,25.028478448053747,24.396500113227724,23.764521778402674,23.132543443578573,22.50056510875541,21.817763760294508,21.104467835035884,20.391171909778251,19.677875984521641,18.964580059266027,18.202646743163104,17.414523355487603,16.626399967813203,15.838276580139876,15.050153192467599,14.215719951710005,13.358988725799778,12.502257499890691,11.645526273982702,10.788795048075851,9.8881603782258018,8.9687093538579159,8.0492583294911864,7.129807305125639,6.21035628076125,5.2494259149995148,4.2727614651676094,3.2960970153369171,2.3194325655074879,1.342768115679259,0.327008572167375,-0.70178316194621992,-1.7305748960584797,-2.7593666301694668,-3.7881583642791332,-4.8537541127385344,-5.9300353464926205,-7.0063165802453442,-8.0825978139966956,-9.1588790477466731,-10.269816478313095,-11.389418367550071,-12.509020256785641,-13.628622146019742,-14.748224035252415,-15.900524943510931,-17.059762381955082,-18.218999820397709,-19.378237258838826,-20.537474697278423,-21.727679571337767,-22.92334963133759,-24.119019691335748,-25.314689751332331,-26.510359811327245,-27.735573193397755,-28.965007369188012,-30.194441544976637,-31.423875720763522,-32.653309896548784,-33.911068915529654,-35.171975436785473,-36.432881958039495,-37.69378847929157,-38.954695000541861,-40.2432838377197,-41.534117469869727,-42.824951102017991,-44.115784734164492,-45.4066183663093,-46.724549875966765,-48.043907859314452,-49.36326584266012,-50.68262382600377,-52.001981809345288,-53.348544897401318,-54.695805815981721,-56.043066734560128,-57.390327653136374,-58.737588571710425,0.13333128745691417,0.13333128745691417,0.13333128745691417,0.13333128745691417,0.13333128745691417,0.13333128745691417,0.13333128745691417,0.13333128745691417,0.13333128745691417,0.13333128745691417,0.13333128745691417,0.13333128745691417
DP 107,196.2373673784937,0.0020685342025705735,-172.88811225274782,-166.66852235435192,-160.44893245595506,-154.229342557557,-148.00975265915812,-141.7936477001623,-135.71345669553992,-129.63326569091677,-123.55307468629238,-117.47288368166697,-111.4067853355462,-105.60845016514246,-99.810114994737788,-94.011779824332265,-88.213444653925748,-82.4451437004566,-77.047268541054052,-71.649393381650583,-66.25151822224619,-60.853643062840952,-55.5052817832749,-50.602550102382345,-45.69981842148897,-40.797086740594764,-35.8943550596997,-31.061880123346313,-26.721207711389653,-22.380535299432207,-18.039862887473884,-13.699190475514774,-9.4485681513558717,-5.7082353324945,-1.967902513632326,1.7724303052306432,5.5127631240944028,9.1460987808582974,12.275013465722015,15.403928150586511,18.532842835451778,21.661757520317796,24.670923748958213,27.201090493313789,29.731257237670118,32.261423982027175,34.791590726385024,37.194185585622989,39.15736081467292,41.120536043723554,43.083711272774913,45.046886501826954,46.879721094708117,48.321528851097142,49.763336607486949,51.205144363877466,52.646952120268764,53.960329391871277,54.935112789250788,55.90989618663091,56.884679584011778,57.859462981393285,58.711672824403784,59.277873845284546,59.844074866165947,60.41027588704798,60.976476907930724,61.428974206055145,61.645314311556788,61.861654417059114,62.077994522562136,62.294334628065862,62.407864421066328,62.330458000061419,62.253051579057292,62.175645158053747,62.098238737050949,61.930003728735905,61.610385452175024,61.290767175614739,60.971148899055208,60.651530622496345,60.253350207244118,59.737324727506611,59.221299247769672,58.705273768033514,58.18924828829801,57.606575696200331,56.933731999245637,56.260888302291661,55.58804460533824,54.915200908385643,54.186818551804578,53.390554444660914,52.594290337517961,51.798026230375712,51.001762123234172,50.159972583670687,49.267864554985337,48.375756526300705,47.483648497616777,46.591540468933573,43.731450200433379,42.7658355598139,41.800220919195176,40.805351107525347,39.784011804860612,38.762672502196587,37.741333199533379,36.719993896870889,35.675669846927704,34.612539699656146,33.549409552385377,32.4862794051154,31.423149257846227,30.342177226840771,29.24801742325927,28.153857619678583,27.0596978160987,25.965538012519662,24.857680908594858,23.740692055325919,22.623703202057808,21.506714348790574,20.389725495524182,19.262325973165538,18.128679891907463,16.995033810650266,15.861387729394004,14.727741648138577,13.586252813995666,12.440540845020566,11.29482887604642,10.149116907073203,9.00340493810088,7.8518290177383765,6.6974296312600377,5.5430302447826936,4.3886308583063114,3.2342314718309262,2.0754729938904823,0.91484627503337179,-0.24578044382274647,-1.4064071626778163,-2.5670338815319025,-3.7308895267115143,-4.8959699791451881,-6.0610504315778186,-7.2261308840093568,-8.3912113364398682,-9.558682572630163,-10.726950766870262,-11.895218961109208,-13.063487155347062,-14.231755349583787,-15.401800505242131,-16.572361574597508,-17.742922643951751,-18.913483713304807,-20.084044782656694,-21.255939459526871,-22.428167554032427,-23.600395648536775,-24.772623743039862,-25.944851837541737,-27.118098905866344,-28.291562131826808,-29.465025357786008,-30.638488583743904,-31.811951809700474,-32.986209262115217,-34.160606880971,-35.3350044998254,-36.509402118678473,-37.683799737530173,-38.858864052257871,-40.03402361645427,-41.209183180649276,-42.384342744842805,-43.559502309034976,-44.735173152590754,-45.910900810332926,-47.086628468073535,-48.262356125812552,-49.438083783550077,-50.614374538174182,-51.7907109550553,-52.967047371934868,-54.143383788813,-55.319720205689677,-56.49646515501658,-57.673231610114485,-58.84999806521067,-60.026764520305186,-61.203530975397882,-62.380760554384828,-63.558002012831409,-64.7352434712762,-65.912484929719255,-67.089726388160614,0.11303671937404684,0.11303671937404684,0.11303671937404684,0.11303671937404684,0.11303671937404684,0.11303671937404684,0.11303671937404684,0.11303671937404684,0.11303671937404684,0.11303671937404684,0.11303671937404684,0.11303671937404684
DP 108,86.684502307396883,0.0046746738799552578,-264.07150747980256,-256.30693228461848,-248.54235708943108,-240.77778189424149,-233.01320669904922,-225.2509433581167,-217.57884320749585,-209.90674305687293,-202.23464290624719,-194.56254275561872,-186.90000762135523,-179.419209606264,-171.93841159117051,-164.45761357607481,-156.9768155609766,-149.51703137629281,-142.31642041508161,-135.11580945386828,-127.91519849265241,-120.71458753143418,-113.5501442208938,-106.71121318508227,-99.8722821492686,-93.0333511134527,-86.194420077634746,-79.409619194290059,-73.003733471427054,-66.597847748561932,-60.191962025694785,-53.786076302825442,-47.454173552241443,-41.541512306587876,-35.628851060932327,-29.716189815274717,-23.803528569615096,-17.985556798551841,-12.613983379255956,-7.2424099599580813,-1.8708365406582401,3.5007368786435511,8.7570580763557846,13.552364940818356,18.347671805282836,23.142978669749265,27.93828553421756,32.598857254960073,36.795335598277973,40.991813941597805,45.188292284919513,49.384770628243047,53.428913597005106,57.016044682514284,60.603175768025352,64.190306853538289,67.77743793905303,71.197168084796374,74.175562726439665,77.153957368084733,80.132352009731662,83.110746651380424,85.909674037380228,88.2898388390481,90.670003640717766,93.050168442389364,95.430333244062666,97.622247576709682,99.42317469102484,101.22410180534173,103.02502891966061,104.82595603398123,106.43322594365445,107.68084152906886,108.92845711448498,110.17607269990287,111.4236882853228,112.475564863714,113.20120482999846,113.92684479628477,114.65248476257288,115.37812472886284,115.90906540839657,116.14795255699751,116.38683970560012,116.6257268542046,116.86461400281094,116.91266106470495,116.70250847083058,116.49235587695816,116.28220328308771,116.072050689219,115.67736080320385,115.05712146174959,114.43688212029731,113.81664277884698,113.19640343739854,112.39994597147928,111.40871759823288,110.41748922498844,109.42626085174612,108.43503247850569,104.62975335340053,103.30588674918911,101.98202014497977,100.50287928052803,98.883249385058463,97.263619489591051,95.643989594125756,94.024359698662522,92.261235105820148,90.380703294526938,88.500171483235832,86.619639671947,84.739107860660269,82.727224604387345,80.6182533382584,78.509282072131811,76.400310806007425,74.291339539885328,72.063199463909939,69.755611637371871,67.448023810836318,65.140435984303025,62.832848157772183,60.418040905473227,57.938900376194916,55.459759846919063,52.980619317645811,50.501478788374939,47.92661466310075,45.300205671072177,42.673796679046312,40.047387687023019,37.420978695002319,34.70971695666811,31.957599004129214,29.205481051593143,26.453363099059796,23.701245146529253,20.874396649661293,18.015519767563255,15.156642885468047,12.297766003375804,9.4388891212863815,6.5145722090338376,3.5654323632093736,0.61629251738789859,-2.3328473284304607,-5.281987174245879,-8.2881580898096576,-11.313340080705863,-14.338522071598769,-17.363704062488559,-20.388886053375085,-23.463593026255342,-26.552678823731828,-29.641764621204963,-32.730850418674734,-35.819936216141144,-38.951944516662493,-42.094683950079833,-45.237423383493763,-48.380162816904047,-51.522902250310878,-54.702854355867821,-57.890700484893756,-61.078546613916018,-64.26639274293457,-67.4542388719493,-70.674439798668416,-73.900350755356868,-77.126261712041256,-80.3521726687218,-83.5780836253984,-86.832416968624528,-90.090810959812941,-93.349204950997418,-96.607598942177717,-99.865992933353922,-103.14945535837931,-106.43570342821664,-109.72195149804951,-113.00819956787785,-116.29444763770167,-119.60373949019232,-122.91489999296259,-126.22606049572875,-129.53722099849057,-132.8483815012481,-136.18063112520363,-139.5139909127295,-142.84735070025053,-146.18071048776645,-149.5140702752775,-152.86798208621389,-156.22242107134585,-159.57686005647253,-162.9312990415942,-166.28573802671073,0.32628198284968185,0.32628198284968185,0.32628198284968185,0.32628198284968185,0.32628198284968185,0.32628198284968185,0.32628198284968185,0.32628198284968185,0.32628198284968185,0.32628198284968185,0.32628198284968185,0.32628198284968185
DP 109,92.885521546491162,0.0013978639374766849,-82.228261039724643,-79.774280326879492,-77.32029961403353,-74.866318901186872,-72.412338188339348,-69.959124767982146,-67.535836044879133,-65.112547321775281,-62.689258598670669,-60.265969875565318,-57.845849984412418,-55.485938499414324,-53.126027014415556,-50.766115529416155,-48.40620404441605,-46.053243333416439,-43.786009711092042,-41.51877608876697,-39.251542466441144,-36.984308844114615,-34.729006882318608,-32.581090993098016,-30.433175103876771,-28.285259214654875,-26.13734332543233,-24.007230361472658,-22.001739220559582,-19.996248079645881,-17.990756938731554,-15.985265797816597,-14.00401665860465,-12.160140389967554,-10.316264121329809,-8.472387852691476,-6.6285115840525286,-4.8155280316775508,-3.1481832388438029,-1.4808384460094564,0.18650634682547435,1.8538511396609894,3.4837791545570935,4.964038289355619,6.4442974241547111,7.9245565589543761,9.4048156937546086,10.841571411590161,12.128480198993612,13.415388986397618,14.702297773802194,15.989206561207311,17.227224558541796,18.318568337178021,19.409912115814791,20.501255894452118,21.592599673089996,22.630565874947944,23.527807539727657,24.425049204507921,25.322290869288729,26.219532534070037,27.059948773818562,27.767770564755462,28.475592355692946,29.183414146630888,29.891235937569416,30.539893186312188,31.065668511325256,31.591443836338858,32.117219161352956,32.642994486367641,33.108384506581132,33.461628758538772,33.81487301049696,34.168117262455674,34.521361514414913,34.814073716401694,35.005897642685625,35.197721568970088,35.389545495255092,35.581369421540636,35.713501587020232,35.756094700757892,35.798687814496155,35.841280928234887,35.883874041974217,35.8684826308108,35.774640278717243,35.680797926624273,35.586955574531864,35.493113222439987,35.343721703785036,35.126435592537639,34.909149481290775,34.691863370044494,34.474577258798767,34.204755137553335,33.876865854568862,33.548976571584952,33.221087288601623,32.893198005618906,31.664050407641788,31.237969039425725,30.811887671210258,30.340435432872692,29.827932542804838,29.315429652737556,28.8029267626709,28.29042387260488,27.736427349850484,27.148480778165062,26.560534206480277,25.97258763479616,25.38464106311266,24.759115607216216,24.105813836554265,23.452512065893046,22.799210295232442,22.145908524572548,21.458883189595571,20.74937494714279,20.0398667046907,19.330358462239303,18.620850219788625,17.881335989235748,17.123817712030043,16.366299434825049,15.608781157620822,14.851262880417313,14.067257941850141,13.268990569695454,12.470723197541602,11.672455825388521,10.874188453236185,10.052712706470395,9.2200622321236452,8.3874117577777252,7.5547612834326081,6.7221108090883153,5.86926062351134,5.0077531460782776,4.1462456686460518,3.2847381912147027,2.4232307137841769,1.5442467063362575,0.65863344241329369,-0.22697982150879181,-1.1125930854299595,-1.9982063493502624,-2.8988635880771945,-3.8045356746687449,-4.7102077612593245,-5.6158798478489889,-6.521551934437694,-7.440123860339722,-8.3624410582102424,-9.2847582560797743,-10.207075453948342,-11.129392651815898,-12.062745897752919,-12.998858286098869,-13.934970674443795,-14.87108306278768,-15.807195451130514,-16.75274960712899,-17.700306670501536,-18.64786373387297,-19.595420797243332,-20.542977860612588,-21.498633181178057,-22.455717696007305,-23.41280221083537,-24.369886725662305,-25.326971240488092,-26.291076568754676,-27.256184946210617,-28.221293323665368,-29.186401701118911,-30.15151007857126,-31.122721548503847,-32.094611203918653,-33.06650085933218,-34.03839051474435,-35.010280170155205,-35.987729136955672,-36.965628915540364,-37.943528694123792,-38.921428472705962,-39.899328251286875,-40.882246482584996,-41.865428892903651,-42.848611303220778,-43.8317937135365,-44.814976123850727,-45.803028009133065,-46.791204799953455,-47.779381590772246,-48.767558381589581,-49.75573517240538,0.0959533907009233,0.0959533907009233,0.0959533907009233,0.0959533907009233,0.0959533907009233,0.0959533907009233,0.0959533907009233,0.0959533907009233,0.0959533907009233,0.0959533907009233,0.0959533907009233,0.0959533907009233
DP 110,214.75081532746034,0.0019930616588131017,-172.15247954867047,-165.7982938766956,-159.44410820471973,-153.08992253274297,-146.735736860765,-140.38539205270743,-134.1848423897558,-127.98429272680302,-121.78374306384939,-115.58319340089488,-109.39812480361388,-103.50719938072895,-97.616273957843163,-91.725348534956538,-85.834423112069,-79.976323582958912,-74.523080880772611,-69.069838178585442,-63.61659547639745,-58.163352774208533,-52.763845121272936,-47.847957990726215,-42.932070860178776,-38.016183729630519,-33.100296599081439,-28.259984023238,-23.948699045054916,-19.637414066871084,-15.326129088686447,-11.014844110501043,-6.7994049689561216,-3.1270982746838882,0.5452084195890996,4.2175151138628308,7.8898218081373122,11.449621926481019,14.479027824432642,17.508433722384989,20.537839620338055,23.567245518291855,26.472443722219825,28.88080527991627,31.289166837613418,33.697528395311274,36.105889953009815,38.383898256823088,40.212906543412885,42.04191483000335,43.870923116594462,45.69993140318627,47.397899444498421,48.702741795541378,50.007584146585017,51.312426497629318,52.61726884867435,53.795208936365512,54.6385841497797,55.481959363194512,56.325334576609961,57.1687097900261,57.893168794722833,58.340152899042238,58.787137003362339,59.234121107683109,59.681105212004489,60.019878002163153,60.133901069597243,60.247924137031937,60.361947204467377,60.475970271903364,60.494089042694725,60.334097244008177,60.174105445322184,60.014113646636886,59.854121847952136,59.611142325044391,59.22984783667313,58.848553348302552,58.467258859932592,58.085964371563307,57.634408574098991,57.077459152697841,56.520509731297309,55.963560309897389,55.406610888498157,54.791351289455235,54.097200153237139,53.4030490170197,52.708897880802887,52.014746744586759,51.273084352025663,50.473351648194885,49.673618944364733,48.873886240535249,48.074153536706426,47.236358292927413,46.35649316863222,45.476628044337652,44.596762920043744,43.71689779575054,40.927202219080712,39.987296899772332,39.047391580464605,38.084149215354131,37.099791960071144,36.115434704788782,35.131077449507224,34.146720194226312,33.144461082198369,32.1275546888133,31.11064829542898,30.09374190204537,29.076835508662473,28.046363612950561,27.005864818608448,25.965366024267144,24.924867229926534,23.88436843558674,22.833703719106175,21.776261561049743,20.718819402994093,19.661377244939235,18.60393508688518,17.538949730155217,16.469438340141405,15.39992695012843,14.330415560116306,13.260904170104988,12.185842858807911,11.10779304765205,10.029743236497087,8.9516934253429863,7.8736436141897164,6.7915377799839085,5.707478988993306,4.6234201980036307,3.5393614070148534,2.4553026160270051,1.368292341825273,0.28001710639285421,-0.8082581290386387,-1.8965333644691527,-2.9848085998987481,-4.0752292963391108,-5.1664638163058747,-6.2576983362716616,-7.3489328562364262,-8.4401673762002343,-9.5329670699552782,-10.626288508032308,-11.71960994610825,-12.812931384183184,-13.906252822257054,-15.000727457724592,-16.095536906499337,-17.190346355272993,-18.285155804045569,-19.379965252817033,-20.475640134670616,-21.571531385019028,-22.667422635366311,-23.763313885712414,-24.859205136057394,-25.955765315447188,-27.052467396539825,-28.1491694776312,-29.245871558721419,-30.342573639810425,-31.439808594453144,-32.537137591529934,-33.634466588605427,-34.7317955856797,-35.829124582752641,-36.926922202261913,-38.024786772894608,-39.122651343526009,-40.220515914156017,-41.31838048478479,-42.416608858476131,-43.51487765854953,-44.613146458621451,-45.7114152586919,-46.809684058760929,-47.908392575434036,-49.007136749296834,-50.105880923158153,-51.20462509701813,-52.303369270876708,-53.402427936286792,-54.501503157011285,-55.600578377734209,-56.699653598455477,-57.798728819175167,-58.8981789314301,-59.997638659921293,-61.097098388410757,-62.196558116898593,-63.296017845384746,0.10548369312840365,0.10548369312840365,0.10548369312840365,0.10548369312840365,0.10548369312840365,0.10548369312840365,0.10548369312840365,0.10548369312840365,0.10548369312840365,0.10548369312840365,0.10548369312840365,0.10548369312840365
DP 111,173.55749156832758,0.0053762710384272095,-428.40135268790146,-413.50385088566782,-398.606349083431,-383.70884728119154,-368.811345478949,-353.92138405919655,-339.32550040757,-324.72961675594121,-310.13373310430933,-295.53784945267495,-280.97258273183434,-266.98904348403244,-253.00550423622778,-239.02196498842108,-225.03842574061176,-211.12054826649742,-198.01250760989549,-184.90446695329115,-171.79642629668419,-158.688385640075,-145.68953872630945,-133.67344581928577,-121.65735291225991,-109.64126000523177,-97.625167098201132,-85.765711691588351,-75.0027306323607,-64.239749573130709,-53.47676851389852,-42.713787454664157,-32.154208462293852,-22.747253999362751,-13.340299536429544,-3.9333450734941824,5.4736093894432836,14.635211892168453,22.640141901911818,30.645071911657272,38.650001921404765,46.654931931154316,54.380590436511824,60.98914972576523,67.5977090150207,74.206268304278154,80.814827593537473,87.1202752007051,92.381658724901726,97.643042249100247,102.90442577330083,108.16580929750322,113.1111864558677,117.10853256900268,121.10587868213949,125.10322479527831,129.10057090841906,132.77973904592702,135.62006340238577,138.46038775884659,141.30071211530918,144.14103647177373,146.67065135563004,148.47526768052941,150.27988400543066,152.08450033033361,153.88911665523867,155.39848087547813,156.29462059908485,157.19076032269331,158.08690004630378,158.98303976991605,159.60541543681555,159.71936474796567,159.83331405911787,159.9472633702718,160.06121268142738,159.92690561111405,159.37883164755914,158.83075768400602,158.28268372045477,157.73460975690534,156.9659376544796,155.86636313094363,154.76678860740947,153.66721408387718,152.56763956034683,151.27565974059189,149.72336259385926,148.17106544712831,146.61876830039932,145.06647115367215,143.34921432283761,141.43033663538938,139.51145894794297,137.59258126049846,135.67370357305589,133.61562197187865,131.40368064337204,129.19173931486736,126.97979798636446,124.76785665786377,117.55324996116308,115.10979511053196,112.66634025990274,110.12793208119405,107.50361203896718,104.8792919967424,102.25497195451968,99.630651912298887,96.929423358194143,94.165268336279766,91.401113314367407,88.636958292457223,85.872803270549127,83.047083054244425,80.175857117001868,77.304631179761572,74.433405242523364,71.56217930528743,68.642203578511086,65.689727224061329,62.737250869613796,59.784774515168586,56.832298160725777,53.841603766662516,50.827977970842475,47.81435217502478,44.80072637920955,41.787100583396622,38.7437836841795,35.68447883598644,32.625173987795989,29.565869139607944,26.506564291422308,23.4243781685784,20.331174815305879,17.23797146203604,14.144768108768801,11.051564755504243,7.9408485263719681,4.8226265425358754,1.7044045587024679,-1.4138174251281035,-4.5320394089560194,-7.6635930903953282,-10.80020379646149,-13.936814502524836,-17.07342520858521,-20.210035914642813,-23.3567606172327,-26.506856779462876,-29.6569529416899,-32.807049103913982,-35.957145266135022,-39.114907654125787,-42.274895814062845,-45.434883973996733,-48.594872133927481,-51.754860293854996,-54.9206751509333,-58.087946751139739,-61.255218351343032,-64.422489951542886,-67.589761551739429,-70.761497680024874,-73.93418088056788,-77.106864081107233,-80.279547281643232,-83.452230482175651,-86.628368681158264,-89.805116624166729,-92.981864567171456,-96.158612510172546,-99.335360453169869,-102.51491024595818,-105.69486033326578,-108.87481042056955,-112.05476050786937,-115.23471059516548,-118.41680987772136,-121.5991479823185,-124.7814860869113,-127.96382419149977,-131.14616229608433,-134.33062645309437,-137.51526301445512,-140.69989957581177,-143.88453613716433,-147.069172698513,-150.25540292914033,-153.44171705295011,-156.62803117675529,-159.81434530055569,-163.0006594243514,-166.18865675485989,-169.37669726082802,-172.56473776679118,-175.75277827274968,-178.9408187787034,0.30648122679343393,0.30648122679343393,0.30648122679343393,0.30648122679343393,0.30648122679343393,0.30648122679343393,0.30648122679343393,0.30648122679343393,0.30648122679343393,0.30648122679343393,0.30648122679343393,0.30648122679343393
DP 112,188.80738998813737,0.004496556667350291,-370.3633545273824,-357.18270373912424,-344.00205295086397,-330.82140216260126,-317.64075137433611,-304.46725203984425,-291.57266210645088,-278.67807217305534,-265.78348223965787,-252.88889230625762,-240.02326127801035,-227.70785492217254,-215.39244856633249,-203.07704221049019,-190.76163585464639,-178.50807191764324,-167.01723894026381,-155.52640596288225,-144.0355729854989,-132.54474000811314,-121.1561511191005,-110.68776868969576,-100.21938626028928,-89.751003830880791,-79.282621401470507,-68.959834087520449,-59.656223591259753,-50.352613094997224,-41.04900259873294,-31.745392102466781,-22.629191028360029,-14.574988489268621,-6.5207859501754664,1.5334165889194322,9.58761912801607,17.418045028612038,24.193511832482226,30.968978636354123,37.744445440227729,44.519912244102947,51.043547257027285,56.5598432044293,62.076139151833,67.592435099238386,73.1087310466452,78.355110833488638,82.671768061594051,86.988425289700956,91.305082517809538,95.62173974591974,99.660802580056512,102.86707173685561,106.07334089365629,109.27961005045863,112.48587920726237,115.41669270211017,117.62129543857012,119.82589817503168,122.03050091149471,124.23510364795926,126.17484656609824,127.49657489652677,128.81830322695677,130.14003155738834,131.46175988782147,132.53586462607512,133.09566700959783,133.65546939312216,134.21527177664808,134.77507416017536,135.10914146922428,135.02398040088926,134.93881933255568,134.85365826422364,134.76849719589313,134.48221436363039,133.86072352207933,133.2392326805296,132.61774183898152,131.99625099743497,131.19927213016487,130.13905707747796,129.07884202479278,128.01862697210908,126.95841191942662,125.74798125316188,124.33431435709726,122.92064746103415,121.50698056497254,120.09331366891249,118.55331115208223,116.85889577844725,115.1644804048141,113.47006503118233,111.77564965755222,109.97669877285209,108.06220655890374,106.14771434495688,104.23322213101174,102.31872991706808,96.149233016103551,94.064332376368228,91.9794317366345,89.826047719846315,87.610701319413849,85.39535491898306,83.180008518553961,80.964662118126441,78.694979149442091,76.380838054738334,74.066696960036126,71.752555865335808,69.438414770637181,67.08167459429113,64.693447439943156,62.305220285597031,59.916993131252639,57.528765976910137,55.107507562849925,52.664227788620138,50.220948014392185,47.777668240166129,45.334388465941949,42.865751997485546,40.381901129011851,37.898050260540089,35.41419939207038,32.930348523602504,30.42720616036841,27.913675788652945,25.400145416939576,22.886615045228218,20.373084673518882,17.844990584944973,15.309884132462795,12.774777679982821,10.239671227504953,7.7045647750292785,5.1585319052868668,2.607816137749174,0.057100370213665923,-2.4936153973195339,-5.0443311648505755,-7.60320943048865,-10.165183922514569,-12.727158414538192,-15.28913290655942,-17.851107398578396,-20.419169848297869,-22.98926169397464,-25.559353539648871,-28.129445385320722,-30.699537230990043,-33.274178774513885,-35.850141253547406,-38.426103732578348,-41.002066211606774,-43.578028690632557,-46.157415161502279,-48.737657670785715,-51.31790018006658,-53.898142689344667,-56.478385198620089,-59.061241345158074,-61.644651929542796,-64.22806251392457,-66.81147309830358,-69.394883682679634,-71.980321816327262,-74.566117775331648,-77.1519137343329,-79.7377096933313,-82.323505652326588,-84.910979458246658,-87.498692974706557,-90.086406491163515,-92.674120007617191,-95.261833524067768,-97.850831245055673,-100.43997166892066,-103.02911209278227,-105.6182525166404,-108.20739294049505,-110.7978959950745,-113.38850954714734,-115.97912309921681,-118.56973665128307,-121.16035020334603,-123.7519609276781,-126.34362414467897,-128.93528736167602,-131.52695057866939,-134.1186137956588,-136.7113819071453,-139.30417835996732,-141.89697481278543,-144.48977126559976,-147.0825677184099,0.24904669093183046,0.24904669093183046,0.24904669093183046,0.24904669093183046,0.24904669093183046,0.24904669093183046,0.24904669093183046,0.24904669093183046,0.24904669093183046,0.24904669093183046,0.24904669093183046,0.24904669093183046
DP 113,170.88517059444897,0.0028245402359287973,-223.66061166702045,-215.91548081089854,-208.17034995477468,-200.42521909864939,-192.68008824252277,-184.93882804533735,-177.34852501035675,-169.7582219753746,-162.16791894039125,-154.57761590540642,-147.00303774066791,-139.72723508330427,-132.45143242593912,-125.1756297685729,-117.89982711120543,-110.65777150208727,-103.83193374114298,-97.006095980197529,-90.180258219250732,-83.3544204583027,-76.5847622723792,-70.320725571849238,-64.0566888713182,-57.792652170785964,-51.528615470252547,-45.345271537287381,-39.726783079047223,-34.10829462080595,-28.489806162563436,-22.8713177043198,-17.357775889908567,-12.438938337005094,-7.5201007841005234,-2.6012632311948254,2.3175743217119895,7.1095963015122594,11.303766587088603,15.49793687266604,19.692107158244561,23.886277443824152,27.935808862440414,31.4067779774852,34.877747092531038,38.34871620757788,41.819685322625794,45.13332159509492,47.905027022554428,50.676732450015,53.448437877476579,56.220143304939214,58.827427275549077,60.941440659077905,63.055454042607693,65.169467426138567,67.2834808096704,69.231515134660768,70.741962600394089,72.252410066128462,73.762857531863773,75.273304997600079,76.621226227424813,77.589914452734078,78.558602678044281,79.527290903355478,80.495979128667628,81.3097812289424,81.801892257212415,82.294003285483413,82.786114313755377,83.278225342028335,83.626288762094319,83.706831305334674,83.787373848576053,83.867916391818454,83.94845893506168,83.89796675385989,83.62908006243606,83.360193371013239,83.091306679591412,82.822419988170523,82.436719264173433,81.875794730963477,81.314870197754686,80.75394566454672,80.193021131339719,79.529871784315347,78.728416003913253,77.9269602235122,77.1255044431121,76.324048662713039,75.434649708181055,74.437762804712108,73.4408759012441,72.443988997777041,71.447102094311035,70.375742743433733,69.222070258213847,68.068397772994956,66.91472528777706,65.761052802560243,61.989287521471375,60.7113156711048,59.433343820739289,58.104206445307227,56.728775530772872,55.353344616239553,53.977913701707315,52.60248278717625,51.185456979881785,49.734398272764,48.283339565647331,46.832280858531774,45.381222151417269,43.896742591637789,42.387560113110354,40.878377634584133,39.369195156059007,37.860012677535117,36.3242668199176,34.770811624438224,33.217356428960059,31.66390123348312,30.110446038007385,28.536087503360356,26.949186649082041,25.362285794804961,23.775384940529193,22.188484086254682,20.585282538774955,18.973303457914639,17.361324377055674,15.749345296198003,14.137366215341613,12.5127782532438,10.882119171763044,9.2514600902837181,7.6208010088057669,5.990141927329228,4.3497970704779849,2.7053010362513774,1.0608050020261861,-0.58369103219750662,-2.2281870664197969,-3.8800821788971267,-5.5347839347625056,-7.1894856906263884,-8.8441874464887089,-10.498889202349558,-12.159222432190059,-13.821432890995142,-15.483643349798593,-17.145853808600481,-18.808064267400756,-20.474555453350174,-22.142289483260228,-23.81002351316863,-25.477757543075359,-27.145491572980418,-28.81648652328526,-30.488296742216868,-32.160106961146752,-33.831917180074832,-35.503727399001164,-37.1780396034869,-38.852882560846247,-40.527725518203688,-42.202568475559346,-43.877411432913114,-45.5541916794868,-47.231313822170016,-48.908435964851286,-50.585558107530616,-52.262680250207943,-53.941369933144578,-55.62028356733547,-57.299197201524379,-58.9781108357112,-60.657024469896058,-62.337141987365229,-64.017393282285383,-65.69764457720332,-67.377895872119012,-69.0581471670325,-70.739576530290762,-72.421101424640227,-74.102626318987546,-75.784151213332692,-77.4656761076758,-79.148088407566959,-80.830547421840222,-82.51300643611107,-84.195465450379317,-85.877924464645233,-87.561313425502121,-89.244726240156041,-90.928139054807673,-92.611551869456662,-94.294964684103135,0.1618609301379059,0.1618609301379059,0.1618609301379059,0.1618609301379059,0.1618609301379059,0.1618609301379059,0.1618609301379059,0.1618609301379059,0.1618609301379059,0.1618609301379059,0.1618609301379059,0.1618609301379059
DP 114,261.31727561350789,0.0010019034747804495,-92.431180372877478,-88.815596151945812,-85.200011931013748,-81.584427710081144,-77.9688434891481,-74.35584500952244,-70.843691418535883,-67.331537827548928,-63.819384236561454,-60.3072306455736,-56.805415899726007,-53.50004116603624,-50.194666432346025,-46.889291698655406,-43.58391696496431,-40.300186520634838,-37.2834050395623,-34.2666235584894,-31.249842077416051,-28.233060596342288,-25.251090644801558,-22.582427749489678,-19.913764854177408,-17.245101958864783,-14.576439063551749,-11.955666532411893,-9.6701301718088786,-7.3845938112054936,-5.0990574506017454,-2.8135210899976233,-0.58714300754913018,1.3040011042098185,3.1951452159691236,5.0862893277287862,6.9774334394888031,8.80120120399269,10.307333978007403,11.813466752022451,13.319599526037846,14.825732300053597,16.259948483033746,17.406494903051684,18.553041323069937,19.699587743088532,20.84613416310745,21.919941923731219,22.743202357397024,23.566462791063163,24.389723224729629,25.212983658396389,25.965975845842014,26.508160637889983,27.050345429938229,27.592530221986785,28.13471501403566,28.611674753940502,28.916675296321372,29.221675838702566,29.526676381084087,29.831676923465881,30.078227996566849,30.188395133109093,30.298562269651644,30.408729406194503,30.518896542737682,30.578304392275058,30.532287631007957,30.486270869741134,30.4402541084746,30.394237347208449,30.305366147663751,30.136906976844656,29.968447806025875,29.799988635207423,29.631529464389253,29.427801988615425,29.16529311562218,28.902784242629245,28.640275369636619,28.377766496644252,28.086899294260114,27.753493927672967,27.420088561086121,27.086683194499575,26.753277827913337,26.3975494453977,26.011618838978322,25.625688232559277,25.239757626140506,24.853827019722054,24.450663094074933,24.026435860723304,23.602208627372004,23.177981394020996,22.753754160670304,22.316458738662266,21.864719269144636,21.412979799627291,20.961240330110265,20.509500860593569,19.10554163498206,18.634305801785313,18.163069968588896,17.684671447267387,17.199792269637491,16.714913092007937,16.230033914378723,15.745154736749825,15.255084446160616,14.760766792118547,14.266449138076794,13.772131484035402,13.27781382999436,12.779780097552328,12.278999637379592,11.778219177207237,11.277438717035205,10.776658256863564,10.273246081229161,9.768079387160963,9.2629126930931367,8.757745999025687,8.2525793049586085,7.7455651098258507,7.2374423861134014,6.7293196624013421,6.2211969386896886,5.7130742149784073,5.2036623738284531,4.6935563737734256,4.1834503737188218,3.6733443736646203,3.1632383736108136,2.65223490941285,2.1407993202820883,1.629363731151763,1.1179281420218596,0.60649255289238924,0.094430030832207731,-0.41790118523490877,-0.93023240130159157,-1.4425636173678151,-1.9548948334336078,-2.4676690982183378,-2.9806114217413349,-3.4935537452638767,-4.0064960687859372,-4.5194383923075465,-5.0327010861339891,-5.5460705740992919,-6.0594400620640867,-6.5728095500284116,-7.0861790379922356,-7.5997888795956126,-8.1134685042189325,-8.6271481288417426,-9.1408277534640447,-9.65450737808583,-10.168376813021483,-10.682293702777812,-11.196210592533633,-11.710127482288883,-12.224044372043608,-12.738120991297114,-13.252231494395103,-13.766341997492514,-14.280452500589371,-14.794563003685678,-15.308814436351863,-15.823090740508823,-16.337367044665186,-16.851643348820961,-17.365919652976135,-17.880338811223233,-18.394778378740398,-18.909217946256938,-19.42365751377287,-19.938097081288173,-20.452653121524932,-20.967222104397788,-21.48179108727,-21.996360070141474,-22.510929053012305,-23.025664781531585,-23.540414031671627,-24.055163281811023,-24.569912531949765,-25.084661782087835,-25.599529549585924,-26.114403556018264,-26.629277562449889,-27.14415156888073,-27.65902557531081,-28.174051063071271,-28.689080436436164,-29.204109809800318,-29.719139183163644,-30.234168556526221,0.049336629855333512,0.049336629855333512,0.049336629855333512,0.049336629855333512,0.049336629855333512,0.049336629855333512,0.049336629855333512,0.049336629855333512,0.049336629855333512,0.049336629855333512,0.049336629855333512,0.049336629855333512
DP 115,173.64331444265551,0.0034396038990570595,-274.135080451349,-264.60085380692783,-255.06662716250474,-245.53240051807984,-235.99817387365343,-226.46877495055054,-217.12765898444576,-207.78654301833919,-198.44542705223051,-189.10431108612073,-179.78279721105974,-170.83372677159429,-161.88465633212721,-152.93558589265857,-143.98651545318839,-135.07948304028534,-126.69092491971007,-118.30236679913314,-109.91380867855453,-101.52525055797435,-93.2065988228151,-85.5171111640927,-77.827623505368891,-70.138135846643536,-62.4486481879168,-54.859435369510535,-47.972154015832224,-41.0848726621524,-34.19759130847126,-27.310309954788618,-20.553235616917927,-14.534009240199696,-8.514782863480086,-2.4955564867591158,3.5236698899632035,9.38584524663313,14.507628740396617,19.629412234161428,24.751195727927566,29.87297922169498,34.816010617943363,39.044025176186047,43.272039734430024,47.500054292675244,51.728068850921773,55.762086406498511,59.127883914290429,62.493681422083647,65.859478929878065,69.225276437673656,72.3888393662184,74.945690910831232,77.502542455445322,80.059394000060664,82.616245544677128,84.969488613076379,86.78593870042765,88.602388787780114,90.418838875133758,92.235288962488553,93.852928611439651,95.006670973518311,96.160413335598278,97.314155697679425,98.467898059761524,99.432737416419116,100.00523426786285,100.57773111930783,101.1502279707539,101.72272482220114,102.12008371536814,102.19218167051763,102.26427962566831,102.33637758082038,102.40847553597337,102.32176983820617,101.97038738282498,101.619004927445,101.26762247206615,100.91624001668852,100.42376054640157,99.719632219588732,99.015503892776977,98.311375565966543,97.607247239157289,96.780067974062945,95.786405291074317,94.792742608086812,93.799079925100528,92.805417242115468,91.706267408520077,90.478186619564624,89.2501058306105,88.022025041657542,86.793944252705813,85.476856496275232,84.061390846728855,82.645925197183658,81.2304595476397,79.814993898096958,75.198565501181818,73.63508699252219,72.071608483863869,70.447430926079193,68.768334088163044,67.089237250248289,65.410140412334812,63.73104357442255,62.002788489238682,60.234312175106993,58.465835860976654,56.697359546847686,54.928883232720025,53.121060535947095,51.28415508346913,49.447249630992644,47.610344178517522,45.77343872604385,43.905380977215316,42.016554540059325,40.127728102904761,38.23890166575169,36.3500752286001,34.436829440452406,32.508931672404763,30.581033904358634,28.653136136314085,26.725238368271054,24.778371865223512,22.821291152105704,20.864210438989524,18.907129725874892,16.950049012761816,14.978351865220629,12.999616970502197,11.020882075785476,9.042147181070419,7.0634122863570727,5.0734915535224765,3.0787767390231098,1.0840619245254608,-0.91065288997037319,-2.9053677044645108,-4.9085967902227283,-6.9150555381528136,-8.9215142860810861,-10.927973034007469,-12.934431781932069,-14.947349182443469,-16.9624195485464,-18.977489914647343,-20.992560280746392,-23.007630646843481,-25.027596072142831,-27.048982703362153,-29.070369334579439,-31.091755965794736,-33.113142597007979,-35.138249486411837,-37.16428648431701,-39.190323482220165,-41.216360480121125,-43.242397478019939,-45.271284846210342,-47.300776871057188,-49.330268895901753,-51.359760920744129,-53.389252945584204,-55.420950843376076,-57.453038037392929,-59.485125231407331,-61.517212425419487,-63.549299619429242,-65.5831757693604,-67.617307503746076,-69.6514392381294,-71.685570972510163,-73.7197027068885,-75.7552066928553,-77.790863165630185,-79.826519638402488,-81.862176111171962,-83.897832583938765,-85.934846901589864,-87.971971328644969,-90.009095755697345,-92.046220182747192,-94.083344609794551,-96.121486720068219,-98.159682402739421,-100.19787808540771,-102.23607376807311,-104.27426945073532,-106.31354044480892,-108.35283902139146,-110.39213759797109,-112.43143617454756,-114.47073475112092,0.19604627551564333,0.19604627551564333,0.19604627551564333,0.19604627551564333,0.19604627551564333,0.19604627551564333,0.19604627551564333,0.19604627551564333,0.19604627551564333,0.19604627551564333,0.19604627551564333,0.19604627551564333
DP 116,133.90502031812986,0.0032703625046997206,-232.77565572233752,-225.20949013437217,-217.64332454640518,-210.07715895843623,-202.51099337046577,-194.94793872723329,-187.50621210506793,-180.06448548290112,-172.6227588607326,-165.1810322385623,-157.7520354361497,-150.56490761564669,-143.37777979514206,-136.19065197463604,-129.00352415412817,-121.84399706400031,-115.02488246038106,-108.20576785676039,-101.38665325313809,-94.567538649514177,-87.795037006553173,-81.442056415484771,-75.089075824414849,-68.736095233343633,-62.383114642270833,-56.098296446808853,-50.290620174862482,-44.482943902914748,-38.67526763096555,-32.867591359014952,-27.15049769297805,-21.9467111684405,-16.742924643901571,-11.539138119361279,-6.3353515948196319,-1.2437861603652329,3.3187309309481345,7.881248022262838,12.443765113578849,17.006282204896166,21.437156112410676,25.341451063178233,29.245746013947091,33.150040964717235,37.054335915488643,40.810914435911627,44.058685712986552,47.306456990062749,50.554228267140239,53.801999544218894,56.890088630797976,59.499125108539317,62.108161586281916,64.717198064025737,67.326234541770773,69.768107145665354,71.769269245582592,73.7704313455011,75.771593445420692,77.772755545341553,79.603773134028415,81.037781502417943,82.471789870808692,83.905798239200578,85.339806607593687,86.6049123402972,87.519215378916357,88.433518417536717,89.347821456158229,90.262124494780934,91.012478680371061,91.458351997005764,91.9042253136416,92.350098630278779,92.795971946917064,93.08591208280707,93.115959653721987,93.14600722463797,93.176054795555117,93.206102366473544,93.090569325788309,92.75666192758689,92.4227545293866,92.0888471311875,91.754939732989712,91.287416192116652,90.639114898319008,89.990813604522572,89.34251231072723,88.694211016933252,87.925189798203235,87.008619468866826,86.0920491395316,85.175478810197674,84.258908480864974,83.23484737645343,82.091978539555328,80.94910970265849,79.8062408657629,78.663372028868679,74.762642601294317,73.430924240643634,72.099205879994216,70.685581064047668,69.197848932948816,67.7101168018513,66.222384670755162,64.73465253966036,63.176703114098117,61.56130196815095,59.945900822205118,58.330499676260779,56.715098530317711,55.040158562763956,53.321210661380874,51.6022627599992,49.883314858619009,48.164366957240389,46.395449671918065,44.593218676773837,42.790987681631108,40.988756686489843,39.186525691350163,37.3427554297348,35.47406098002083,33.605366530308423,31.736672080597668,29.8679776308884,27.96505680909355,26.043705904620353,24.122355000148822,22.201004095678854,20.279653191210485,18.330330946459455,16.367540627664926,14.404750308872167,12.441959990081115,10.479169671291832,8.4936887547641362,6.4984829899583119,4.5032772251542657,2.5080714603520886,0.51286569555166128,-1.5006260879076232,-3.521054185810681,-5.5414822837118836,-7.5619103816111171,-9.5823384795085254,-11.61742143296051,-13.657389522955082,-15.697357612947595,-17.737325702938161,-19.777293792926706,-21.828957277229726,-23.884016341230396,-25.939075405228973,-27.994134469225475,-30.049193533219857,-32.11356346545945,-34.180261224767655,-36.246958984073771,-38.313656743377621,-40.38035450267931,-42.454467327368064,-44.530153129667951,-46.605838931965515,-48.681524734260769,-50.757210536553714,-52.838815288389668,-54.92146462655068,-57.004113964709184,-59.086763302865378,-61.169412641019044,-63.256877133644487,-65.345029557493362,-67.433181981339757,-69.521334405183424,-71.609486829024689,-73.70149313717576,-75.793927695166872,-77.886362253155255,-79.978796811140711,-82.07123136912351,-84.167114819871,-86.263277945812433,-88.359441071751149,-90.455604197687265,-92.551767323620709,-94.650754262691265,-96.749889851598667,-98.849025440502928,-100.94816102940409,-103.04729661830213,-105.14917507376212,-107.2511238857214,-109.35307269767753,-111.45502150963054,-113.55697032158028,0.20271382476363844,0.20271382476363844,0.20271382476363844,0.20271382476363844,0.20271382476363844,0.20271382476363844,0.20271382476363844,0.20271382476363844,0.20271382476363844,0.20271382476363844,0.20271382476363844,0.20271382476363844
DP 117,79.9686369316046,0.0027891360066653447,-150.00548013758353,-145.6685821775792,-141.33168421757333,-136.99478625756575,-132.65788829755672,-128.32221126821347,-124.03415099651436,-119.7460907248137,-115.45803045311145,-111.16997018140785,-106.88697230493575,-102.70016089490028,-98.51334948486344,-94.326538074825308,-90.139726664785826,-85.964057952559727,-81.92581725100932,-77.887576549457535,-73.849335847904328,-69.8110951463497,-65.792086076703782,-61.946163512044805,-58.100240947384492,-54.25431838272295,-50.408395818060065,-46.591353038908963,-42.976470942149078,-39.361588845387878,-35.746706748625442,-32.13182465186172,-28.556574245982084,-25.205905919140211,-21.8552375922971,-18.504569265452794,-15.153900938607272,-11.85419691256606,-8.7947559144383174,-5.7353149163094,-2.6758739181793,0.38356707995196548,3.3806451660652916,6.1282686567966431,8.875892147529143,11.623515638262795,14.371139128997584,17.045419561520831,19.467070823548319,21.888722085576923,24.310373347606664,26.732024609637495,29.0702082929433,31.157986084291711,33.245763875641231,35.33354166699182,37.421319458343582,39.416719231270804,41.168573780468385,42.9204283296671,44.672282878866874,46.42413742806778,48.076194373420023,49.495387098796989,50.9145798241751,52.333772549554254,53.75296527493451,55.066619530554206,56.161075433404413,57.255531336255686,58.34998723910801,59.444443141961415,60.429389715425252,61.2109588626092,61.992528009794206,62.774097156980339,63.555666304167559,64.225538787725867,64.709247349850742,65.192955911976668,65.67666447410376,66.16037303623186,66.531918550089074,66.735216841095564,66.938515132103092,67.141813423111827,67.345111714121543,67.437378080546651,67.379422314918756,67.321466549292083,67.263510783666462,67.205555018042048,67.039125541292393,66.740114805821776,66.441104070352367,66.142093334884038,65.843082599416846,65.439384682132328,64.919977796491949,64.40057091085275,63.881164025214723,63.361757139577939,61.304064367247079,60.584868257761705,59.865672148277469,59.052160538827245,58.153314159921266,57.254467781016515,56.355621402113059,55.456775023210888,54.469755405812769,53.410592532512631,52.351429659213821,51.292266785916318,50.23310391262018,49.092268684174286,47.891065589790209,46.689862495407525,45.488659401026126,44.287456306646185,43.011253284208379,41.685049128219966,40.358844972232987,39.032640816247444,37.706436660263343,36.311912013215043,34.876394038292389,33.44087606337127,32.0053580884517,30.569840113533591,29.072549334692638,27.541995378534992,26.011441422378962,24.480887466224512,22.950333510071612,21.364308683084367,19.751574882264308,18.138841081445943,16.526107280629233,14.913373479814222,13.251134320557654,11.567677910641626,9.8842215007273069,8.2007650908147927,6.5173086809039749,4.7899086850788057,3.0458398596190377,1.3017710341610889,-0.44229779129497215,-2.186366616749245,-3.9692699796825668,-5.7651186778652441,-7.5609673760459275,-9.3568160742247155,-11.152664772401542,-12.982723756255382,-14.822715175767856,-16.662706595278308,-18.502698014786723,-20.342689434293082,-22.212770981688305,-24.090375416572947,-25.967979851455478,-27.845584286335836,-29.723188721214061,-31.62727829497036,-33.536986231929781,-35.446694168886872,-37.356402105841774,-39.266110042794359,-41.199205413271436,-43.136428237969142,-45.073651062664432,-47.010873887357384,-48.948096712047892,-50.906176476448387,-52.867236028967547,-54.828295581484369,-56.789355133998612,-58.750414686510432,-60.7301692653332,-62.712001265640659,-64.6938332659455,-66.6756652662475,-68.65749726654677,-70.656703324728085,-72.6573182678396,-74.6579332109485,-76.658548154054728,-78.659163097158427,-80.675909272651751,-82.6935046208722,-84.7110999690897,-86.728695317304059,-88.7462906655155,-90.779690987567008,-92.8134967185758,-94.847302449581434,-96.88110818058405,-98.914913911583369,0.19826398454529434,0.19826398454529434,0.19826398454529434,0.19826398454529434,0.19826398454529434,0.19826398454529434,0.19826398454529434,0.19826398454529434,0.19826398454529434,0.19826398454529434,0.19826398454529434,0.19826398454529434
DP 118,152.61681094815674,0.0021597721155446154,-163.08101412665221,-157.60051080387578,-152.12000748109799,-146.6395041583194,-141.15900083553922,-135.68099696073651,-130.3004725020898,-124.91994804344218,-119.53942358479324,-114.15889912614334,-108.7885630292924,-103.61180773267837,-98.435052436063415,-93.258297139447336,-88.081541842830291,-82.9267634170696,-78.043035834922918,-73.15930825277519,-68.275580670626354,-63.3918530884766,-58.54496949139422,-54.029685242465334,-49.514400993535467,-44.999116744604706,-40.483832495673006,-36.021939005892321,-31.933784867419821,-27.84563072894645,-23.757476590472152,-19.669322451996944,-15.651346479725722,-12.031051204829074,-8.41075592993154,-4.790460655033125,-1.1701653801338376,2.3642811968930295,5.4940078470787244,8.62373449726528,11.753461147452681,14.883187797640927,17.913639078967424,20.546984193034056,23.180329307101509,25.813674421169772,28.447019535238887,30.970716637687467,33.116732649416619,35.262748661146553,37.408764672877304,39.554780684608865,41.584294756616664,43.2642986046938,44.944302452771687,46.624306300850343,48.30431014892978,49.864595602845569,51.1092557209041,52.3539158389634,53.598575957023442,54.843236075084306,55.968430346971907,56.814867213772445,57.661304080573686,58.50774094737573,59.354177814178506,60.084471762207549,60.57354242418004,61.06261308615332,61.551683748127331,62.040754410102089,62.419532739552629,62.593479472899361,62.767426206246768,62.941372939594963,63.115319672943933,63.186735313822915,63.0872632162242,62.987791118626191,62.888319021028984,62.788846923432523,62.595893669167189,62.262716470912828,61.929539272659134,61.59636207440623,61.263184876154043,60.846283952461235,60.316107891134429,59.785931829808483,59.2557557684833,58.725579707158822,58.12164230249001,57.427550595510482,56.733458888531786,56.0393671815538,55.345275474576695,54.587180653576205,53.758344275045772,52.929507896516036,52.100671517987131,51.271835139459128,48.511538079413128,47.573186324073369,46.634834568734384,45.650247265378979,44.623826967106915,43.597406668835674,42.5709863705653,41.54456607229578,40.479579966430954,39.383039355209768,38.286498743989441,37.189958132770023,36.093417521551437,34.965072922013668,33.813220503953481,32.661368085894317,31.509515667835977,30.357663249778639,29.179859367055819,27.984754099062851,26.789648831070924,25.594543563079903,24.399438295089876,23.18336408318299,21.954708187805217,20.726052292428445,19.497396397052686,18.268740501677925,17.023294128272152,15.768806484072547,14.51431883987401,13.2598311956765,12.00534355147999,10.737521445359214,9.4632788560328329,8.1890362667075713,6.9147936773834058,5.6405510880603567,4.3557959335440763,3.0665352519944329,1.7772745704459172,0.48801388889858727,-0.80124679264763121,-2.0987433999707807,-3.3993640865145718,-4.6999847730571815,-6.0006054595985532,-7.3012261461387524,-8.6082674092773264,-9.9174489455318362,-11.226630481785035,-12.535812018037015,-13.844993554287688,-15.159164281705289,-16.47478354482632,-17.790402807946041,-19.106022071064416,-20.421641334181455,-21.741134147278029,-23.0615953936349,-24.382056639990395,-25.702517886344463,-27.022979132697152,-28.346456035246504,-29.670572656993166,-30.994689278738317,-32.318805900482,-33.642922522224261,-34.969397683395464,-36.296289083633056,-37.623180483869049,-38.950071884103572,-40.276963284336482,-41.605753089716096,-42.934814116336916,-44.263875142956095,-45.59293616957369,-46.921997196189679,-48.252538609007196,-49.583244524726396,-50.913950440443827,-52.244656356159425,-53.57536227187331,-54.907433818612247,-56.239616106144254,-57.571798393674563,-58.903980681203073,-60.236162968730049,-61.569414451480718,-62.902722218300312,-64.23602998511798,-65.569337751933688,-66.902645518747477,-68.2370221791033,-69.5714262573462,-70.905830335587154,-72.240234413826045,-73.574638492062945,0.1284689491710071,0.1284689491710071,0.1284689491710071,0.1284689491710071,0.1284689491710071,0.1284689491710071,0.1284689491710071,0.1284689491710071,0.1284689491710071,0.1284689491710071,0.1284689491710071,0.1284689491710071
DP 119,84.7354536132433,0.0032141757283628827,-179.10679408398914,-173.86571984685983,-168.62464560972876,-163.38357137259572,-158.14249713546073,-152.90295885899707,-147.72332362950746,-142.54368840001598,-137.36405317052271,-132.18441794102765,-127.01114008322132,-121.95865348934251,-116.90616689546225,-111.85368030158038,-106.80119370769697,-101.76268426895381,-96.896561505142444,-92.030438741329746,-87.16431597751523,-82.298193213699051,-77.45614515907,-72.8307717627082,-68.205398366344951,-63.580024969980158,-58.95465157361388,-54.365342935411519,-50.028490331471772,-45.691637727530512,-41.354785123587817,-37.017932519643686,-32.730431678290557,-28.722593934816921,-24.714756191341909,-20.706918447865469,-16.699080704387637,-12.754492923166335,-9.1080869517082323,-5.4616809802487616,-1.8152750087879448,1.8311309626742207,5.4004324394627723,8.66131229355053,11.922192147639626,15.183072001730025,18.443951855821737,21.614536497194614,24.474100501507511,27.333664505821691,30.193228510137182,33.052792514453934,35.810073125202763,38.260499688068393,40.71092625093528,43.161352813803433,45.61177937667285,47.9495737176158,49.990424693069286,52.031275668524039,54.072126643980049,56.11297761943726,58.032812570926694,59.670272986966189,61.307733403006914,62.945193819048917,64.582654235092107,66.092874431928067,67.3388227805976,68.584771129268333,69.830719477940363,71.076667826613644,72.191396183128944,73.062426724761636,73.9334572663956,74.804487808030714,75.675518349667129,76.413569899545521,76.929986444674043,77.446402989803772,77.962819534934781,78.479236080066983,78.863015929264549,79.047837600317436,79.232659271371617,79.417480942427034,79.602302613483829,79.656746140945685,79.53479280978199,79.41283947861956,79.290886147458437,79.168932816298636,78.920532962320223,78.517584702260237,78.114636442201572,77.711688182144215,77.308739922088222,76.7846756549113,76.126743917123179,75.46881217933651,74.810880441551063,74.15294870376708,71.60578784399533,70.71850941408772,69.831230984181559,68.836546769011548,67.744683957248128,66.652821145486143,65.560958333725608,64.4690955219666,63.2776443205102,62.004709997810288,60.7317756751118,59.458841352414829,58.185907029719473,56.82150145118905,55.389485179917855,53.957468908648217,52.525452637380077,51.093436366113636,49.578143192798585,48.007330772881083,46.436518352965223,44.865705933051004,43.294893513138483,41.648887574568278,39.95776438762455,38.266641200682436,36.575518013742119,34.884394826803515,33.125895776178162,31.331116434577602,29.536337092978915,27.741557751382025,25.946778409786884,24.092052834332005,22.208463417955755,20.324874001581403,18.44128458520894,16.557695168838439,14.621109929794203,12.661811479716507,10.70251302964077,8.743214579567093,6.7839161294953545,4.7780295287544705,2.7544709531318912,0.73091237751136839,-1.2926461981070014,-3.3162047737233356,-5.3805267547150244,-7.4584370512304972,-9.5363473477437,-11.614257644254737,-13.692167940763525,-15.805621668744129,-17.929394890970041,-20.05316811319366,-22.176941335414973,-24.300714557633963,-26.455422484167283,-28.617864452274944,-30.780306420380217,-32.942748388483,-35.105190356583343,-37.294567734192334,-39.489658992114819,-41.684750250034682,-43.879841507952065,-46.074932765866834,-48.29354686027353,-50.516312305047705,-52.739077749819039,-54.961843194587793,-57.184608639353712,-59.42812684389623,-61.674609952584056,-63.921093061269083,-66.1675761699513,-68.4140592786307,-70.678931475608067,-72.945847097744178,-75.2127627198772,-77.479678342007062,-79.746593964133879,-82.030465453521273,-84.3157119162176,-86.6009583789109,-88.886204841601227,-91.171451304288752,-93.472281091221433,-95.773931208158842,-98.075581325092671,-100.37723144202317,-102.67888155895008,-104.99574097341936,-107.31299051731942,-109.630240061216,-111.94748960510904,-114.26473914899859,0.22553149075735376,0.22553149075735376,0.22553149075735376,0.22553149075735376,0.22553149075735376,0.22553149075735376,0.22553149075735376,0.22553149075735376,0.22553149075735376,0.22553149075735376,0.22553149075735376,0.22553149075735376
DP 120,218.27013972785852,0.0031563674297394231,-274.20581450973697,-264.037172670191,-253.86853083064349,-243.69988899109438,-233.53124715154368,-223.36883692388926,-213.44946191632911,-203.53008690876712,-193.6107119012041,-183.69133689363909,-173.79706477187443,-164.37975222585371,-154.96243967983168,-145.54512713380817,-136.1278145877834,-126.76367733811101,-118.0553754450615,-109.34707355201087,-100.63877165895863,-91.930469765905144,-83.309099119137244,-75.470117905798816,-67.631136692459066,-59.7921554791181,-51.953174265775878,-44.236249575297137,-37.373729774410187,-30.511209973522011,-23.648690172632612,-16.786170371741989,-10.078137580620195,-4.2455409130548718,1.5870557545116346,7.4196524220793156,13.252249089648178,18.903922384537868,23.702661436171269,28.501400487805824,33.300139539441524,38.098878591078339,42.698391961213886,46.500993189822282,50.303594418431807,54.10619564704237,57.908796875654126,61.502905797922359,64.37886579525788,67.254825792594488,70.130785789932233,73.006745787270987,75.673753559363774,77.71389675555622,79.754039951749775,81.794183147944409,83.834326344140024,85.6727758820623,86.9794806611493,88.286185440237247,89.59289021932635,90.899594998416376,92.017947741617363,92.696806466660689,93.37566519170494,94.054523916750256,94.733382641796666,95.241463219397644,95.394845754721558,95.548228290046467,95.70161082537247,95.8549933606994,95.857588021595419,95.5801439863651,95.302699951135708,95.025255915907422,94.74781188068016,94.340395038874462,93.716353576724785,93.092312114576046,92.468270652428245,91.844229190281538,91.110586501741707,90.212539383704637,89.314492265668491,88.416445147633368,87.518398029599368,86.529765580111544,85.41857449107404,84.3073834020376,83.196192313002143,82.08500122396778,80.900310546758988,79.625785495723392,78.351260444688776,77.076735393655227,75.802210342622715,74.46905460520253,73.071095363493313,71.673136121785177,70.275176880078078,68.877217638372045,64.453133118320451,62.963090984568872,61.473048850818344,59.947372499086867,58.389455022861164,56.831537546636561,55.273620070413131,53.715702594190695,52.130571699897338,50.523174814047557,48.915777928198935,47.308381042351435,45.7009841565051,44.073057884246381,42.429957380211768,40.786856876178419,39.143756372146157,37.500655868115238,35.842239539524336,34.173612419949244,32.50498530037536,30.836358180802765,29.167731061231432,27.487789794700642,25.801059868886764,24.114329943074139,22.427600017262879,20.740870091452877,19.045851806776387,17.346370439107027,15.646889071439087,13.947407703772511,12.247926336107247,10.5424125994587,8.8339943043839639,7.1255760093106879,5.4171577142388339,3.708739419168432,1.9959480253407262,0.28128238728226118,-1.4333832507747413,-3.1480488888302052,-4.8627145268842229,-6.5805489512929487,-8.299585370458308,-10.018621789622133,-11.737658208784357,-13.456694627945058,-15.178037643765323,-16.900149554207328,-18.622261464647586,-20.344373375086303,-22.066485285523328,-23.790295372836713,-25.51459849995339,-27.238901627068344,-28.963204754181579,-30.687507881293108,-32.413086949264475,-34.138985017524817,-35.864883085783404,-37.59078115404008,-39.316679222295008,-41.043567212576164,-42.770665197657507,-44.497763182736961,-46.2248611678145,-47.951959152890147,-49.679850182864023,-51.407881170754784,-53.135912158643464,-54.863943146530218,-56.591974134414912,-58.320709823475873,-60.049546191744071,-61.778382560010286,-63.50721892827432,-65.236055296536279,-66.96544041722575,-68.694886516168268,-70.424332615108469,-72.153778714046339,-73.883224812982036,-75.613345446370715,-77.343520778632822,-79.07369611089274,-80.803871443150484,-82.534046775406082,-84.264703769999855,-85.995386120032961,-87.726068470063467,-89.456750820091486,-91.187433170117,-92.918694138399744,-94.649969948655084,-96.381245758907667,-98.112521569157664,-99.843797379405061,0.16607816397246797,0.16607816397246797,0.16607816397246797,0.16607816397246797,0.16607816397246797,0.16607816397246797,0.16607816397246797,0.16607816397246797,0.16607816397246797,0.16607816397246797,0.16607816397246797,0.16607816397246797
DP 121,271.22182437158716,0.0035986551042058645,-335.88551491546229,-322.59716221781349,-309.30880952016327,-296.02045682251179,-282.73210412485821,-269.45356676291345,-256.55783120470426,-243.66209564649333,-230.76636008828103,-217.87062453006703,-205.01406983737567,-192.90195899649419,-180.78984815561137,-168.67773731472707,-156.56562647384138,-144.53531677770053,-133.51389817602478,-122.49247957434773,-111.47106097266905,-100.44964237098904,-89.5593001674564,-79.8486579367645,-70.138015706071229,-60.427373475376591,-50.716731244680588,-41.185570712313336,-32.9107956401107,-24.636020567906819,-16.361245495701567,-8.0864704234950135,-0.032179453900643216,6.7726877072768916,13.577554868455708,20.38242202963578,27.187289190817086,33.742631072008265,39.121626013001162,44.500620953995345,49.879615894990714,55.25861083598727,60.37314256975101,64.4298089758983,68.486475382046791,72.543141788196579,76.599808194347375,80.391044937392479,83.26801280141926,86.144980665447164,89.021948529476177,91.898916393506454,94.521588666184243,96.381364550279628,98.241140434376263,100.10091631847396,101.96069220257272,103.58649311346872,104.59544287116363,105.60439262885964,106.61334238655687,107.62229214425508,108.42350630878947,108.73999754413963,109.05648877949098,109.37298001484339,109.68947125019689,109.82729338317405,109.59402833798308,109.36076329279321,109.12749824760428,108.89423320241646,108.51162737997974,107.85167036669246,107.19171335340619,106.53175634012111,105.87179932683706,105.09020077025946,104.10586324214047,103.12152571402248,102.13718818590557,101.15285065778974,100.07173579757682,98.845452652342757,97.619169507109817,96.392886361877771,95.166603216646976,93.8649604750386,92.461358956431511,91.0577574378255,89.654155919220486,88.25055440061675,86.789414742789461,85.257949484007071,83.7264842252257,82.1950189664455,80.663553707666381,79.088943601974535,77.466646227989813,75.844348854006171,74.222051480023623,72.599754106042369,67.57376202109694,65.887824541611351,64.201887062126929,62.492835750340113,60.762871507471296,59.032907264603558,57.302943021737129,55.572978778871814,53.826454553043511,52.066380965651661,50.306307378260961,48.546233790871504,46.78616020348327,45.0143672141754,43.233911865582627,41.453456516991267,39.673001168401072,37.892545819812241,36.103883786920143,34.309750501875619,32.5156172168324,30.721483931790512,28.927350646749975,27.127518096074038,25.324265899825402,23.521013703578078,21.717761507332188,19.914509311087656,18.107319662854014,16.298009790908036,14.488699918963556,12.679390047020506,10.870080175078849,9.058051843622577,7.2447145861856912,5.4313773287503571,3.6180400713165151,1.8047028138842083,-0.010522822140901661,-1.8265577887750182,-3.6425927554075943,-5.4586277220385471,-7.2746626886679726,-9.0920304255706572,-10.90990371340008,-12.72777700122789,-14.545650289054002,-16.363523576878521,-18.182365360224566,-20.001529987615772,-21.820694615005195,-23.639859242392941,-25.45902386977891,-27.278924247119559,-29.099038238257791,-30.919152229394257,-32.739266220528869,-34.559380211661683,-36.380087061828753,-38.20094213375765,-40.021797205684628,-41.842652277609709,-43.663507349532878,-45.484874071380794,-47.306349330891472,-49.127824590400053,-50.9492998499067,-52.770775109411311,-54.5927129813621,-56.414732495945934,-58.236752010527617,-60.058771525107289,-61.88079103968478,-63.703291974900104,-65.525861689690814,-67.348431404479427,-69.1710011192658,-70.993570834050018,-72.81653668662706,-74.6395465586727,-76.4625564307159,-78.285566302756564,-80.108576174794933,-81.932165252166172,-83.755801298048425,-85.579437343928362,-87.403073389805982,-89.226709435681371,-91.050757579842085,-92.874827417483729,-94.698897255122716,-96.5229670927591,-98.347036930392747,-100.17163697324482,-101.99625061623989,-103.82086425923222,-105.64547790222176,-107.47009154520845,0.17474047208660778,0.17474047208660778,0.17474047208660778,0.17474047208660778,0.17474047208660778,0.17474047208660778,0.17474047208660778,0.17474047208660778,0.17474047208660778,0.17474047208660778,0.17474047208660778,0.17474047208660778
DP 122,152.68748078243684,0.0037157870242057606,-280.62966923746342,-271.19769428302277,-261.76571932857985,-252.33374437413511,-242.90176941968852,-233.47409735707859,-224.21423970304238,-214.95438204900444,-205.69452439496433,-196.43466674092258,-187.192349706138,-178.28330775320671,-169.37426580027349,-160.46522384733854,-151.55618189440187,-142.68497493022986,-134.28040426245207,-125.87583359467247,-117.47126292689109,-109.06669225910794,-100.72555060477325,-92.955276066875172,-85.185001528975576,-77.414726991074474,-69.644452453171581,-61.966088222828276,-54.931103095386753,-47.896117967943731,-40.861132840499039,-33.826147713052826,-26.911968890917564,-20.682366744719765,-14.452764598520472,-8.2231624523196576,-1.9935603061173375,4.0882684536178822,9.47344326702401,14.858618080431627,20.2437928938407,25.628967707251171,30.843265662237798,35.374048107787033,39.90483055333771,44.435612998889773,48.966395444443236,53.308459779612484,57.000487139965095,60.692514500319135,64.3845418606745,68.076569221031278,71.568093267071518,74.458099789439146,77.348106311808209,80.238112834178565,83.128119356550371,85.812102150646652,87.952924397980738,90.093746645316074,92.234568892652732,94.375391139990782,96.31063922118166,97.766207770994228,99.221776320808118,100.67734487062322,102.13291342043969,103.38864183053029,104.22931183069248,105.06998183085605,105.91065183102097,106.75132183118701,107.40223315427248,107.70073038100645,107.99922760774182,108.29772483447844,108.59622206121634,108.71832989074161,108.54645094557253,108.3745720004048,108.20269305523843,108.03081411007335,107.6981281158167,107.12422774800712,106.55032738019895,105.97642701239209,105.4025266445866,104.68461762741859,103.77187017596975,102.85912272452229,101.94637527307597,101.0336278216312,99.994019071767227,98.799354959153078,97.604690846540251,96.410026733928731,95.215362621318576,93.910630967910038,92.484243526523159,91.05785608513763,89.63146864375355,88.205081202370835,83.455126967363526,81.840422405643963,80.2257178439258,78.531516479236018,76.765388004405352,74.9992595295761,73.23313105474837,71.467002579922038,69.634571618028716,67.7478920272656,65.861212436504,63.974532845743987,62.087853254985433,60.146501506961435,58.16473900484209,56.1829765027243,54.20121400060814,52.219451498493505,50.193082293130686,48.136974582890531,46.080866872651995,44.024759162415144,41.968651452179905,39.876505041150885,37.762734864619446,35.648964688089805,33.53519451156189,31.42142433503566,29.278799760272555,27.120637782252032,24.962475804233335,22.804313826216418,20.646151848201207,18.46507716444286,16.272970116330089,14.080863068219253,11.888756020110305,9.6966489720032758,7.4864799220327853,5.2685697702306795,3.0506596184305068,0.83274946663237537,-1.3851606851638441,-3.6172198145119134,-5.8546459818785719,-8.0920721492431884,-10.329498316605688,-12.566924483966178,-14.815379827874153,-17.067511702961838,-19.319643578047287,-21.571775453130602,-23.823907328211696,-26.08460876634231,-28.347798246647447,-30.6109877269503,-32.874177207250895,-35.137366687549161,-37.407208963788278,-39.67871451761431,-41.950220071438061,-44.221725625259317,-46.4932311790782,-48.769915695376753,-51.047698838807875,-53.325481982236433,-55.603265125662496,-57.881048269086072,-60.162881560376135,-62.445429628678667,-64.727977696978527,-67.010525765275744,-69.29307383357019,-71.578881995077637,-73.8651559194012,-76.1514298437222,-78.43770376804035,-80.723977692355788,-83.012793607602546,-85.301891992980387,-87.590990378355215,-89.880088763726818,-92.169187149095578,-94.460630763109251,-96.75226455475898,-99.0438983464059,-101.33553213804987,-103.6271659296908,-105.92063577747756,-108.21420227806301,-110.50776877864506,-112.80133527922382,-115.09490177979906,-117.39030393478042,-119.68575317561566,-121.98120241644749,-124.27665165727599,-126.57210089810081,0.22099174691122614,0.22099174691122614,0.22099174691122614,0.22099174691122614,0.22099174691122614,0.22099174691122614,0.22099174691122614,0.22099174691122614,0.22099174691122614,0.22099174691122614,0.22099174691122614,0.22099174691122614
DP 123,159.39465675061055,0.0012548550337279161,-96.535408693759592,-93.2540527756956,-89.97269685763095,-86.691340939565578,-83.409985021499509,-80.130178847683538,-76.910813285581185,-73.691447723478234,-70.472082161374573,-67.252716599270244,-64.0396600049472,-60.946474991142139,-57.853289977336523,-54.760104963530331,-51.666919949723571,-48.587318219636664,-45.675245367312684,-42.763172514988113,-39.85109966266301,-36.939026810337246,-34.049666847654493,-31.364725038613567,-28.679783229572141,-25.994841420530125,-23.30989961148758,-20.657762622114628,-18.235261851031865,-15.812761079948567,-13.390260308864747,-10.967759537780397,-8.58820891243676,-6.4520451527579539,-4.3158813930786453,-2.1797176333988255,-0.043553873718503125,2.0403081153173472,3.8776017892421004,5.7148954631673456,7.5521891370930847,9.38948281101929,11.166605285597912,12.703040119059587,14.239474952521732,15.775909785984364,17.31234461944744,18.782697725116019,20.025433214548844,21.268168703982131,22.510904193415882,23.753639682850078,24.926594886311296,25.890206593568031,26.853818300825193,27.817430008082844,28.781041715340937,29.673421700449911,30.378006515200624,31.082591329951811,31.787176144703402,32.491760959455476,33.125764057134859,33.59507425782305,34.064384458511718,34.533694659200812,35.003004859890339,35.404206039039636,35.663948038761568,35.923690038483912,36.183432038206725,36.443174037929964,36.638740195032106,36.715120911274141,36.791501627516666,36.867882343759561,36.944263060002925,36.961466727357859,36.880040488303692,36.798614249250008,36.717188010196708,36.635761771143883,36.500833564671652,36.2856511428039,36.070468720936582,35.855286299069689,35.640103877203245,35.377417951298263,35.050461522262282,34.723505093226791,34.396548664191755,34.069592235157145,33.701156389674253,33.282022608381219,32.8628888270886,32.443755045796451,32.024621264504738,31.569822677483167,31.075604384954453,30.581386092426182,30.087167799898417,29.592949507371102,27.959147117324992,27.404469705520619,26.849792293716707,26.269831331437352,25.666994320665218,25.064157309893549,24.461320299122381,23.8584832883517,23.234759461309679,22.593946062001244,21.9531326626933,21.312319263385859,20.671505864078934,20.013635363920667,19.343157161001781,18.672678958083459,18.002200755165624,17.331722552248358,16.64746294952344,15.954015529821469,15.260568110120049,14.567120690419189,13.873673270718877,13.169200684374427,12.458112831306011,11.747024978238182,11.03593712517092,10.324849272104235,9.60502088926328,8.8804859402111376,8.1559509911596173,7.43141604210867,6.7068810930583123,5.9754734799986693,5.2407567102516923,4.5060399405053584,3.7713231707596533,3.0366064010145868,2.2965245089790018,1.5541432063740281,0.81176190376969892,0.069380601166049369,-0.67300070143696256,-1.41954491933299,-2.1676682283374187,-2.9157915373411685,-3.6639148463442086,-4.4120381553465817,-5.1633768816011116,-5.9157874541291928,-6.6681980266565191,-7.4206085991831365,-8.1730191717090221,-8.9279067667703842,-9.683513527616423,-10.439120288461709,-11.194727049306227,-11.950333810149985,-12.707848885221614,-13.465841061396558,-14.223833237570721,-14.981825413744081,-15.739817589916633,-16.499285983051777,-17.259067530030904,-18.018849077009172,-18.778630623986579,-19.538412170963159,-20.299342535992174,-21.060475646392959,-21.821608756792845,-22.582741867191867,-23.343874977589941,-24.105932755470008,-24.868122638692434,-25.630312521913982,-26.392502405134564,-27.154692288354251,-27.917598240062151,-28.680583762454862,-29.443569284846575,-30.206554807237232,-30.96954032962693,-31.73319878134777,-32.496911801781685,-33.2606248222146,-34.024337842646624,-34.788050863077608,-35.552282817456557,-36.316542089310616,-37.080801361163545,-37.845060633015393,-38.6093199048661,-39.37410615702526,-40.13890592660767,-40.903705696188922,-41.668505465769,-42.433305235347937,0.0735927241677842,0.0735927241677842,0.0735927241677842,0.0735927241677842,0.0735927241677842,0.0735927241677842,0.0735927241677842,0.0735927241677842,0.0735927241677842,0.0735927241677842,0.0735927241677842,0.0735927241677842
DP 124,120.06417393646949,0.0051474921519523084,-347.53742232664905,-336.53843144395307,-325.53944056125442,-314.54044967855248,-303.54145879584809,-292.54662536812617,-281.71393425671522,-270.881243145302,-260.04855203388581,-249.21586092246682,-238.40022922475211,-227.908729612421,-217.41723000008761,-206.92573038775174,-196.43423077541334,-185.979865152473,-175.9834900787375,-165.98711500499965,-155.99073993125913,-145.99436485751625,-136.06104368412795,-126.69521357388548,-117.3293834636405,-107.96355335339339,-98.597723243143875,-89.324723923420791,-80.70154715697646,-72.078370390529926,-63.455193624081211,-54.832016857630137,-46.33321499748898,-38.5392121104883,-30.745209223485436,-22.95120633648035,-15.157203449473069,-7.5187506296691362,-0.613613671130948,6.2915232874093814,13.196660245951799,20.101797204496336,26.822503654388804,32.805479353376207,38.788455052365649,44.771430751357123,50.75440645035065,56.527962933135761,61.580177762512072,66.632392591890238,71.684607421270485,76.736822250652708,81.559705646280648,85.694586069974733,89.829466493670921,93.964346917368985,98.0992273410691,101.99065449474064,105.24024193234273,108.48982936994679,111.73941680755277,114.98900424516056,117.9870771705632,120.39827497633985,122.80947278211829,125.22067058789865,127.63186839368106,129.78941440202681,131.42013776171012,133.05086112139531,134.68158448108241,136.31230784077138,137.69270231018888,138.60819350871063,139.52368470723414,140.43917590575975,141.35466710428719,142.02790396255605,142.29737748088667,142.56685099921941,142.83632451755378,143.10579803589022,143.14499099204781,142.838757663343,142.53252433464021,142.22629100593923,141.92005767724029,141.3984913340104,140.58558729970503,139.77268326540167,138.95977923110033,138.14687519680078,137.13564684713234,135.88201794627156,134.62838904541309,133.37476014455657,132.12113124370188,130.68739059565411,129.05457548505376,127.42176037445535,125.78894526385903,124.1561301532648,118.45043340013756,116.49471711059512,114.53900082105487,112.44031509253891,110.21227348806831,107.98423188359982,105.7561902791337,103.52814867466957,101.17493424719508,98.719303540626655,96.263672834060429,93.80804212749652,91.3524114209348,88.7883472885805,86.14413492859795,83.499922568617791,80.8557102086399,78.21149784866445,75.474282631476328,72.675064044358578,69.875845457243258,67.076626870130312,64.277408283020009,61.399158902817263,58.473489851547889,55.547820800281031,52.622151749016837,49.69648269775508,46.704234480507729,43.676134974940624,40.648035469376239,37.6199359638145,34.591836458255237,31.508095204519673,28.397562700283157,25.287030196049525,22.176497691818675,19.065965187590674,15.909270768569256,12.732792048456279,9.5563133283461834,6.3798346082391157,3.203355888134884,-0.01116912252682151,-3.2401259808016669,-6.46908283907349,-9.6980396973421428,-12.926996555607813,-16.187134567019839,-19.457666689115385,-22.728198811207573,-25.99873093329661,-29.269263055382371,-32.565236369096148,-35.868596145503105,-39.171955921906672,-42.475315698306886,-45.77867547470364,-49.102734306091094,-52.4319681457854,-55.761201985476291,-59.09043582516356,-62.419669664847234,-65.7657381344915,-69.115377779121744,-72.46501742374808,-75.814657068370721,-79.164296712989568,-82.527652532219776,-85.893429005374358,-89.259205478524876,-92.624981951671529,-95.990758424814132,-99.367875375832952,-102.74661251762051,-106.12534965940424,-109.50408680118362,-112.88282394295896,-116.27086443971353,-119.65993874027978,-123.04901304084171,-126.43808734139867,-129.82716164195139,-133.22452224198764,-136.62255478881374,-140.0205873356355,-143.418619882453,-146.81665242926607,-150.22170344241547,-153.62712391835598,-157.03254439429139,-160.4379648702218,-163.84338534614716,-167.25556667863776,-170.66792143196267,-174.08027618528234,-177.49263093859685,-180.90498569190638,0.32964632536422511,0.32964632536422511,0.32964632536422511,0.32964632536422511,0.32964632536422511,0.32964632536422511,0.32964632536422511,0.32964632536422511,0.32964632536422511,0.32964632536422511,0.32964632536422511,0.32964632536422511
DP 125,152.2085484916287,0.0056324778714141746,-424.80435007338775,-410.53832895817374,-396.27230784295682,-382.00628672773689,-367.74026561251378,-353.4807364063717,-339.47439410899727,-325.4680518116196,-311.461709514239,-297.45536721685539,-283.47549128813716,-269.99848136738041,-256.52147144662086,-243.04446152585894,-229.56745160509411,-216.14753637037734,-203.4317961258308,-190.71605588128136,-178.00031563672948,-165.28457539217487,-152.66457057050769,-140.9061936038766,-129.14781663724321,-117.3894396706075,-105.63106270396916,-94.011441974931842,-83.363125401437571,-72.714808827940857,-62.066492254441755,-51.418175680940315,-40.952288596449264,-31.520180111992705,-22.088071627533829,-12.655963143072684,-3.2238546586092505,5.9850281366579345,14.141549197390274,22.29807025812487,30.454591318861645,38.61111237960062,46.509413964011507,53.374825439504313,60.240236914999244,67.105648390496285,73.971059865995528,80.551176127241348,86.1485968876405,91.746017648041843,97.343438408445138,102.94085916885057,108.23503609231604,112.61947003977679,117.00390398723967,121.38833793470468,125.77277188217157,129.84546582999252,133.09628906382918,136.34711229766771,139.59793553150828,142.84875876535085,145.78836696131097,148.00179693007769,150.21522689884642,152.42865686761721,154.64208683638989,156.55282142528068,157.83487219099675,159.1169229567148,160.39897372243502,161.68102448815719,162.6754919845342,163.13586849992865,163.59624501532494,164.05662153072333,164.51699804612355,164.7098976784448,164.45699576370978,164.20409384897673,163.95119193424563,163.69829001951658,163.20139502148692,162.33850463288141,161.47561424427784,160.61272385567625,159.74983346707671,158.6683033680724,157.29096173944527,155.91362011082012,154.536278482197,153.1589368535758,151.58886700322779,149.78323638923908,147.97760577525227,146.17197516126757,144.36634454728502,142.39339024294753,140.23549589861375,138.0776015542819,135.91970720995212,133.76181286562468,126.57195929933251,124.1275962001429,121.68323310095548,119.11785810273528,116.44299396954732,113.7681298363615,111.09326570317793,108.41840156999666,105.64254022794115,102.78404307019505,99.925545912451312,97.0670487547098,94.208551596970622,91.266715732754719,88.263280324227736,85.2598449157032,82.256409507180919,79.252974098661241,76.181495123227819,73.064652697927514,69.947810272629781,66.830967847334477,63.714125422041782,60.542270097394905,57.337406201155972,54.132542304919696,50.9276784086861,47.722814512455024,44.473873237632212,41.20119734876242,37.928521459895443,34.655845571031115,31.383169682169395,28.07546781390494,24.750901094715733,21.426334375529446,18.101767656346009,14.777200937165496,11.425003900409573,8.0609649258879035,4.6969259513691721,1.3328869768535354,-2.0311519976591965,-5.4168503524213021,-8.81076461655437,-12.204678880684343,-15.598593144811074,-18.992507408934777,-22.403316565287504,-25.81975756530424,-29.236198565317537,-32.652639565327632,-36.069080565334353,-39.498657010416082,-42.932047132010752,-46.365437253601996,-49.798827375189752,-53.232217496774027,-56.675810893966577,-60.121955230611405,-63.568099567252659,-67.01424390389019,-70.460388240524139,-73.914479386504311,-77.3702563103598,-80.826033234211351,-84.281810158059272,-87.737587081903257,-91.199581220337762,-94.6626725834212,-98.125763946500541,-101.58885530957583,-105.05194667264712,-108.52004283200206,-111.98885401631495,-115.45766520062362,-118.92647638492809,-122.39528756922842,-125.86800330112472,-129.34115291264575,-132.81430252416214,-136.28745213567393,-139.760601747181,-143.23734955655621,-146.71438914846891,-150.19142874037698,-153.66846833228072,-157.14550792418007,-160.62536737838175,-164.10537527444018,-167.58538317049369,-171.06539106654202,-174.54539896258521,-178.028223639299,-181.51112056846029,-184.99401749761623,-188.47691442676702,-191.95981135591222,0.33532473560772458,0.33532473560772458,0.33532473560772458,0.33532473560772458,0.33532473560772458,0.33532473560772458,0.33532473560772458,0.33532473560772458,0.33532473560772458,0.33532473560772458,0.33532473560772458,0.33532473560772458
DP 126,237.22145400211167,0.002107005646665053,-188.35354018705794,-181.19627468416473,-174.03900918127047,-166.88174367837527,-159.72447817547913,-152.57192156678289,-145.60301361229779,-138.63410565781152,-131.66519770332425,-124.69628974883602,-117.746288686273,-111.1555221445121,-104.56475560275042,-97.973989060987833,-91.383222519224375,-84.83229804755122,-78.7727641282309,-72.7132302089098,-66.653696289587756,-60.594162370264783,-54.599295983226241,-49.186443499208529,-43.77359101519005,-38.360738531170774,-32.9478860471506,-27.625016194750767,-22.932031567908425,-18.239046941065261,-13.546062314221317,-8.8530776873765724,-4.2727660112484207,-0.33094148916983129,3.6108830329095332,7.5527075549896647,11.494532077070566,15.306021042530855,18.503063915652021,21.70010678877394,24.897149661896577,28.094192535019975,31.149681381443848,33.638947431143762,36.128213480844387,38.617479530545744,41.106745580247811,43.450097795750679,45.290851785924652,47.131605776099349,48.972359766274714,50.81311375645079,52.509999833486617,53.7752767316771,55.040553629868263,56.3058305280601,57.571107426252645,58.699908446392868,59.468904733538281,60.237901020684347,61.006897307831125,61.775893594978626,62.419760434986742,62.771654622543764,63.123548810101447,63.475442997659805,63.827337185218788,64.067936053973753,64.0773798699017,64.086823685830367,64.096267501759655,64.105711317689583,64.018831168726692,63.753061055062496,63.48729094139901,63.221520827736143,62.955750714073936,62.608651401091883,62.126001372622667,61.643351344154055,61.160701315686147,60.678051287218885,60.128262286257666,59.477763240042577,58.827264193828128,58.176765147614475,57.526266101401319,56.821473370772352,56.043223271368774,55.264973171965991,54.486723072563841,53.708472973162344,52.887140111228433,52.013149634592416,51.139159157957017,50.265168681322429,49.391178204688472,48.483591366313142,47.538871038525855,46.594150710739179,45.649430382953227,44.704710055167979,41.741640715910904,40.745356948290549,39.749073180670834,38.733295317446704,37.6998795881799,36.666463858913751,35.633048129648387,34.599632400383726,33.551675363733168,32.491820643865147,31.431965923997865,30.372111204131325,29.312256484265575,28.241688045877112,27.163200595942104,26.084713146007893,25.006225696074466,23.927738246141793,22.841443829455002,21.749944645278578,20.658445461102968,19.566946276928149,18.475447092754184,17.378313050342925,16.277798007771569,15.177282965201087,14.076767922631475,12.976252880062669,11.871701600103364,10.764976902855786,9.6582522056091324,8.5515275083633533,7.4448028111184312,6.3352016624742138,5.2242155154700152,4.1132293684667616,3.0022432214644246,1.891257074463033,0.7782240076520901,-0.33568633814477489,-1.4495966839406933,-2.5635070297356104,-3.6774173755295947,-4.7927896835918613,-5.908716548125784,-7.0246434126587056,-8.140570277190589,-9.2564971417214981,-10.373479758953845,-11.490814307058123,-12.608148855161295,-13.72548340326343,-14.842817951364488,-15.96093089301857,-17.079269829390395,-18.197608765761107,-19.315947702130725,-20.434286638499195,-21.553218627284974,-22.672298886181139,-23.791379145076164,-24.910459403969988,-26.029539662862653,-27.149093222758033,-28.268747185257457,-29.388401147755634,-30.508055110252606,-31.627709072748331,-32.747756873928033,-33.867874180430412,-34.9879914869315,-36.108108793431313,-37.228226099929763,-38.348714556805341,-39.4692560391715,-40.589797521536326,-41.7103390038998,-42.830880486261862,-43.951716853888172,-45.072585989639428,-46.1934551253893,-47.314324261137607,-48.435193396884465,-49.556455124452739,-50.677748687800751,-51.799042251147334,-52.920335814492489,-54.041629377836294,-55.163201934381547,-56.284789177553776,-57.4063764207244,-58.52796366389336,-59.649550907060693,-60.771485402540904,-61.893428805291258,-63.015372208040034,-64.137315610787027,-65.259259013532329,0.10755338985027686,0.10755338985027686,0.10755338985027686,0.10755338985027686,0.10755338985027686,0.10755338985027686,0.10755338985027686,0.10755338985027686,0.10755338985027686,0.10755338985027686,0.10755338985027686,0.10755338985027686
DP 127,163.60350695890659,0.0043963712649243755,-341.93699728289909,-330.2335321244334,-318.53006696596543,-306.82660180749548,-295.12313664902285,-283.42531645599064,-271.9476520494942,-260.469987642996,-248.99232323649568,-237.51465882999261,-226.05995837884652,-215.04157742068421,-204.02319646251988,-193.00481550435353,-181.98643454618511,-171.0174371422174,-160.65750979714221,-150.29758245206511,-139.93765510698594,-129.57772776190438,-119.30024072786694,-109.76472428559875,-100.2292078433286,-90.693691401056526,-81.158174958782709,-71.741487851647051,-63.156615076000286,-54.571742300351708,-45.986869524701284,-37.401996749049005,-28.972323887124094,-21.422126982779719,-13.871930078433543,-6.3217331740856322,1.228463730264036,8.5902039436594,15.0634952921803,21.536786640702925,28.010077989227238,34.48336933775326,40.740535990511113,46.133193646015272,51.525851301521058,56.91850895702855,62.311166612537619,67.467302116969947,71.808740275980824,76.150178434993308,80.491616594007482,84.8330547530232,88.925685686403128,92.271885535855958,95.618085385310522,98.964285234766621,102.31048508422423,105.40374114710569,107.83013671500065,110.25653228289708,112.68292785079511,115.10932341869464,117.28617408624743,118.88074545723465,120.4753168282235,122.06988819921386,123.66445957020569,125.0193310747683,125.87635742391508,126.73338377306339,127.59041012221317,128.44743647136457,129.07968993327157,129.29450196292882,129.50931399258747,129.72412602224756,129.93893805190933,129.94751858223702,129.61237474881278,129.27723091538996,128.94208708196859,128.60694324854902,128.08630929514425,127.2874357785785,126.48856226201433,125.68968874545166,124.89081522889057,123.92812536347543,122.74379797099756,121.55947057852129,120.37514318604659,119.19081579357353,117.86422785313708,116.36376292149558,114.86329798985562,113.36283305821729,111.86236812658055,110.24027010606076,108.483733093219,106.72719608037892,104.97065906754048,103.21412205470359,97.431974759780957,95.470422856820932,93.508870953862669,91.462082185849482,89.338172814847738,87.214263443847457,85.090354072849053,82.9664447018523,80.772536696816829,78.521355879141282,76.270175061467583,74.018994243795674,71.767813426125471,69.459810530325171,67.109807773144865,64.759805015966535,62.4098022587899,60.059799501615181,57.664164235341964,55.238106577464713,52.812048919589316,50.38599126171593,47.959933603844426,45.497591537528869,43.013478277405163,40.529365017283418,38.045251757163754,35.561138497045988,33.048434723212331,30.5203356416238,27.992236560037451,25.464137478453118,22.936038396870778,20.385594798568807,17.824392416361789,15.263190034157013,12.701987651954393,10.140785269754025,7.56224381884736,4.9762711043669769,2.3902983898888297,-0.19567432458695033,-2.781647039060517,-5.3809953825658594,-7.98541741491332,-10.589839447258425,-13.194261479601069,-15.798683511941398,-18.41337972969891,-21.03150080541084,-23.649621881120144,-26.267742956827007,-28.885864032531316,-31.511859731951844,-34.140141708490354,-36.7684236850262,-39.396705661559444,-42.024987638089989,-44.659309540688689,-47.295141496164675,-49.930973451637975,-52.566805407108426,-55.202637362576127,-57.843125815747051,-60.484602064202754,-63.126078312655416,-65.767554561105243,-68.409030809552149,-71.054122245928554,-73.699851696844334,-76.345581147757059,-78.99131059866663,-81.637040049573088,-84.2856825174679,-86.934741162111365,-89.583799806751813,-92.232858451388978,-94.881917096023,-97.533223729856829,-100.18478016387441,-102.83633659788859,-105.48789303189905,-108.13944946590608,-110.79314711550104,-113.44701839904769,-116.10088968259082,-118.75476096613059,-121.40863224966708,-124.06414021689675,-126.71973434165402,-129.37532846640744,-132.03092259115684,-134.68651671590246,-137.34379078532857,-140.00110794654179,-142.65842510775096,-145.31574226895597,-147.97305943015709,0.255624063154329,0.255624063154329,0.255624063154329,0.255624063154329,0.255624063154329,0.255624063154329,0.255624063154329,0.255624063154329,0.255624063154329,0.255624063154329,0.255624063154329,0.255624063154329
DP 128,139.96745046273784,0.0011019226421831443,-80.056542996261925,-77.4252750676983,-74.794007139134038,-72.162739210569256,-69.5314712820038,-66.901323515472811,-64.314862491821032,-61.728401468168748,-59.141940444515839,-56.555479420862383,-53.973596279888262,-51.478693775247777,-48.983791270606744,-46.4888887659652,-43.993986261323109,-41.508992741183441,-39.146211278725204,-36.78342981626642,-34.420648353807088,-32.057866891347196,-29.711780801949839,-27.51595464818579,-25.320128494421279,-23.124302340656296,-20.928476186890787,-18.756991320492066,-16.755897306277042,-14.754803292061549,-12.753709277845562,-10.752615263629107,-8.783754154922228,-6.997548208566104,-5.2113422622095218,-3.4251363158524892,-1.6389303694949953,0.10750660315595123,1.6664591231830923,3.2254116432106779,4.7843641632387044,6.343316683267167,7.8558343427275474,9.18261036537638,10.509386388025639,11.836162410675341,13.162938433325452,14.437877754603631,15.534266260193366,16.630654765783504,17.727043271374072,18.823431776965055,19.864098537450328,20.737597955864704,21.611097374279471,22.484596792694678,23.358096211110279,24.173615055359992,24.836274029393874,25.4989330034282,26.161591977462905,26.824250951498019,27.428275455892194,27.89548435039174,28.362693244891663,28.829902139391972,29.297111033892683,29.706508914524662,29.995836085009913,30.285163255495572,30.574490425981608,30.863817596468053,31.097429812429745,31.227569893919611,31.357709975409826,31.487850056900466,31.617990138391484,31.695533814800626,31.685415490347609,31.675297165894957,31.665178841442689,31.655060516990858,31.596217414095953,31.464285992156313,31.332354570217113,31.200423148278293,31.06849172633985,30.892196925935522,30.655880097424021,30.419563268912938,30.183246440402254,29.946929611891964,29.670860893988664,29.346205698517707,29.021550503047184,28.696895307577066,28.372240112107367,28.012487891857408,27.613943524764114,27.215399157671211,26.816854790578788,26.418310423486741,25.069854020926016,24.610180217761496,24.150506414597391,23.664553569893432,23.1548239763822,22.6450943828714,22.135364789361052,21.625635195851142,21.093578915498103,20.543254962211133,19.992931008924614,19.442607055638572,18.89228310235298,18.323200146708707,17.740251533126091,17.157302919543966,16.574354305962316,15.991405692381155,15.392858301409079,14.783911479774293,14.174964658140032,13.566017836506251,12.957071014872998,12.335277912684752,11.70577684788465,11.076275783085071,10.446774718286038,9.8172736534874989,9.17728718823175,8.531654585639032,7.8860219830468834,7.2403893804552615,6.5947567778641751,5.9406358301836679,5.2824277826711494,4.6242197351592189,3.9660116876478555,3.3078036401370867,2.6427746830263894,1.9748223868418677,1.3068700906579336,0.63891779447462282,-0.029034501708106602,-0.70243215472214593,-1.3778953589064218,-2.0533585630900815,-2.7288217672730881,-3.4042849714554873,-4.0840719234616794,-4.7653001792334146,-5.4465284350044687,-6.1277566907748691,-6.8089849465445988,-7.4936326571041176,-8.17927315430667,-8.86491365150854,-9.55055414870971,-10.236194645910187,-10.924533865711025,-11.613547798047151,-12.302561730382564,-12.99157566271723,-13.680589595051181,-14.3717354110189,-15.063333469151742,-15.754931527283794,-16.446529585415096,-17.138127643545619,-17.83141452572556,-18.524999454458239,-19.21858438319008,-19.912169311921108,-20.605754240651336,-21.300706190710635,-21.995853444297627,-22.69100069788378,-23.38614795146907,-24.081295205053571,-24.777526344202876,-25.47387792646412,-26.170229508724464,-26.866581090983864,-27.562932673242322,-28.260260566664378,-28.957667630426709,-29.655074694188137,-30.352481757948663,-31.04988882170829,-31.748083624231988,-32.446319894527278,-33.144556164821566,-33.842792435114788,-34.541028705407022,-35.240035316512817,-35.939061687414139,-36.638088058314487,-37.337114429213713,-38.036140800111923,0.067373119781576729,0.067373119781576729,0.067373119781576729,0.067373119781576729,0.067373119781576729,0.067373119781576729,0.067373119781576729,0.067373119781576729,0.067373119781576729,0.067373119781576729,0.067373119781576729,0.067373119781576729
DP 129,267.18961379159828,0.003148813880685671,-292.5328907225088,-281.01246219614762,-269.49203366978554,-257.97160514342175,-246.45117661705675,-234.93914771616551,-223.75470738460038,-212.57026705303406,-201.3858267214662,-190.20138638989698,-179.05049692281352,-168.5370802235268,-158.02366352423905,-147.51024682494989,-136.99683012565947,-126.55353976981424,-116.9751498210484,-107.39675987228148,-97.818369923513046,-88.23997997474325,-78.774127197900285,-70.321119605558422,-61.868112013215409,-53.415104420871216,-44.962096828525794,-36.663479766074282,-29.445608087425637,-22.227736408775847,-15.009864730124916,-7.791993051472816,-0.76421112206693,5.1863835832696452,11.136978288607343,17.08757299394615,23.038167699286035,28.773080379771969,33.491194722218751,38.209309064666641,42.927423407115548,47.64553774956557,52.134399453102425,55.706239766373422,59.278080079645484,62.849920392918577,66.421760706192643,69.762788068181763,72.308783346096149,74.854778624011587,77.400773901928062,79.946769179845546,82.270886364962053,83.9293608828062,85.587835400651443,87.246309918497673,88.904784436344727,90.3583796965378,91.271831690034588,92.18528368353239,93.0987356770312,94.012187670530977,94.74305075127873,95.047867282767911,95.352683814257958,95.657500345748971,95.962316877240838,96.109475598126963,95.929186588679,95.748897579231979,95.568608569785923,95.3883195603408,95.075714746584552,94.51737700863859,93.95903927069358,93.400701532749608,92.84236379480663,92.175799363068521,91.3288543804163,90.48190939776498,89.6349644151146,88.7880194324652,87.854598665089583,86.791462177177564,85.728325689266441,84.665189201356256,83.602052713447137,82.471281678246072,81.249003574851542,80.026725471458008,78.804447368065325,77.582169264673709,76.308019247306319,74.970469134415012,73.632919021524756,72.295368908635439,70.957818795747031,69.581195246262368,68.161384489326068,66.741573732390734,65.321762975456409,63.901952218523071,59.497768321574362,58.020056804727304,56.542345287881261,55.043506442524873,53.5255520148061,52.007597587088362,50.4896431593717,48.97168873165608,47.4385268553673,45.892922259805275,44.347317664244287,42.801713068684428,41.256108473125622,39.699691591509023,38.135282842460526,36.570874093413217,35.00646534436693,33.442056595321837,31.870041841744083,30.29295629865705,28.715870755571174,27.138785212486457,25.56169966940292,23.979308932865365,22.393735000023554,20.808161067182933,19.222587134343563,17.637013201505372,16.047759471975159,14.456524259946985,12.865289047920133,11.274053835894533,9.6828186238701566,8.0890344729208756,6.494023019389382,4.899011565859233,3.3040001123304088,1.7089886588029366,0.11220280166526966,-1.485343538121396,-3.082889877906712,-4.68043621769059,-6.2779825574731341,-7.8767815885863968,-9.476055794811197,-11.07533000103458,-12.674604207256468,-14.273878413476952,-15.874060801959171,-17.474545929306661,-19.075031056652545,-20.675516183996976,-22.276001311339826,-23.877172591323287,-25.478543085279409,-27.079913579233921,-28.681284073186841,-30.282654567138142,-31.884573283574881,-33.486629062108889,-35.088684840641278,-36.690740619171962,-38.292796397701,-39.895320386845704,-41.497943698756664,-43.100567010665827,-44.703190322573256,-46.305813634478923,-47.908856106477664,-49.511972552564117,-51.115088998648666,-52.71820544473146,-54.321321890812314,-55.924870091393373,-57.528479975851,-59.132089860306806,-60.735699744760559,-62.3393096292124,-63.943273450204607,-65.547276601194369,-67.151279752181992,-68.755282903167469,-70.359286054150914,-71.963802571170021,-73.568360717706312,-75.172918864240472,-76.777477010772657,-78.382035157302866,-79.986958400088625,-81.591900862096935,-83.196843324102986,-84.801785786106663,-86.406728248108038,-88.012139400810668,-89.617562575764836,-91.222985750716759,-92.828408925666153,-94.433832100613188,0.15376516326038528,0.15376516326038528,0.15376516326038528,0.15376516326038528,0.15376516326038528,0.15376516326038528,0.15376516326038528,0.15376516326038528,0.15376516326038528,0.15376516326038528,0.15376516326038528,0.15376516326038528
DP 130,55.816054510664792,0.0037289011171542973,-157.32736822572414,-153.08520530785086,-148.84304238997555,-144.60087947209814,-140.35871655421892,-136.11749922688003,-131.91316028820867,-127.7088213495355,-123.50448241086039,-119.30014347218322,-115.09976185749197,-110.97457014667113,-106.84937843584858,-102.72418672502437,-98.598995014198366,-94.482575838395263,-90.474352366815623,-86.46612889523405,-82.457905423650686,-78.4496819520655,-74.45676139810233,-70.601568549202483,-66.746375700300945,-62.891182851397694,-59.035990002492881,-55.204056539990312,-51.534940541117308,-47.865824542242713,-44.196708543366434,-40.52759254448857,-36.890873658941132,-33.437740457082285,-29.984607255221839,-26.53147405335983,-23.078340851496261,-19.667589311216183,-16.456639321815018,-13.245689332412319,-10.034739343008095,-6.8237893536023559,-3.6657222350265779,-0.7191890990497154,2.2273440369286366,5.1738771729084725,8.12041030888978,11.003376679039434,13.667388185363768,16.331399691689551,18.995411198016807,21.659422704345509,24.249333333383454,26.61693852890652,28.98454372443106,31.352148919957042,33.719754115484449,36.003177386600306,38.06466359991245,40.12614981322605,42.187636026541043,44.249122239857492,46.217064711266012,47.966735504267731,49.716406297270822,51.466077090275292,53.215747883281274,54.863467315665886,56.299438649356446,57.73540998304842,59.171381316741879,60.607352650436731,61.934097185187376,63.0579890006865,64.1818808161871,65.3057726316891,66.429664447192692,67.438321126734266,68.254916341764471,69.071511556796011,69.8881067718291,70.704701986863682,71.401404954140261,71.918266716692273,72.435128479245932,72.95199024180107,73.468852004357572,73.862545659399728,74.089597370866258,74.3166490823343,74.543700793803822,74.770752505274942,74.872737427854759,74.821860314800318,74.77098320174737,74.720106088696156,74.6692289756464,74.492709477695144,74.177319580461628,73.861929683229789,73.546539785999556,73.231149888770986,71.660111551366541,71.094773723350585,70.5294358953363,69.8409268037107,69.040974827430574,68.241022851152238,67.441070874875649,66.641118898600837,65.720804415903231,64.702009450351753,63.683214484802178,62.664419519254331,61.64562455370843,60.510134349616649,59.288389224832819,58.066644100051022,56.84489897527105,55.623153850493026,54.289090289234039,52.880146000911523,51.47120171259099,50.0622574242725,48.653313135956033,47.136982213743494,45.5562176871458,43.975453160550288,42.394688633956918,40.813924107365636,39.131105445862232,37.393333073827421,35.655560701794954,33.917788329764782,32.180015957736842,30.345772771256282,28.465079323222078,26.584385875190296,24.703692427160842,22.822998979133786,20.851530594036692,18.841157438747704,16.830784283461171,14.820411128177174,12.810037972895593,10.714564292320436,8.5868099926641932,6.4590556930105238,4.331301393359519,2.2035470937110624,-0.0037770983532500724,-2.2376255906918945,-4.4714740830277115,-6.7053225753608245,-8.9391710676911611,-11.247313121236887,-13.577025179301922,-15.906737237364091,-18.236449295423345,-20.566161353479718,-22.965247737076105,-25.381678521722016,-27.798109306364953,-30.214540091004768,-32.630970875641559,-35.112308735637015,-37.607415506777073,-40.102522277913856,-42.597629049047463,-45.092735820177843,-47.64880231974913,-50.215627096334146,-52.782451872915715,-55.349276649493895,-57.916101426068657,-60.540624612524766,-63.173391052242565,-65.806157491956853,-68.438923931667631,-71.071690371374842,-73.759361162812581,-76.453133014396656,-79.1469048659768,-81.840676717552867,-84.534448569125232,-87.281567451047636,-90.033012312986287,-92.78445717492113,-95.5359020368523,-98.287346898779717,-101.09073103269706,-103.89684932927861,-106.70296762585598,-109.50908592242884,-112.31520421899739,-115.17332384182384,-118.03277733611115,-120.8922308303937,-123.75168432467206,-126.61113781894579,0.2823076039057012,0.2823076039057012,0.2823076039057012,0.2823076039057012,0.2823076039057012,0.2823076039057012,0.2823076039057012,0.2823076039057012,0.2823076039057012,0.2823076039057012,0.2823076039057012,0.2823076039057012
DP 131,290.03926064982494,0.0059418245849914408,-566.00090808905065,-543.14082147614749,-520.28073486324251,-497.42064825033458,-474.56056163742375,-451.71837952507332,-429.57447970411488,-407.43057988315405,-385.28668006219033,-363.14278024122427,-341.07012311610276,-320.35109067998479,-299.63205824386438,-278.91302580774135,-258.19399337161593,-237.62293942339602,-218.87697214218625,-200.13100486097383,-181.38503757975911,-162.63907029854192,-144.1285494008979,-127.73706821010903,-111.34558701931785,-94.954105828524632,-78.56262463772913,-62.490698169152267,-48.655678919866631,-34.820659670578877,-20.98564042128897,-7.1506211719969563,6.2959358442108089,17.541182394331319,28.786428944453878,40.031675494578508,51.276922044705145,62.087781154133125,70.8507902952279,79.613799436324626,88.376808577423333,97.139817718523943,105.44853252339502,111.94004851313331,118.43156450287358,124.92308049261571,131.41459648235968,137.45674055772488,141.95102916127107,146.44531776481918,150.93960636836911,155.43389497192084,159.5043278277187,162.30317741492161,165.10202700212642,167.90087658933294,170.69972617654139,173.11499286170914,174.518982348154,175.92297183460076,177.32696132104903,178.73095080749934,179.80024310926072,180.0885647680947,180.37688642693047,180.66520808576797,180.95352974460724,180.95915330739277,180.37762644885225,179.79609959031353,179.21457273177674,178.63304587324146,177.81961572880471,176.57550179061843,175.33138785243383,174.08727391425123,172.84315997607007,171.41376945296233,169.67557995162969,167.93739045029875,166.19920094896949,164.46101144764202,162.57830832893472,160.47883136925998,158.37935440958705,156.27987744991583,154.18040049024631,151.9706466802923,149.61169232618994,147.25273797208936,144.89378361799047,142.53482926389339,140.09339443259375,137.55114839668042,135.00890236076879,132.466656324859,129.92441028895098,127.32159676072641,124.65183900943482,121.98208125814506,119.31232350685698,116.64256575557093,108.41462185124682,105.65739567442667,102.90016949760846,100.1118451805788,97.295383891085663,94.478922601594448,91.662461312105165,88.846000022617758,86.007729053281281,83.15161342561855,80.29549779795785,77.439382170299083,74.58326654264232,71.712039557088772,68.829643058596034,65.94724656010537,63.06485006161671,60.182453563130174,57.2896913584896,54.390018519783979,51.490345681080619,48.590672842379362,45.691000003680209,42.784267495676154,39.87329907932417,36.962330662974352,34.05136224662683,31.140393830281472,28.224631741783725,25.306288375496809,22.387945009212263,19.469601642930058,16.551258276650081,13.629649266299669,10.706467863076288,7.7832864598553657,4.8601050566368489,1.936923653420813,-0.98851093732375528,-3.9149112102894854,-6.8413114832527331,-9.7677117562133677,-12.694112029171553,-15.622107888660874,-18.550708991428177,-21.479310094192861,-24.407911196954821,-27.336512299714212,-30.266292824148461,-33.19646650400324,-36.12664018385513,-39.056813863704285,-41.986987543550654,-44.918086582306508,-47.849454284932747,-50.780821987556116,-53.712189690176544,-56.643557392794058,-59.575704512957408,-62.508046496713717,-65.440388480467035,-68.372730464217241,-71.305072447964363,-74.238120930597077,-77.171319284721676,-80.104517638842978,-83.037715992961168,-85.970914347076,-88.904779856357408,-91.83876310631959,-94.772746356278461,-97.70672960623375,-100.64071285618567,-103.57541978656661,-106.51023010768029,-109.44504042879053,-112.37985074989712,-115.31466107100032,-118.25007567723036,-121.18555743259535,-124.12103918795633,-127.05652094331347,-129.99200269866688,-132.92839376508661,-135.86485856871911,-138.80132337234789,-141.73778817597309,-144.67425297959443,-147.61136595693489,-150.54851305512651,-153.48566015331397,-156.42280725149709,-159.35995434967589,-162.29794280816665,-165.23595284815096,-168.17396288813075,-171.11197292810613,-174.04998296807705,0.28124005166552829,0.28124005166552829,0.28124005166552829,0.28124005166552829,0.28124005166552829,0.28124005166552829,0.28124005166552829,0.28124005166552829,0.28124005166552829,0.28124005166552829,0.28124005166552829,0.28124005166552829
DP 132,258.33799599569346,0.0044027108117105449,-404.69813676860133,-388.922627425105,-373.14711808160655,-357.37160873810643,-341.59609939460432,-325.83176017287622,-310.50305992369357,-295.17435967450888,-279.8456594253222,-264.51695917613353,-249.23294699289971,-234.79801651078955,-220.36308602867794,-205.92815554656414,-191.49322506444878,-177.15192233773033,-163.96537372734448,-150.7788251169568,-137.59227650656732,-124.40572789617615,-111.3699369164336,-99.690978862340529,-88.012020808245751,-76.333062754149424,-64.6541047000513,-53.182834161437128,-43.165391935913313,-33.147949710387905,-23.130507484860878,-13.1130652593322,-3.3526074464684794,4.9515891676434665,13.255785781756986,21.559982395872076,29.864179009988742,37.875132042530588,44.503635208942839,51.132138375356647,57.760641541771932,64.389144708188667,70.703974779127748,75.764097643782492,80.824220508438742,85.884343373096485,90.94446623775562,95.68659006940338,99.333370539505225,102.98015100960853,106.62693147971332,110.27371194981957,113.61252296740977,116.02741398360124,118.44230499979405,120.85719601598834,123.27208703218392,125.40034858137598,126.77294077481527,128.14553296825594,129.51812516169804,130.89071735514156,132.00573477871757,132.51973629051659,133.03373780231675,133.54773931411836,134.06174082592139,134.35140085065512,134.17511433916462,133.99882782767531,133.82254131618757,133.646254804701,133.27998891245346,132.56089903963081,131.84180916680933,131.12271929398926,130.40362942117051,129.5277003711949,128.39036873939327,127.25303710759297,126.11570547579393,124.97837384399639,123.71452599564122,122.2609008328368,120.80727567003342,119.35365050723152,117.90002534443092,116.34648171197725,114.65775204542655,112.96902237887741,111.28029271232943,109.59156304578298,107.82543766339916,105.96471589154113,104.1039941196845,102.2432723478293,100.3825505759754,98.462938590214222,96.478236248793621,94.493533907374328,92.508831565956484,90.524129224540019,84.3496184350592,82.276754420891166,80.203890406724668,78.098524075139423,75.96375029976511,73.82897652439236,71.6942027490211,69.559428973651279,67.401016701687553,65.223263435358788,63.045510169031587,60.867756902705807,58.690003636381654,56.495269500639125,54.28798400836159,52.08069851608569,49.873413023811317,47.666127531538578,45.446774837455116,43.219377152064283,40.991979466675147,38.764581781287625,36.537184095901736,34.301286817212059,32.060289653998289,29.819292490786236,27.578295327575951,25.337298164367311,23.090351988814579,20.840202412414673,18.590052836016628,16.339903259620375,14.089753683225865,11.835451462376136,9.5791497619729853,7.3228480615717526,5.06654636117239,2.8102446607749356,0.55103646164116038,-1.7094174190534359,-3.9698712997461123,-6.2303251804367621,-8.4907790611255223,-10.753288515237747,-13.016577696412087,-15.279866877584443,-17.543156058754644,-19.806445239922894,-22.071219401191996,-24.336488574541569,-26.601757747888929,-28.8670269212342,-31.132296094577246,-33.398675846141259,-35.665378037183608,-37.932080228223725,-40.198782419261626,-42.465484610297182,-44.733059012938888,-47.000851478785471,-49.2686439446298,-51.536436410471673,-53.804228876311207,-56.0727499918347,-58.341425677758558,-60.610101363679838,-62.87877704959876,-65.14745273551506,-67.416766536912547,-69.6861929540182,-71.9556193711211,-74.225045788221408,-76.49447220531907,-78.764540132217817,-81.034699710301254,-83.304859288382048,-85.575018866460027,-87.845178444535321,-90.115859306039184,-92.386598093396131,-94.657336880750037,-96.92807566810076,-99.198814455448669,-101.47029429803226,-103.74183423374531,-106.0133741694555,-108.28491410516285,-110.55645404086729,-112.82852063811265,-115.10061495962333,-117.37270928113068,-119.64480360263455,-121.91689792413533,-124.18966361565313,-126.46244652829199,-128.7352294409275,-131.00801235355942,-133.28079526618788,0.21773666196761934,0.21773666196761934,0.21773666196761934,0.21773666196761934,0.21773666196761934,0.21773666196761934,0.21773666196761934,0.21773666196761934,0.21773666196761934,0.21773666196761934,0.21773666196761934,0.21773666196761934
DP 133,155.05510815313968,0.0030689870699529276,-233.32870153941317,-225.45493926400059,-217.5811769885859,-209.70741471316964,-201.83365243775202,-193.963526841815,-186.23523312066663,-178.50693939951651,-170.77864567836502,-163.05035195721186,-155.33687629080461,-147.9049464658396,-140.47301664087325,-133.04108681590557,-125.60915699093641,-118.20916837315511,-111.20312533620479,-104.19708229925298,-97.191039262299782,-90.184996225345117,-83.232453245889829,-76.7614158408316,-70.290378435772112,-63.819341030711193,-57.348303625648988,-50.954699083615182,-45.103130438023769,-39.251561792431076,-33.399993146837112,-27.548424501241815,-21.798494268743077,-16.624521448451318,-11.450548628158295,-6.27657580786403,-1.1026029875685206,3.9472420777247854,8.4119067364602866,12.876571395197015,17.341236053934939,21.805900712674038,26.12728901143959,29.875565098985014,33.623841186531585,37.3721172740794,41.120393361628317,44.710747398321246,47.757141070075093,50.803534741830092,53.849928413586234,56.896322085343492,59.775294238172705,62.151995504266878,64.528696770362245,66.9053980364586,69.282099302556176,71.487169033562964,73.239749727399854,74.9923304212379,76.744911115077,78.4974918089172,80.079238194906239,81.26236581342441,82.445493431943547,83.62862105046392,84.811748668985317,85.829239384987559,86.50271017846903,87.1761809719515,87.84965176543507,88.523122558919667,89.039742435407661,89.265063515836829,89.490384596267148,89.715705676698533,89.941026757131127,90.020961035912,89.85858031404058,89.69619959217016,89.533818870300934,89.371438148432645,89.076904956041489,88.5841399350658,88.091374914091247,87.5986098931177,87.105844872145283,86.495091825564,85.724705296721083,84.9543187678794,84.183932239038725,83.413545710199188,82.53954455784249,81.538901133682813,80.538257709524245,79.537614285366828,78.5369708612105,77.446716639389919,76.2574171211802,75.068117602971483,73.878818084763964,72.689518566557581,68.7395792440409,67.3974631297923,66.0553470155449,64.648935317130181,63.184350265937759,61.719765214746587,60.255180163556673,58.790595112367889,57.272566934461729,55.710811643513829,54.149056352567115,52.587301061621659,51.025545770677446,49.419872990580878,47.781738735697324,46.143604480815071,44.505470225934062,42.867335971054388,41.193493810847,39.495845817896566,37.798197824947458,36.100549831999707,34.402901839053371,32.676505373853779,30.932859390528964,29.189213407205539,27.445567423883617,25.701921440563027,23.93533855093127,22.156404685898487,20.377470820867213,18.598536955837382,16.819603090808968,15.02251916133144,13.216696057777243,11.410872954224617,9.60504985067354,7.7992267471240488,5.9791455920991456,4.1529536510592,2.3267617100208406,0.50056976898416183,-1.3256221720509471,-3.1629453192500057,-5.0044907932182632,-6.8460362671848562,-8.6875817411496925,-10.529127215112883,-12.379321106413128,-14.232397912485633,-16.085474718556227,-17.938551524625122,-19.791628330692181,-21.651404131065735,-23.513124882455408,-25.374845633843258,-27.236566385229192,-29.098287136613237,-30.96519402229432,-32.833397502822947,-34.701600983349671,-36.569804463874419,-38.438007944397157,-40.310239205680041,-42.183324890844993,-44.056410576007863,-45.929496261168644,-47.802581946327386,-49.67881160838273,-51.555596124850176,-53.432380641315348,-55.309165157778374,-57.185949674239232,-59.065264086970039,-60.944939940780813,-62.824615794589306,-64.704291648395468,-66.583967502199386,-68.4656110421736,-70.347473234607591,-72.229335427039118,-74.111197619468015,-75.9930598118946,-77.876748314053387,-79.760584914039612,-81.644421514023435,-83.528258114004956,-85.412094713984018,-87.2973534378898,-89.182687024570058,-91.0680206112476,-92.9533541979224,-94.83868778459447,-96.725450558329143,-98.612249991738352,-100.49904942514478,-102.38584885854829,-104.27264829194895,0.18161579432559069,0.18161579432559069,0.18161579432559069,0.18161579432559069,0.18161579432559069,0.18161579432559069,0.18161579432559069,0.18161579432559069,0.18161579432559069,0.18161579432559069,0.18161579432559069,0.18161579432559069
DP 134,114.73104570190138,0.0030732893539791792,-202.7813440479496,-196.43262706080702,-190.08391007366279,-183.73519308651674,-177.38647609936888,-171.04007740851057,-164.78409314951813,-158.52810889052404,-152.27212463152827,-146.01614037253088,-139.76968114912398,-133.70419940260521,-127.63871765608468,-121.57323590956294,-115.50775416303964,-109.46303500331609,-103.67439036414845,-97.885745724979273,-92.097101085808518,-86.308456446636285,-80.5551427088333,-75.119810422886061,-69.684478136937372,-64.2491458509873,-58.813813565035879,-53.430633134024582,-48.412519631166624,-43.3944061283073,-38.376292625446631,-33.3581791225846,-28.410160183774511,-23.859348191544917,-19.308536199314009,-14.757724207081788,-10.206912214848247,-5.7440844528523769,-1.6960442427656939,2.3519959673222703,6.4000361774115007,10.448076387501976,14.391361701043156,17.915622477607311,21.439883254172717,24.964144030739341,28.488404807307187,31.893169795926198,34.886333161661248,37.879496527397549,40.872659893135008,43.8658232588737,46.72746785545398,49.194551172035574,51.661634488618368,54.128717805202307,56.595801121787417,58.9225063899214,60.879119250794844,62.835732111669408,64.792344972545123,66.748957833422068,68.559699568262516,70.030070746382378,71.5004419245034,72.9708131026256,74.4411842807489,75.763535255925532,76.7784553508162,77.793375445708051,78.808295540601,79.8232156354951,80.6911043263916,81.285930724842189,81.880757123293918,82.475583521746742,83.070409920200774,83.521979937719024,83.734785709476412,83.947591481234952,84.160397252994557,84.373203024755355,84.448868091446329,84.318818859859348,84.188769628273519,84.058720396688869,83.928671165105413,83.669441644649453,83.235435919185718,82.8014301937232,82.367424468261916,81.93341874280172,81.379535443980132,80.679132593058654,79.9787297421384,79.278326891219209,78.577924040301383,77.767803057379609,76.8364124821,75.905021906821574,74.9736313315444,74.042240756268555,70.7523920472126,69.622730303834857,68.493068560458326,67.274901357877781,65.976656193992127,64.678411030107739,63.380165866224708,62.081920702342906,60.705540630582455,59.265230655031147,57.824920679481124,56.384610703932537,54.944300728385265,53.435730344277054,51.876705492615557,50.317680640955523,48.75865578929686,47.199630937639682,45.581554345687664,43.924108996600495,42.266663647514839,40.609218298430577,38.951772949347863,37.243708288015192,35.505271273798357,33.76683425958305,32.028397245369348,30.289960231157156,28.50850171928284,26.703877159985197,24.899252600689131,23.094628041394675,21.29000348210171,19.449103259829272,17.590736469632059,15.732369679436593,13.874002889242801,12.015636099050742,10.126902589139814,8.2251543607369584,6.3234061323358262,4.4216579039365271,2.519909675538949,0.59290635189207486,-1.3436768199018017,-3.28025999169385,-5.2168431634839791,-7.1534263352723073,-9.1108960953839428,-11.075328314831788,-13.039760534277606,-15.004192753721503,-16.968624973163433,-18.950254288339053,-20.936876518466565,-22.923498748592024,-24.910120978715419,-26.896743208836778,-28.897484362552433,-30.901755413981949,-32.906026465409333,-34.91029751683449,-36.914568568257579,-38.930426061437942,-40.94874141743324,-42.967056773426222,-44.985372129416987,-47.003687485405429,-49.031528131846464,-51.06104981781732,-53.090571503785654,-55.120093189751657,-57.149614875715173,-59.187073768199674,-61.225666633068819,-63.264259497935512,-65.302852362799641,-67.341445227661325,-69.386618052188581,-71.4325220524477,-73.478426052704236,-75.524330052957865,-77.570234053208821,-79.622008007781574,-81.6742579645764,-83.726507921368523,-85.778757878158,-87.83100783494497,-89.88829385812069,-91.94584498752593,-94.003396116928215,-96.060947246327359,-98.118498375723647,-100.18089782789471,-102.2434216430332,-104.30594545816874,-106.36846927330103,-108.4309930884302,0.1994032162625845,0.1994032162625845,0.1994032162625845,0.1994032162625845,0.1994032162625845,0.1994032162625845,0.1994032162625845,0.1994032162625845,0.1994032162625845,0.1994032162625845,0.1994032162625845,0.1994032162625845
DP 135,75.654897222040034,0.005274508924469519,-273.9338341295753,-266.10301687801461,-258.27219962645131,-250.44138237488468,-242.61056512331564,-234.78187131282723,-227.03599250746862,-219.29011370210694,-211.54423489674252,-203.79835609137504,-196.06129142090884,-188.49169697985673,-180.92210253880219,-173.35250809774524,-165.78291365668554,-158.23274644336254,-150.92218415386847,-143.61162186437153,-136.30105957487223,-128.99049728537008,-121.71352457137277,-114.7388612118682,-107.76419785236109,-100.78953449285156,-93.814871133339565,-86.890758807969064,-80.320507544117788,-73.7502562802642,-67.180005016408188,-60.609753752549757,-54.10905350136813,-48.002480038060853,-41.895906574751272,-35.7893331114394,-29.682759648125266,-23.66589918358752,-18.071976273162782,-12.478053362735805,-6.884130452306608,-1.2902075418752001,4.1935593432437717,9.2366969210699263,14.279834498898252,19.32297207672875,24.366109654561388,29.279196367513837,33.744324638070708,38.209452908629721,42.674581179190852,47.139709449754072,51.456202726282321,55.32678540104213,59.197368075804043,63.067950750567945,66.938533425334015,70.643856890114137,73.913491302933181,77.183125715754173,80.452760128577282,83.722394541402409,86.812612029033616,89.484184371646791,92.155756714261926,94.827329056879137,97.498901399498408,99.9797279025568,102.06438442206053,104.14904094156648,106.23369746107434,108.31835398058438,110.20397872448089,111.71996765289195,113.2359565813051,114.75194550972022,116.26793443813743,117.57971595240532,118.5511466292463,119.52257730608967,120.4940079829349,121.46543865978217,122.23053900565239,122.68613897941312,123.14173895317616,123.59733892694119,124.05293890070844,124.30296930020862,124.27487158613178,124.24677387205705,124.2186761579845,124.19057844391415,123.96030144266366,123.48291217703502,123.00552291140876,122.52813364578452,122.05074438016263,121.37687756230085,120.48584743485287,119.59481730740728,118.70378717996387,117.81275705252273,114.19553069934182,112.92684546964074,111.65816023994208,110.20987520756277,108.59909188209761,106.98830855663478,105.37752523117435,103.7667419057165,101.98678075042102,100.06839846328205,98.150016176145513,96.231633889011647,94.313251601880268,92.236942803711443,90.043903118709238,87.850863433709691,85.657823748712659,83.4647840637184,81.125560562586926,78.688878881122491,76.252197199660969,73.815515518202034,71.37883383674604,68.807897188195767,66.156405529002,63.504913869811219,60.853422210623293,58.201930551438288,55.428031023437285,52.588217786055907,49.748404548677691,46.908591311302438,44.068778073930062,41.118099027887979,38.11403859557614,35.10997816326752,32.105917730962112,29.101857298659965,25.997979848584919,22.851322328779215,19.70466480897678,16.558007289177798,13.411349769382047,10.17528461018701,6.9053050428212277,3.6353254754589241,0.36534590810022632,-2.9046336592550497,-6.2543648283947579,-9.6306808698877724,-13.006996911376961,-16.383312952862532,-19.75962899434434,-23.20687702449781,-26.6747190777553,-30.142561131008939,-33.610403184258686,-37.078245237504511,-40.609096341250421,-44.155700452078456,-47.702304562902519,-51.248908673722376,-54.795512784538204,-58.39814259973901,-62.012657297152558,-65.627171994561721,-69.241686691966635,-72.856201389367229,-76.520704449789449,-80.194029541912144,-83.867354634030221,-87.540679726143864,-91.214004818252761,-94.9323607986795,-98.657150249589449,-102.38193970049485,-106.10672915139538,-109.83151860229118,-113.59709997221391,-117.36721420598997,-121.13732843976091,-124.90744267352628,-128.67755690728671,-132.48586523764854,-136.29727077693548,-140.10867631621707,-143.92008185549392,-147.73148739476591,-151.57867626157878,-155.42774881744367,-159.27682137330302,-163.12589392915646,-166.97496648500407,-170.85922799279462,-174.7443921225366,-178.62955625227266,-182.51472038200274,-186.39988451172684,0.37936927738570936,0.37936927738570936,0.37936927738570936,0.37936927738570936,0.37936927738570936,0.37936927738570936,0.37936927738570936,0.37936927738570936,0.37936927738570936,0.37936927738570936,0.37936927738570936,0.37936927738570936
DP 136,172.03998782747124,0.0037300755431992462,-296.17367742951939,-285.89881877716113,-275.623960124801,-265.34910147243909,-255.07424282007503,-244.80454730928813,-234.73621627219688,-224.66788523510391,-214.599554198009,-204.53122316091222,-194.48386370156058,-184.83496818392572,-175.18607266628891,-165.53717714865053,-155.8882816310105,-146.28437927721734,-137.23539828130293,-128.18641728538697,-119.13743628946906,-110.08845529354956,-101.11434216569825,-92.814046927077342,-84.513751688454775,-76.213456449830687,-67.913161211204979,-59.720340994044015,-52.27985405407744,-44.8393671141093,-37.398880174139613,-29.958393234168447,-22.657592791455137,-16.148357968763502,-9.6391231460703537,-3.1298883233757477,3.3793464993203384,9.7199183944212439,15.265355949587228,20.810793504754631,26.356231059923473,31.901668615093765,37.254904219337526,41.839322936297606,46.423741653259093,51.008160370221951,55.592579087186209,59.968127633035046,63.6242257038624,67.28032377469097,70.93642184552094,74.592519916352231,78.030564941912289,80.814442587407513,83.598320232904143,86.382197878402,89.16607552390127,91.730078429052583,93.714404006809431,95.698729584567573,97.683055162327179,99.6673807400878,101.43666084057675,102.70416138531637,103.97166193005725,105.2391624747994,106.5066630195429,107.56948185029863,108.2071865530033,108.84489125570919,109.48259595841633,110.12030066112486,110.56789483687361,110.66242147127936,110.75694810568625,110.85147474009446,110.94600137450392,110.86782541020588,110.50180742831668,110.13578944642875,109.76977146454205,109.40375348265655,108.88399089687644,108.13360777222586,107.38322464757664,106.6328415229286,105.88245839828188,104.99772618866595,103.93122458201479,102.86472297536491,101.79822136871623,100.73171976206898,99.5498094837463,98.226841738141388,96.903873992537754,95.5809062469355,94.257938501334507,92.83738780865184,91.308980337900209,89.780572867149871,88.252165396401,86.7237579256534,81.7319830329601,80.04095426261452,78.349925492270344,76.592061685409362,74.77372688030556,72.955392075203036,71.13705727010209,69.318722465002509,67.446140695017618,65.529174112402828,63.61220752978933,61.695240947177453,59.77827436456699,57.817791400215569,55.825143438366048,53.832495476518147,51.839847514671725,49.847199552826858,47.820020223660492,45.769819438956574,43.719618654254283,41.6694178695536,39.6192170848545,37.541887072689683,35.4482791137607,33.354671154833369,31.261063195907756,29.167455236983788,27.052725955417795,24.926623346828322,22.800520738240646,20.674418129654672,18.548315521070354,16.405901504985788,14.255633619843231,12.10536573470257,9.9550978495637157,7.80482996442671,5.64205190609644,3.4739121760452569,1.3057724459959428,-0.86236728405139684,-3.0305070140968877,-5.2081889676177973,-7.3894905096200345,-9.5707920516203053,-11.752093593618516,-13.933395135614781,-16.12194907945446,-18.31292058197457,-20.503892084492524,-22.694863587008417,-24.885835089522171,-27.08231260814236,-29.280388714718878,-31.47846482129318,-33.676540927865275,-35.874617034435154,-38.076883262191458,-40.280197069749363,-42.483510877304958,-44.686824684858252,-46.890138492409271,-49.096665279911242,-51.303873645424517,-53.511082010935255,-55.718290376443662,-57.925498741949554,-60.135194263709884,-62.345328723052781,-64.555463182393183,-66.765597641731,-68.975732101066157,-71.187880799662423,-73.400317268480876,-75.612753737296785,-77.825190206109781,-80.037626674920233,-82.2516093470927,-84.465763835874739,-86.679918324653912,-88.894072813429915,-91.108227302203233,-93.32390170596986,-95.539699361616215,-97.7554970172596,-99.971294672900115,-102.18709232853791,-104.404032517664,-106.62103285149631,-108.83803318532519,-111.05503351915088,-113.27203385297324,-115.49023538725891,-117.70846773319809,-119.92670007913401,-122.1449324250666,-124.36316477099579,0.21326880770934328,0.21326880770934328,0.21326880770934328,0.21326880770934328,0.21326880770934328,0.21326880770934328,0.21326880770934328,0.21326880770934328,0.21326880770934328,0.21326880770934328,0.21326880770934328,0.21326880770934328
DP 137,235.63019362317283,0.0016378613261817771,-146.08440316436884,-140.54436147279256,-135.0043197812158,-129.46427808963821,-123.92423639805962,-118.3878187392605,-112.99273972907532,-107.59766071888944,-102.20258170870277,-96.807502698515435,-91.426978142282366,-86.32299096260715,-81.219003782931267,-76.115016603254546,-71.011029423577313,-65.937726452548489,-61.242865921938765,-56.548005391328353,-51.853144860717236,-47.158284330105438,-42.513256697901653,-38.316729861642031,-34.120203025381819,-29.9236761891209,-25.727149352859367,-21.600015948520838,-17.958641814965677,-14.317267681409914,-10.6758935478535,-7.0345194142964784,-3.4801154706188169,-0.41854808327579424,2.6430193040678311,5.7045866914120555,8.7661540787568786,11.727014090851052,14.213105323059516,16.699196555268568,19.18528778747821,21.671379019688409,24.047968385155961,25.986545108530763,27.925121831906175,29.863698555282127,31.802275278658641,33.627834850541355,35.0641083750505,36.5003818995602,37.936655424070452,39.372928948581219,40.697618056622666,41.687549696420774,42.677481336219465,43.667412976018632,44.657344615818388,45.541271598776142,46.145728115630043,46.750184632484469,47.354641149339415,47.959097666194921,48.466213806794336,48.746199335888477,49.026184864983129,49.306170394078258,49.5861559231739,49.77942432105322,49.792585385913171,49.8057464507737,49.818907515634649,49.832068580496156,49.770053063613489,49.568421864698443,49.366790665783952,49.16515946686993,48.96352826795647,48.698313894472648,48.327125960717481,47.955938026962841,47.584750093208704,47.213562159455044,46.789792340273365,46.287148450424752,45.784504560576686,45.281860670729174,44.779216780882138,44.233974154729218,43.631096996755289,43.02821983878188,42.425342680809031,41.822465522836659,41.185723152141833,40.507589254568956,39.829455356996675,39.151321459424871,38.473187561853592,37.76859555800543,37.03475985756711,36.30092415712933,35.5670884566921,34.833252756255419,32.530032718098759,31.75551176601277,30.98099081392731,30.191058660679253,29.387182762249175,28.583306863819651,27.779430965390738,26.975555066962347,26.160161043744811,25.3353429022988,24.510524760853372,23.685706619408524,22.860888477964274,22.027567455530782,21.187961555200676,20.348355654871217,19.508749754542364,18.669143854214116,17.82333000085541,16.973377414346203,16.123424827837653,15.273472241329712,14.4235196548224,13.569077783738717,12.711942274016375,11.854806764294693,10.99767125457368,10.140535744853322,9.2801786922038865,8.4180869157462332,7.5559951392892959,6.6939033628330371,5.8318115863774471,4.9674200887841975,4.1019212858476752,3.2364224829118897,2.3709236799768214,1.5054248770424898,0.63828721415714385,-0.2295528394077028,-1.0973928929718124,-1.9652329465351437,-2.8330730000977455,-3.7020847706688524,-4.5715410008981365,-5.4409972311266515,-6.3104534613543466,-7.17990969158128,-8.0502124080847217,-8.9207972973478959,-9.791382186610214,-10.661967075871731,-11.532551965132397,-12.403760646570712,-13.275150436571129,-14.146540226570686,-15.017930016569352,-15.889319806567164,-16.761184045865075,-17.633166903093,-18.505149760320023,-19.37713261754612,-20.2491154747713,-21.121475902902,-21.993916426155941,-22.866356949408914,-23.738797472660917,-24.611237995911988,-25.483991580810759,-26.356800415363139,-27.229609249914482,-28.102418084464819,-28.975226919014119,-29.848329293979198,-30.72147360645944,-31.594617918938621,-32.467762231416735,-33.3409065438938,-34.214283694122429,-35.0876867176566,-35.961089741189653,-36.834492764721517,-37.707895788252259,-38.581606874200034,-39.455342941328588,-40.329079008455984,-41.202815075582336,-42.076551142707572,-42.950506254881645,-43.824472897920678,-44.698439540958447,-45.572406183994964,-46.446372827030125,-47.320611363389972,-48.194856874008039,-49.069102384624806,-49.943347895240294,-50.81759340585441,0.083812632799509873,0.083812632799509873,0.083812632799509873,0.083812632799509873,0.083812632799509873,0.083812632799509873,0.083812632799509873,0.083812632799509873,0.083812632799509873,0.083812632799509873,0.083812632799509873,0.083812632799509873
DP 138,178.71322386547618,0.0035795873918415882,-288.59020369222378,-278.47422843040965,-268.358253168594,-258.24227790677645,-248.12630264495721,-238.01557241740727,-228.10940050951848,-218.20322860162764,-208.2970566937353,-198.39088478584102,-188.50598893506512,-179.02534219165182,-169.54469544823678,-160.0640487048201,-150.583401961402,-141.14831927350181,-132.27519901270631,-123.40207875190896,-114.52895849111009,-105.65583823030943,-96.858341021650261,-88.741458430259542,-80.6245758388673,-72.507693247473583,-64.390810656078372,-56.382137765460989,-49.13094096278391,-41.879744160105346,-34.628547357425326,-27.377350554743824,-20.266253436039491,-13.94906335480203,-7.6318732735631416,-1.3146831923228481,5.00250688891884,11.15128384493922,16.506104114279804,21.86092438362175,27.215744652965085,32.570564922309721,37.734427345815106,42.134449361183165,46.534471376552553,50.934493391923304,55.334515407295257,59.5281603453775,63.010942236348569,66.493724127320888,69.9765060182945,73.45928790926942,76.727905388598884,79.35402153576473,81.980137682931741,84.606253830100087,87.232369977269641,89.643913956509536,91.489760299713922,93.335606642919615,95.181452986126416,97.027299329334582,98.664710869540173,99.815767968908119,100.96682506827729,102.11788216764768,103.26893926701926,104.2230221963225,104.76799919756917,105.31297619881688,105.85795320006604,106.40293020131632,106.76632103676125,106.79247551750213,106.81862999824403,106.84478447898708,106.8709389597316,106.73341266284378,106.32308094422451,105.9127492256067,105.50241750698972,105.09208578837425,104.53720857605711,103.76550970753702,102.99381083901808,102.22211197050042,101.45041310198401,100.55344521843033,99.4869929402808,98.420540662132709,97.354088383985669,96.287636105839965,95.114485437364408,93.81092338398561,92.507361330608035,91.203799277231738,89.9002372238567,88.507237241504839,87.015383031595078,85.52352882168644,84.031674611779238,82.539820401873286,77.694924501133642,76.055336703544853,74.4157489059575,72.715988911061061,70.9617863209725,69.207583730885247,67.453381140799436,65.6991785507149,63.896580787077454,62.054386140648766,60.212191494221379,58.369996847795477,56.527802201370946,54.647142176616008,52.738050587740652,50.82895899886681,48.919867409994346,47.010775821123438,45.071443529012832,43.111950291678966,41.152457054346641,39.192963817015766,37.23347057968649,35.25043970372144,33.253285888607117,31.256132073494349,29.258978258383202,27.261824443273579,25.246515280702013,23.221429897795744,21.196344514891145,19.171259131988169,17.146173749086739,15.107195870672193,13.061528818399053,11.015861766127697,8.9701947138580582,6.9245276615901856,4.8683007102269542,2.8075479452335741,0.74679518024196334,-1.3139575847477745,-3.37471034973576,-5.4434491285252982,-7.5152171890793058,-9.5869852496314483,-11.658753310181638,-13.730521370729976,-15.808311495483206,-17.88810905086504,-19.967906606244824,-22.047704161622647,-24.127501716998438,-26.2118402158262,-28.297497108456493,-30.383154001084712,-32.468810893710845,-34.554467786334889,-36.643562450886058,-38.733516599035021,-40.82347074718183,-42.913424895326393,-45.003379043468783,-47.095961830943949,-49.189102238695448,-51.282242646444494,-53.375383054191296,-55.46852346193581,-57.563697665288842,-59.659230796363445,-61.754763927435448,-63.850297058505177,-65.945830189572376,-68.0430215316004,-70.140449778819033,-72.2378780260352,-74.335306273248648,-76.432734520459732,-78.531432625845284,-80.630271839917555,-82.729111053986969,-84.82795026805357,-86.926789482117428,-89.0269131730512,-91.127141023881208,-93.2273688747085,-95.3275967255333,-97.427824576355277,-99.5290067155485,-101.63023908993721,-103.73147146432292,-105.83270383870551,-107.933936213085,-110.03619270731977,-112.13847547096326,-114.24075823460353,-116.3430409982406,-118.44532376187458,0.20204109241072771,0.20204109241072771,0.20204109241072771,0.20204109241072771,0.20204109241072771,0.20204109241072771,0.20204109241072771,0.20204109241072771,0.20204109241072771,0.20204109241072771,0.20204109241072771,0.20204109241072771
DP 139,221.68026222419644,0.0038995911985873649,-340.61752698278309,-327.92912190153311,-315.24071682028136,-302.55231173902769,-289.86390665777213,-277.18338044350077,-264.81013302056488,-252.43688559762759,-240.06363817468829,-227.69039075174715,-215.34886272694416,-203.61000926311087,-191.87115579927647,-180.13230233544027,-168.39344887160237,-156.72172359632967,-145.8779211067675,-135.03411861720355,-124.19031612763786,-113.34651363807048,-102.61231094244428,-92.864516751808509,-83.116722561171187,-73.368928370532316,-63.621134179891833,-54.02697420565687,-45.508265363617866,-36.989556521577356,-28.470847679535346,-19.952138837491837,-11.627507867472429,-4.4026637352400364,2.8221803969938088,10.0470245292291,17.271868661465842,24.26992850409572,30.198850160907849,36.127771817721417,42.056693474536345,47.985615131352688,53.665434169579683,58.348830960713926,63.032227751849483,67.715624542986475,72.399021334124782,76.8224397529589,80.350366190096167,83.878292627234742,87.406219064374653,90.934145501515914,94.202289616111273,96.691076941098615,99.179864266087279,101.66865159107716,104.15743891606841,106.39625609592045,107.97605248314612,109.55584887037293,111.13564525760111,112.71544164483046,114.06257927428861,114.86683913855686,115.67109900282632,116.47535886709717,117.27961873136914,117.87366110901749,118.03109182367946,118.18852253834264,118.34595325300708,118.50338396767269,118.47587632933504,118.10490675525318,117.73393718117249,117.36296760709331,116.99199803301515,116.46221635498655,115.6677438340806,114.87327131317598,114.07879879227256,113.28432627137055,112.3564499908594,111.22846491856653,110.10047984627495,108.97249477398476,107.84450970169559,106.6067027806515,105.22031091588347,103.83391905111679,102.44752718635121,101.06113532158696,99.585995946964715,98.002385529512921,96.4187751120623,94.835164694613113,93.251554277165113,91.597441588700136,89.865403934594866,88.133366280490932,86.401328626388192,84.669290972286859,79.197518154591748,77.355216349892345,75.512914545194221,73.628123691385412,71.704889599598019,69.781655507811976,67.858421416027426,65.935187324244183,63.979643760431031,61.99766461878874,60.015685477147855,58.0337063355085,56.05172719387047,54.045479204830663,52.021292973117127,49.997106741405119,47.972920509694525,45.94873427798543,43.906520256001713,41.85228742316766,39.7980545903352,37.74382175750425,35.689588924674879,33.62209520830212,31.546644761254711,29.471194314208898,27.395743867164764,25.320293420122166,23.235168765749439,21.144834782135526,19.054500798523367,16.964166814912897,14.87383283130403,12.776485525966942,10.675761337886522,8.5750371498078941,6.4743129617310187,4.3735887736559214,2.2677984361791097,0.15983682340873714,-1.9481247893598421,-4.0560864021265255,-6.1640480148914385,-8.2756698352857931,-10.388680058016584,-12.501690280745494,-14.61470050347242,-16.727710726197483,-18.843380125874514,-20.959935951380682,-23.076491776884751,-25.193047602386866,-27.309603427886906,-29.428116087382744,-31.547196883838552,-33.666277680292346,-35.785358476743959,-37.904439273193482,-40.024992697255847,-42.145914295618987,-44.266835893979959,-46.387757492338665,-48.50867909069521,-50.630747850523193,-52.7530599607743,-54.875372071023072,-56.997684181269577,-59.119996291513623,-61.243232899544715,-63.366632664522747,-65.4900324294982,-67.613432194471272,-69.736831959441744,-71.861061723227863,-73.985410067237112,-76.1097584112438,-78.23410675524795,-80.358455099249511,-82.48345189915581,-84.608520756525877,-86.73358961389323,-88.858658471257641,-90.983727328619366,-93.109605873128956,-95.235550076219226,-97.361494279306854,-99.487438482391681,-101.61338268547388,-103.73990436415176,-105.86645644202466,-107.99300851989443,-110.11956059776108,-112.24611267562469,-114.37336358084646,-116.5006324114901,-118.62790124213058,-120.75517007276777,-122.88243890340155,0.20403865036917679,0.20403865036917679,0.20403865036917679,0.20403865036917679,0.20403865036917679,0.20403865036917679,0.20403865036917679,0.20403865036917679,0.20403865036917679,0.20403865036917679,0.20403865036917679,0.20403865036917679
DP 140,254.56580083666321,0.0040496904925757743,-370.50010468634372,-356.12162632276642,-341.74314795918735,-327.36466959560619,-312.98619123202337,-298.6177655118546,-284.64139668566372,-270.66502785947142,-256.68865903327719,-242.71229020708117,-228.77616201890157,-215.60461356025553,-202.433065101608,-189.26151664295878,-176.08996818430785,-163.00281929884312,-150.95660911943256,-138.91039894002049,-126.86418876060659,-114.81797858119116,-102.90785804334388,-92.222557142984755,-81.537256242624224,-70.851955342262073,-60.16665444189838,-49.669171022989019,-40.486424176451195,-31.303677329911881,-22.120930483371016,-12.938183636828676,-3.9883253795268869,3.6418161968053422,11.271957773139038,18.902099349474167,26.532240925810729,33.895986786432715,40.003852741518635,46.111718696605955,52.219584651694646,58.327450606784751,64.149590969178846,68.828815457230974,73.508039945284409,78.187264433339138,82.86648892139533,87.255188903173277,90.643181158563948,94.031173413955813,97.419165669349042,100.80715792474366,103.91289178091914,106.17183976768148,108.43078775444509,110.68973574121,112.94868372797619,114.94404231382107,116.24447432822943,117.54490634263905,118.84533835704971,120.14577037146191,121.20848722270205,121.71652787017149,122.22456851764242,122.73260916511434,123.24064981258772,123.54087586524626,123.40948094625219,123.27808602725935,123.14669110826777,123.01529618927735,122.7072373931759,122.07108376859105,121.43493014400745,120.79877651942506,120.16262289484385,119.38004175915373,118.35341108081707,117.32678040248169,116.30014972414752,115.27351904581451,114.12828741091228,112.80515153858222,111.48201566625335,110.15887979392581,108.83574392159937,107.41854840682559,105.87409363682936,104.32963886683427,102.78518409684057,101.24072932684794,99.623105835135163,97.916052368877743,96.208998902621445,94.501945436366526,92.7948919701129,91.031922952231085,89.207151422507664,87.382379892785579,85.557608363064745,83.732836833345289,78.048330432245109,76.139482018811847,74.230633605379865,72.290651057376451,70.322498969935623,68.354346882496188,66.386194795058216,64.418042707621439,62.427146112597654,60.417639984123532,58.408133855650867,56.39862772717953,54.389121598709643,52.363203957432994,50.3251557977805,48.287107638129513,46.249059478479936,44.211011318831879,42.161249153012761,40.103677465210005,38.046105777408826,35.988534089609153,33.930962401810987,31.865104789348159,29.794275496776066,27.72344620420553,25.652616911636656,23.5817876190693,21.505135778830581,19.425348635945912,17.345561493062977,15.265774350181674,13.185987207301983,11.102121561147593,9.01629213408338,6.9304627070209355,4.8446332799602168,2.7588038529012642,0.6701123913900644,-1.4198056949598945,-3.5097237813080815,-5.5996418676543955,-7.6895599539989528,-9.781504603601352,-11.8742179760318,-13.966931348460385,-16.059644720887036,-18.152358093311843,-20.246534227964354,-22.341197968459753,-24.435861708953095,-26.530525449444518,-28.625189189933884,-30.720942948181278,-32.8170131764897,-34.91308340479609,-37.009153633100354,-39.105223861402557,-41.202144599906489,-43.299277976008,-45.396411352107371,-47.493544728204519,-49.590678104299464,-51.688515647622786,-53.786502567818033,-55.884489488010907,-57.982476408201563,-60.080463328389833,-62.179061075983554,-64.277766623439362,-66.376472170892669,-68.475177718343588,-70.573883265792119,-72.673196160408324,-74.7725958254644,-76.871995490517961,-78.971395155568871,-81.07079482061738,-83.1706862154167,-85.270632252016924,-87.37057828861434,-89.470524325208942,-91.570470361800787,-93.671108497917231,-95.771802757281336,-97.8724970166426,-99.9731912760013,-102.07388553535728,-104.17507152467446,-106.27628339940543,-108.37749527413317,-110.47870714885796,-112.57991902357965,-114.68175575344455,-116.78360851129059,-118.88546126913344,-120.98731402697314,-123.08916678480966,0.20138295176390983,0.20138295176390983,0.20138295176390983,0.20138295176390983,0.20138295176390983,0.20138295176390983,0.20138295176390983,0.20138295176390983,0.20138295176390983,0.20138295176390983,0.20138295176390983,0.20138295176390983
DP 141,297.30518438112074,0.0020291838829741755,-194.71295636048211,-186.78788210538784,-178.86280785029308,-170.93773359519719,-163.01265934010044,-155.09392832784212,-147.42258618461344,-139.75124404138367,-132.07990189815311,-124.40855975492177,-116.76242737537305,-109.5952852715312,-102.4281431676885,-95.261001063844958,-88.093858960000659,-80.978975650820033,-74.508624061923385,-68.038272473025813,-61.567920884127496,-55.097569295228361,-48.710139726780255,-43.069016180288678,-37.427892633796333,-31.786769087303284,-26.145645540809436,-20.616684107146636,-15.872865944660255,-11.129047782173156,-6.3852296196853287,-1.6414114571967846,2.9666078298579306,6.8050915988730321,10.643575367888827,14.482059136905312,18.32054290592249,22.007870943751325,24.982599513166509,27.957328082582382,30.932056651998884,33.906785221416051,36.724237422592665,38.912576717834511,41.10091601307699,43.289255308320129,45.47759460356388,47.511226205459145,49.011969253308806,50.512712301159105,52.013455349010009,53.514198396861531,54.869887560544463,55.790409587457496,56.710931614371134,57.631453641285411,58.551975668200271,59.342053980851269,59.788230745101679,60.234407509352685,60.680584273604318,61.126761037856546,61.459871658714889,61.529157715940585,61.598443773166984,61.667729830394009,61.737015887621524,61.711459546508678,61.488920081270109,61.266380616032137,61.043841150794691,60.821301685557891,60.521515106195487,60.078267514461238,59.635019922727487,59.19177233099439,58.748524739261853,58.24401377556628,57.637395647750118,57.030777519934531,56.424159392119556,55.817541264305149,55.163497157672417,54.438312962123064,53.713128766574329,52.987944571026112,52.2627603754785,51.501663369923357,50.691977646235856,49.88229192254893,49.072606198862537,48.262920475176784,47.426583541644263,46.557672347387388,45.688761153131104,44.81984995887548,43.9509387646204,43.062611728817224,42.152824692312066,41.24303765580752,40.333250619303584,39.42346358280026,36.624564564267267,35.686962311573708,34.749360058880853,33.801947997982,32.845660219709522,31.889372441437661,30.933084663166483,29.976796884895922,29.013684591567717,28.044988486817825,27.076292382068587,26.10759627732002,25.138900172572118,24.16551303969834,23.188658548053265,22.21180405640888,21.234949564765156,20.258095073122139,19.278047422210243,18.295870948149215,17.313694474088905,16.33151800002932,15.349341525970445,14.365005769888796,13.37937441193818,12.393743053988313,11.408111696039215,10.422480338090841,9.4353916567462868,8.447518241612153,7.45964482647884,6.4717714113463041,5.4838979962145338,4.4950359441305476,3.5056978678185646,2.5163597915074245,1.5270217151970988,0.53768363888761073,-0.4523358405424982,-1.4426473590819,-2.4329588776204618,-3.4232703961581374,-4.4135819146949808,-5.4043776719205452,-6.39535711220275,-7.3863365524840745,-8.3773159927644727,-9.3682954330440076,-10.3596361872965,-11.351097384092951,-12.34255858088842,-13.334019777682979,-14.325480974476577,-15.317229909593566,-16.309062385151741,-17.300894860708947,-18.292727336265163,-19.284559811820387,-20.276639200688209,-21.268780320800662,-22.260921440912124,-23.253062561022514,-24.245203681131894,-25.23757279903537,-26.229990282718628,-27.222407766400785,-28.214825250081891,-29.207242733761838,-30.199878698926355,-31.19255322207562,-32.185227745223678,-33.177902268370566,-34.170576791516339,-35.163491494515263,-36.156440511515292,-37.149389528514149,-38.142338545511755,-39.135287562508232,-40.128438004531645,-41.12161082922794,-42.114783653922927,-43.107956478616551,-44.101129303308873,-45.094607717554318,-46.088110912452578,-47.081614107349594,-48.075117302245353,-49.068620497139868,-50.062341751962379,-51.056074485791385,-52.049807219618984,-53.043539953445105,-54.037272687269784,-55.03128894948486,-56.025312484405916,-57.019336019325443,-58.013359554243486,-59.007383089160037,0.095137100491093626,0.095137100491093626,0.095137100491093626,0.095137100491093626,0.095137100491093626,0.095137100491093626,0.095137100491093626,0.095137100491093626,0.095137100491093626,0.095137100491093626,0.095137100491093626,0.095137100491093626
DP 142,60.815921429533127,0.0038495487066798713,-172.67803783103409,-167.94710964290431,-163.21618145477231,-158.48525326663813,-153.75432507850209,-149.02450960037609,-144.33809023342636,-139.65167086647472,-134.96525149952103,-130.27883213256513,-125.59705690095343,-121.0035211188561,-116.40998533675723,-111.81644955465629,-107.2229137725537,-102.63965987219258,-98.183217142472984,-93.726774412751524,-89.270331683028232,-84.813888953302907,-80.375337030954128,-76.097804066070125,-71.820271101184417,-67.542738136296947,-63.2652051714077,-59.014800642610311,-54.95429721783492,-50.893793793057867,-46.833290368279144,-42.772786943498716,-38.74994923193281,-34.940552935395104,-31.131156638855781,-27.321760342314796,-23.512364045772184,-19.752066381518159,-16.22323634997942,-12.694406318439071,-9.1655762868971369,-5.63674625535363,-2.1689312068886513,1.054821025654576,4.2785732581993621,7.5023254907457027,10.72607772329358,13.876825046917933,16.776107950687393,19.675390854458374,22.574673758230908,25.473956662004962,28.288563809934214,30.849140488866631,33.409717167800558,35.970293846736,38.530870525672924,40.99577687264555,43.208458147030662,45.4211394214173,47.633820695805412,49.846501970195,51.953504230204942,53.813918793694008,55.674333357184622,57.534747920676722,59.39516248417025,61.141129642302843,62.649395014623607,64.157660386945864,65.665925759269641,67.174191131594881,68.560670012081729,69.72097069018325,70.881271368286249,72.041572046390726,73.201872724496823,74.234605179391565,75.054720713495868,75.874836247601721,76.69495178170898,77.515067315817873,78.2034540159305,78.694244352259446,79.185034688589937,79.675825024921892,80.166615361255481,80.523146707845328,80.698030552943948,80.8729143980441,81.047798243145948,81.2226820882494,81.2623560957975,81.136770795181391,81.011185494566973,80.885600193954247,80.760014893343026,80.49976379672691,80.09066887741902,79.68157395811275,79.2724790388082,78.863384119505369,76.972318023861476,76.297710067540422,75.623102111221073,74.818862155532784,73.897333771280543,72.975805387030064,72.054277002781461,71.132748618534663,70.085753878583148,68.9361026913797,67.786451504178217,66.636800316978452,65.487149129780633,64.217060616299335,62.857951229675294,61.498841843053214,60.139732456433094,58.780623069814993,57.306779358139771,55.756444288958235,54.206109219778725,52.655774150601246,51.105439081425907,49.446568168831476,47.72257410875833,45.998580048687266,44.274585988618483,42.550591928551754,40.724581047174389,38.8436365477474,36.962692048322843,35.081747548900609,33.200803049480626,31.224515753275327,29.202321330929696,27.180126908586487,25.157932486245727,23.135738063907382,21.024880870903072,18.876024150400688,16.727167429900771,14.578310709403461,12.429453988908634,10.198484905829552,7.93636868365493,5.6742524614829364,3.4121362393136687,1.1500200171469965,-1.1879097589243233,-3.5511116750924541,-5.9143135912576987,-8.2775155074201923,-10.640717423579828,-13.073792592242761,-15.527154396081192,-17.980516199916632,-20.433878003749168,-22.88723980757872,-25.404986435605903,-27.938830030395319,-30.472673625181695,-33.006517219964934,-35.540360814745014,-38.133637712648316,-40.7395223557811,-43.345406998910526,-45.951291642036765,-48.557176285159684,-51.218135831932166,-53.888815091785709,-56.559494351635657,-59.230173611482293,-61.900852871325284,-64.6229972989087,-67.352494449256668,-70.081991599601182,-72.811488749941986,-75.54098590027921,-78.318852330796119,-81.102093633764383,-83.885334936728725,-86.668576239689017,-89.4518175426454,-92.281610773034132,-95.115178959712608,-97.948747146387291,-100.78231533305814,-103.61588351972527,-106.49436140819861,-109.37520341201656,-112.25604541583013,-115.13688741963921,-118.01772942344394,-120.94333101969396,-123.87008073171759,-126.7968304437367,-129.72358015575122,-132.6503298677612,0.28795982419439831,0.28795982419439831,0.28795982419439831,0.28795982419439831,0.28795982419439831,0.28795982419439831,0.28795982419439831,0.28795982419439831,0.28795982419439831,0.28795982419439831,0.28795982419439831,0.28795982419439831
DP 143,57.785051517428933,0.0030598956577596518,-132.36771749720819,-128.77563791359105,-125.18355832997241,-121.59147874635187,-117.99939916272984,-114.4081377769446,-110.84878641620791,-107.28943505546957,-103.73008369472961,-100.1707323339879,-96.614801104733232,-93.123853020309639,-89.632904935884824,-86.1419568514584,-82.651008767030561,-79.16763800253095,-75.777721805452018,-72.387805608371522,-68.997889411289577,-65.60797321420614,-62.231263203642619,-58.973410120035375,-55.715557036426759,-52.457703952816821,-49.19985086920547,-45.962049624003185,-42.864612763931,-39.76717590385752,-36.669739043782684,-33.572302183706512,-30.502760894398229,-27.591296263928712,-24.6798316334579,-21.768367002985784,-18.85690237251238,-15.981878998767655,-13.278652089302948,-10.575425179836991,-7.8721982703697755,-5.1689713609013124,-2.5111421571303554,-0.03490592167459395,2.4413303137823976,4.9175665492406164,7.3938027847000445,9.8155704147017762,12.049721671041818,14.28387292738306,16.518024183725515,18.752175440069163,20.9229562255637,22.903623202569023,24.884290179575537,26.864957156583262,28.845624133592143,30.754454399366413,32.473894502761496,34.19333460615772,35.912774709555144,37.632214812953741,39.272018347454178,40.726000712078189,42.179983076703351,43.633965441329693,45.087947805957192,46.455352042004705,47.642937646858158,48.830523251712755,50.018108856568524,51.205694461425523,52.300773786625328,53.224053237090281,54.147332687556442,55.070612138023762,55.993891588492332,56.819851433306631,57.48360948236126,58.147367531417032,58.811125580474041,59.474883629532258,60.037689669279416,60.4490653095356,60.860440949792945,61.271816590051586,61.683192230311413,61.991183483714771,62.159299443839593,62.3274154039657,62.49553136409309,62.663647324221685,62.727127293928469,62.662716633050671,62.598305972174181,62.533895311299013,62.469484650425052,62.300316058923549,62.015360301605014,61.730404544287893,61.445448786971987,61.160493029657495,59.786462667289619,59.29384128123565,58.801219895183038,58.206641790784715,57.519815296062234,56.832988801341124,56.146162306621484,55.459335811903351,54.673255713533337,53.805966415528694,52.938677117525522,52.071387819523977,51.204098521523861,50.2409603209333,49.206975703690432,48.172991086449223,47.1390064692095,46.105021851971458,44.979161246300357,43.792048534304691,42.604935822310694,41.417823110318373,40.23071039832768,38.956126292432735,37.629058027333308,36.301989762235578,34.97492149713964,33.647853232045435,32.238021314023243,30.7836231485929,29.329224983164398,27.874826817737809,26.420428652313021,24.888150091098662,23.31837247097355,21.748594850850374,20.178817230729141,18.609039610609834,16.966323480199392,15.292347003347452,13.618370526497507,11.944394049649651,10.270417572803748,8.52839396503296,6.7605584894109647,4.9927230137910739,3.2248875381733675,1.4570520625577368,-0.3740886641589859,-2.226331939065278,-4.0785752139692573,-5.9308184888710374,-7.7830617637705348,-9.694107304709668,-11.622225188439606,-13.550343072167184,-15.478460955892396,-17.406578839615232,-19.389315868977214,-21.385708330079535,-23.382100791179379,-25.378493252276723,-27.374885713371562,-29.422107507977234,-31.480111864773164,-33.5381162215664,-35.596120578357066,-37.654124935145056,-39.759614270345679,-41.873483835655811,-43.987353400963109,-46.101222966267663,-48.2150925315694,-50.373679945210988,-52.538656105959106,-54.703632266704304,-56.868608427446574,-59.033584588186,-61.24090631191163,-63.452933542915815,-65.664960773916889,-67.876988004914608,-70.089015235909329,-72.3420329674128,-74.598374671870062,-76.854716376324234,-79.111058080775379,-81.367399785223569,-83.663508166894871,-85.96170992723637,-88.259911687574373,-90.558113447908823,-92.856315208239749,-95.194260708741737,-97.533225664795424,-99.87219062084543,-102.21115557689181,-104.55012053293456,0.23059332322481543,0.23059332322481543,0.23059332322481543,0.23059332322481543,0.23059332322481543,0.23059332322481543,0.23059332322481543,0.23059332322481543,0.23059332322481543,0.23059332322481543,0.23059332322481543,0.23059332322481543
DP 144,299.89492952498756,0.004629899321884845,-445.397166345244,-427.21968066647224,-409.04219498769748,-390.86470930892131,-372.68722363014319,-354.52439863272019,-336.933345751233,-319.34229286974386,-301.75123998825262,-284.16018710675962,-266.62737363383422,-250.20111993345884,-233.77486623308184,-217.34861253270287,-200.92235883232203,-184.61674970310116,-169.7991054895077,-154.9814612759123,-140.16381706231496,-125.3461728487158,-110.71977425287515,-97.814604293644251,-84.9094343344117,-72.0042643751775,-59.099094415941515,-46.452295287351582,-35.6141115105033,-24.775927733653436,-13.937743956801897,-3.099560179948722,7.4262532093853109,16.181948052362916,24.937642895342098,33.693337738322839,42.449032581305161,50.857601134310443,57.629698428400367,64.401795722491968,71.173893016584984,77.945990310679548,84.357563474999083,89.327023081639325,94.296482688280975,99.265942294924045,104.23540190156868,108.85092609538439,112.24732455417254,115.6437230129622,119.04012147175321,122.43651993054564,125.50177222697209,127.57357351617419,129.64537480537768,131.71717609458244,133.78897738378865,135.56365458403818,136.55499442812626,137.54633427221572,138.53767411630659,139.52901396039883,140.26341863392122,140.39829981417975,140.53318099443968,140.66806217470096,140.8029433549635,140.72282928154263,140.19618035151908,139.66953142149686,139.14288249147589,138.61623356145648,137.9149190470383,136.8892208731402,135.86352269924342,134.83782452534797,133.812126351454,132.64826465755556,131.25412694781724,129.85998923808026,128.46585152834453,127.07171381861023,125.57090460518589,123.91008561554857,122.24926662591241,120.58844763627779,118.92762864664448,117.18625381814523,115.33588988665581,113.48552595516796,111.63516202368116,109.78479809219586,107.87481852458832,105.89197414951214,103.9091297744371,101.92628539936354,99.943441024291289,97.917287625768623,95.84326549740743,93.769243369047786,91.695221240689435,89.621199112332619,83.244461645470579,81.108570967442859,78.972680289416658,76.815032157760541,74.637698319194129,72.460364480629039,70.283030642065569,68.105696803503449,65.913269810619269,63.708493613904238,61.503717417190671,59.298941220478724,57.09416502376822,54.8790431873472,52.656274403682879,50.43350562002022,48.210736836359089,45.987968052699586,43.758176029270629,41.52370173535531,39.28922744144166,37.05475314752961,34.82027885361925,32.581067154789515,30.339012941363457,28.096958727939018,25.854904514516384,23.612850301095396,21.367605355421727,19.120642276752573,16.873679198085267,14.62671611941974,12.37975304075594,10.13062829874989,7.8804627256062263,5.6302971524644736,3.3801315793245772,1.1299660061865824,-1.121689209545387,-3.3739828636453506,-5.6262765177434124,-7.8785701718394545,-10.130863825933609,-12.384217783312593,-14.637973938518494,-16.891730093722391,-19.145486248924183,-21.399242404124,-23.653792607803528,-25.908607504315444,-28.163422400825155,-30.418237297332745,-32.673052193838224,-34.928503127175269,-37.184138724122263,-39.439774321067041,-41.695409918009545,-43.951045514949818,-46.207230409572894,-48.463552635104776,-50.719874860634405,-52.976197086161676,-55.232519311686616,-57.489352115811606,-59.746293230335972,-62.003234344857866,-64.26017545937728,-66.517116573894214,-68.774549449534774,-71.032069112016529,-73.289588774495627,-75.547108436972138,-77.804628099445949,-80.062690604724878,-82.320830664837615,-84.578970724947709,-86.837110785055,-89.095250845159583,-91.353846820958765,-93.612493458842678,-95.87114009672365,-98.12978673460168,-100.38843337247665,-102.6477736092277,-104.90717009081044,-107.16656657239012,-109.4259630539671,-111.68535953554124,-113.94525100054396,-116.20516852222781,-118.46508604390831,-120.72500356558547,-122.98492108725951,-125.24548261950216,-127.50606067107633,-129.7666387226472,-132.02721677421465,-134.28779482577841,0.21634572304022209,0.21634572304022209,0.21634572304022209,0.21634572304022209,0.21634572304022209,0.21634572304022209,0.21634572304022209,0.21634572304022209,0.21634572304022209,0.21634572304022209,0.21634572304022209,0.21634572304022209
DP 145,304.10192369631824,0.005674644086278359,-548.11752424826932,-525.64991112900259,-503.18229800973455,-480.71468489046367,-458.24707177119029,-435.79780308940946,-414.06397440570919,-392.3301457220071,-370.59631703830229,-348.86248835459469,-327.20148092097816,-306.92409100543722,-286.64670108989441,-266.36931117434932,-246.09192125880205,-225.96520792891539,-207.69685814505317,-189.42850836118876,-171.16015857732225,-152.89180879345329,-134.86193828370085,-118.978403782365,-103.09486928102706,-87.21133477968722,-71.327800278345123,-55.765813177905123,-42.454682198219544,-29.143551218532004,-15.832420238842412,-2.5212892591508465,10.401995926026522,21.127463835858524,31.852931745692477,42.578399655528322,53.303867565366083,63.599479632572624,71.86860522423936,80.137730815908,88.406856407578459,96.675981999250766,104.49997591903551,110.54342211408955,116.58686830914532,122.6303145042029,128.67376069926217,134.28161048044521,138.38905431468405,142.49649814892481,146.60394198316735,150.71138581741144,154.41268031392434,156.89551144136183,159.37834256880106,161.86117369624185,164.34400482368446,166.4637393067793,167.62620652011776,168.78867373345767,169.9511409467994,171.11360816014283,171.96328664067957,172.08311488961789,172.20294313855797,172.32277138749953,172.44259963644294,172.30173353305463,171.61941773139984,170.93710192974658,170.25478612809502,169.57247032644523,168.679229983983,167.39426694091858,166.10930389785577,164.82434085479474,163.53937781173528,162.08827263499256,160.36025971439349,158.63224679379573,156.90423387319976,155.17622095260538,153.32048871037941,151.2731744676625,149.22586022494733,147.17854598223374,145.13123173952161,142.98789144480531,140.71463141467362,138.44137138454363,136.16811135441509,133.89485132428825,131.55084513794588,129.12036994133913,126.68989474473389,124.25941954813025,121.82894435152846,119.3473072635803,116.80912180395893,114.27093634433922,111.73275088472133,109.19456542510515,101.39813055820322,98.78719356583872,96.176256573476081,93.539852740179541,90.880407020866343,88.22096130155505,85.561515582245534,82.902069862937736,80.225038963662783,77.5336198876567,74.8422008116524,72.150781735649957,69.4593626596494,66.755944254536757,64.043656582830351,61.33136891112602,58.619081239423494,55.906793567722858,53.18639542676577,50.46059017853667,47.73478493030958,45.008979682084473,42.283174433861348,39.551920072210336,36.817396160094461,34.082872247980674,31.348348335868998,28.613824423759361,25.87564240007702,23.135490570815143,20.395338741555484,17.655186912298031,14.915035083042692,12.172409972828566,9.4285939890017758,6.6847780051773089,3.9409620213551118,1.1971460375352345,-1.5483743831573977,-4.2946252998090317,-7.0408762164583356,-9.7871271331051837,-12.533378049749734,-15.280845717361556,-18.028774927064077,-20.776704136764149,-23.524633346461652,-26.272562556156746,-29.02140887637405,-31.770560911655281,-34.51971294693378,-37.268864982209735,-40.018017017483,-42.767910556561965,-45.518019379980856,-48.268128203397012,-51.018237026810425,-53.768345850221095,-56.519102188065141,-59.2700204121656,-62.020938636263367,-64.771856860358071,-67.522775084450046,-70.274301330778073,-73.025956558483486,-75.777611786185872,-78.5292670138853,-81.280922241581678,-84.033167565623344,-86.785517030873564,-89.5378664961206,-92.290215961364481,-95.0425654266051,-97.79557066715374,-100.54866959697037,-103.30176852678376,-106.05486745659371,-108.80796638640049,-111.56161750570409,-114.31532998519211,-117.06904246467658,-119.82275494415745,-122.57646742363457,-125.33102285273893,-128.08564663772074,-130.84027042269904,-133.59489420767395,-136.34951799264545,-139.10474356185333,-141.86000080989919,-144.61525805794113,-147.3705153059791,-150.12577255401297,-152.88181378410428,-155.63787512389578,-158.39393646368336,-161.14999780346653,-163.9060591432457,0.26374168234779194,0.26374168234779194,0.26374168234779194,0.26374168234779194,0.26374168234779194,0.26374168234779194,0.26374168234779194,0.26374168234779194,0.26374168234779194,0.26374168234779194,0.26374168234779194,0.26374168234779194
DP 146,161.69539439141133,0.0010969768214750873,-84.90165855660122,-82.004780749793952,-79.107902942986158,-76.211025136177682,-73.314147329368765,-70.418653552997043,-67.5771374869862,-64.735621420974852,-61.89410535496291,-59.052589288950429,-56.2167054871307,-53.487835769721833,-50.758966052312466,-48.030096334902623,-45.30122661749229,-42.58447556898895,-40.017189630974286,-37.449903692959133,-34.882617754943411,-32.3153318169272,-29.768291455827583,-27.403463200617992,-25.038634945407924,-22.673806690197402,-20.308978434986397,-17.97335906182601,-15.84220407170873,-13.711049081591023,-11.579894091472827,-9.4487391013541853,-7.3557751954261716,-5.4792298398241295,-3.6026844842216579,-1.7261391286187395,0.15040622698461628,1.9805172806810707,3.5917212602294843,5.2029252397783292,6.8141292193275964,8.4253331988772882,9.983208590226587,11.32776710843368,12.67232562664117,14.016884144849097,15.361442663057424,16.647547045547036,17.732306949381488,18.817066853216335,19.901826757051623,20.986586660887259,22.009749473077598,22.848118681440443,23.686487889803679,24.52485709816731,25.363226306531345,26.138858124030666,26.749089209246581,27.359320294462879,27.969551379679576,28.579782464896645,29.12799682498451,29.531503539140317,29.935010253296475,30.338516967453032,30.742023681609997,31.085836444740842,31.305667727328331,31.525499009916185,31.745330292504438,31.96516157509302,32.128894135589988,32.188441840055354,32.247989544521118,32.307537248987281,32.367084953453748,32.375044986877867,32.297024268264707,32.219003549651923,32.140982831039523,32.0629621124275,31.938432916346869,31.744139905054958,31.549846893763476,31.355553882472364,31.161260871181611,30.925794509921428,30.634622112408138,30.343449714895243,30.052277317382725,29.761104919870618,29.434088133764007,29.063260786474885,28.69243343918615,28.32160609189782,27.950778744609927,27.549226420291632,27.113714299432683,26.678202178574185,26.242690057716064,25.807177936858348,24.37083689375709,23.883402802535318,23.395968711313952,22.886890501452054,22.358229127901055,21.829567754350453,21.3009063808003,20.77224500725055,20.225761283655853,19.664695331008438,19.103629378361454,18.542563425714924,17.981497473068821,17.405924765737868,16.819629436040909,16.233334106344419,15.647038776648365,15.060743446952811,14.46276609116846,13.857000533958765,13.25123497674957,12.645469419540845,12.039703862332592,11.424623830250191,10.803954972377223,10.183286114504751,9.56261725663279,8.9419483987613173,8.3139198556750316,7.6819282981432107,7.0499367406119324,6.4179451830811587,5.7859536255508912,5.1481944028256041,4.5076580753524773,3.867121747879922,3.2265854204079019,2.5860490929364404,1.9410250284211683,1.2940775874323762,0.64713014644414613,0.00018270545650861286,-0.64676473553057467,-1.2971831861552123,-1.9489182718949007,-2.6006533576340005,-3.2523884433724808,-3.9041235291103851,-4.5585314488717525,-5.2138303469924212,-5.86912924511244,-6.5244281432318409,-7.1797270413505991,-7.8370791991691471,-8.4950274896840838,-9.1529757801983553,-9.8109240707119714,-10.468872361224921,-11.128398619486157,-11.788319388327821,-12.448240157168806,-13.108160926009088,-13.768081694848675,-14.429220819144552,-15.090618396434873,-15.752015973724435,-16.413413551013292,-17.074811128301402,-17.737155513046286,-18.399666991988024,-19.062178470928956,-19.724689949869155,-20.387201428808545,-21.050475409382109,-21.7138583269967,-22.377241244610524,-23.040624162223494,-23.704007079835684,-24.367979275305938,-25.032016952281754,-25.696054629256668,-26.36009230623069,-27.024129983203885,-27.688725447330444,-28.353366143141439,-29.018006838951571,-29.682647534760893,-30.347288230569333,-31.012356973343834,-31.677448249163934,-32.34253952498311,-33.00763080080128,-33.672722076618463,-34.338250519503,-35.003790176036645,-35.669329832569261,-36.334869489100882,-37.000409145631515,0.064030925688618193,0.064030925688618193,0.064030925688618193,0.064030925688618193,0.064030925688618193,0.064030925688618193,0.064030925688618193,0.064030925688618193,0.064030925688618193,0.064030925688618193,0.064030925688618193,0.064030925688618193
DP 147,278.46653551458121,0.0034300038488965239,-322.74807890898632,-309.87577757794668,-297.00347624690551,-284.13117491586269,-271.25887358481816,-258.39630133561781,-245.91316695682096,-233.43003257802204,-220.946898199222,-208.46376382042033,-196.01941794723976,-184.31206101356705,-172.60470407989291,-160.89734714621724,-149.18999021254027,-137.56345575251129,-126.93374198674533,-116.30402822097793,-105.6743144552091,-95.044600689438965,-84.544041815641123,-75.20588917748384,-65.867736539325278,-56.529583901165516,-47.191431263004375,-38.029527478444962,-30.101378996503076,-22.173230514559961,-14.24508203261558,-6.316933550669976,1.3955759141184139,7.8861173600437686,14.376658805970326,20.86720025189808,27.357741697827059,33.605367828572973,38.7078086388014,43.810249449031083,48.91269025926173,54.015131069493641,58.861436561323139,62.68318867443908,66.5049407875561,70.32669290067426,74.14844501379352,77.7145661220459,80.400169696849673,83.0857732716546,85.771376846460583,88.456980421267616,90.899148386060233,92.611000316883533,94.322852247707885,96.034704178533332,97.746556109359759,99.235854739528932,100.13841429124047,101.04097384295321,101.9435333946669,102.8460929463816,103.55238216309182,103.80070108089292,104.04901999869502,104.29733891649821,104.54565783430226,104.62634837051223,104.35888277743408,104.09141718435679,103.82395159128068,103.5564859982054,103.14992178241067,102.48502779649125,101.82013381057288,101.15523982465547,100.4903458387391,99.712997667438444,98.748223019351556,97.783448371265749,96.818673723180964,95.853899075097175,94.800340625744241,93.613604376501442,92.426868127259567,91.240131878018673,90.0533956287789,88.798064724199008,87.449927760360339,86.101790796522849,84.7536538326863,83.405516868850725,82.005423695303875,80.5418273963411,79.078231097379387,77.614634798418649,76.151038499459034,74.648797908154933,73.103844435269863,71.558890962385888,70.013937489502965,68.4689840166211,63.692785279813165,62.0912963727933,60.489807465774533,58.867954385674977,57.2276762109133,55.587398036152628,53.94711986139319,52.306841686634776,50.652094133866726,48.985507750425178,47.31892136698476,45.652334983545515,43.985748600107442,42.309006390137966,40.624757532742954,38.940508675349207,37.256259817956646,35.572010960565258,33.880707437502004,32.184700692855507,30.488693948210297,28.792687203566317,27.096680458923565,25.395811970810623,23.692026363090175,21.988240755370974,20.284455147653134,18.580669539936569,16.873548229823381,15.164630723759677,13.455713217697376,11.746795711636452,10.037878205576812,8.3266704455673732,6.6143599386232106,4.902049431680493,3.1897389247391938,1.4774284177993415,-0.2364678652217623,-1.951043787975218,-3.6656197107272219,-5.3801956334776921,-7.0947715562267186,-8.8104670602574569,-10.526587247645681,-12.242707435032377,-13.958827622417468,-15.674947809801056,-17.391885933816148,-19.10909671368233,-20.826307493546796,-22.543518273409685,-24.260729053270907,-25.978568194902259,-27.696589771806764,-29.414611348709528,-31.132632925610572,-32.850654502509919,-34.569190672361024,-36.287855496528579,-38.006520320694413,-39.725185144858436,-41.443849969020626,-43.162967459211679,-44.882180974654162,-46.601394490094712,-48.320608005533465,-50.039821520970243,-51.759451427018718,-53.479154818392011,-55.19885820976328,-56.918561601132645,-58.638264992499955,-60.358409275630976,-62.078616548060552,-63.798823820488195,-65.519031092913622,-67.239238365337016,-68.959810727639749,-70.680423659316915,-72.401036590991779,-74.121649522664313,-75.84226245433463,-77.563415812592282,-79.2846129947422,-81.005810176889867,-82.727007359035369,-84.448204541178825,-86.169786568886579,-87.891388855450714,-89.612991142012348,-91.33459342857148,-93.056195715127956,-94.778295110718261,-96.500407257510659,-98.222519404300456,-99.944631551087639,-101.66674369787218,0.16489392895314131,0.16489392895314131,0.16489392895314131,0.16489392895314131,0.16489392895314131,0.16489392895314131,0.16489392895314131,0.16489392895314131,0.16489392895314131,0.16489392895314131,0.16489392895314131,0.16489392895314131
DP 54,200.66647344609117,0.0015947275914616429,-134.39957957528247,-129.53406333926844,-124.66854710325353,-119.80303086723785,-114.93751463122142,-110.07477605863006,-105.3203674098406,-100.56595876105034,-95.811550112259326,-91.0571414634675,-86.313956359549181,-81.78402072996677,-77.254085100383719,-72.724149470799972,-68.194213841215486,-63.688168713520945,-59.476776120023658,-55.26538352652576,-51.053990933027059,-46.842598339527669,-42.670524754615428,-38.852325963474058,-35.034127172332,-31.215928381189286,-27.39772959004593,-23.635203350169231,-20.262389178950521,-16.889575007731185,-13.516760836511217,-10.14394666529061,-6.842308413557606,-3.9440048573441517,-1.0457013011300866,1.8526022550845904,4.7509058112998686,7.564884717110524,9.9813285736033421,12.39777243009674,14.814216286590735,17.230660143085306,19.553038794122664,21.4991521777543,23.445265561386503,25.391378945019287,27.337492328652633,29.18375555089326,30.686086244801338,32.18841693871,33.690747632619214,35.193078326528969,36.593789089460792,37.68963621736529,38.785483345270357,39.881330473175993,40.97717760108214,41.973310661871281,42.706557754774529,43.439804847678346,44.17305194058266,44.906299033487542,45.544798395567987,45.962216733837067,46.379635072106666,46.79705341037679,47.214471748647433,47.5444050265331,47.692636019253833,47.840867011975085,47.989098004696892,48.137328997419218,48.206837449908633,48.130144773124371,48.053452096340671,47.976759419557453,47.900066742774754,47.754173703322415,47.492944981848332,47.231716260374718,46.970487538901679,46.709258817429124,46.388483482052109,45.978386818715315,45.568290155379039,45.15819349204331,44.748096828708093,44.2877520923187,43.759423551325561,43.231095010332979,42.702766469340929,42.174437928349384,41.6044634389272,40.983587471107285,40.36271150328789,39.741835535469065,39.120959567650758,38.466134951346262,37.773787469059279,37.081439986772814,36.389092504486968,35.696745022201689,33.483437916098424,32.73658446707681,31.989731018055707,31.221308480455274,30.43337066485757,29.64543284926042,28.857495033663881,28.069557218067914,27.264771237010063,26.446200103754958,25.627628970500414,24.809057837246506,23.990486703993202,23.158913429866168,22.317729663967093,21.476545898068679,20.635362132170851,19.794178366273687,18.943071149132528,18.085348141499683,17.227625133867519,16.369902126236,15.512179118605136,14.646957765980639,13.777237292959956,12.907516819939964,12.037796346920665,11.168075873902023,10.292739135246034,9.4143781718847634,8.5360172085242461,7.6576562451644206,6.7792952818052772,5.8967586061497563,5.0122113438789038,4.1276640816088017,3.2431168193394426,2.35856955707084,1.4709346641655985,0.58197645929569319,-0.30698174557345215,-1.1959399504417951,-2.0848981553093879,-2.9761324830625013,-3.8682301974463882,-4.760327911829477,-5.6524256262117261,-6.5445233405931891,-7.4382996202910974,-8.3326354429152332,-9.2269712655384861,-10.121307088160913,-11.015642910782464,-11.911222914965657,-12.807164148324317,-13.703105381682084,-14.599046615038958,-15.494987848394921,-16.391861949870673,-17.288969279397591,-18.186076608923564,-19.083183938448609,-19.980291267972706,-20.878112490513868,-21.776085153085514,-22.674057815656145,-23.572030478225802,-24.470003140794457,-25.368534426692257,-26.267164299388689,-27.165794172084052,-28.064424044778381,-28.96305391747164,-29.862157305931269,-30.761328344614526,-31.660499383296756,-32.559670421977856,-33.458841460657908,-34.358376434664905,-35.257951849751578,-36.157527264837071,-37.057102679921321,-37.956678095004428,-38.85666339851997,-39.756681940420272,-40.656700482319309,-41.556719024217294,-42.4567375661141,-43.357052250085573,-44.25738252342726,-45.157712796767576,-46.058043070106606,-46.958373343444272,-47.859043718801246,-48.759722818018609,-49.660401917234587,-50.561081016449144,-51.461760115662358,0.08646397045148109,0.08646397045148109,0.08646397045148109,0.08646397045148109,0.08646397045148109,0.08646397045148109,0.08646397045148109,0.08646397045148109,0.08646397045148109,0.08646397045148109,0.08646397045148109,0.08646397045148109
DP 55,87.5015570193062,0.0021184607979083552,-120.34162622632367,-116.79612179999106,-113.25061737365738,-109.70511294732226,-106.15960852098601,-102.61516659436252,-99.11216255829487,-95.60915852222584,-92.106154486155745,-88.603150450084485,-85.10454179336709,-81.689446175309484,-78.274350557250912,-74.859254939191246,-71.444159321130527,-68.038718369303652,-64.752352851134134,-61.465987332963437,-58.179621814791759,-54.893256296618951,-51.62350174032867,-48.503247411077972,-45.382993081826285,-42.262738752573647,-39.142484423319964,-36.04708074700396,-33.125633520387844,-30.204186293770743,-27.282739067152711,-24.36129184053371,-21.473792318367718,-18.778665260624177,-16.0835382028797,-13.388411145134327,-10.693284087388005,-8.0415822451681613,-5.5946016216347383,-3.1476209981004115,-0.70064037456519834,1.746340248970903,4.1405009857877895,6.3233796794272621,8.50625837306761,10.689137066708827,12.872015760350893,14.993188756813959,16.901817315216928,18.810445873620736,20.719074432025391,22.627702990430887,24.466622061787568,26.09641003638804,27.726198010989368,29.355985985591524,30.985773960194528,32.539023437828149,33.890486974539414,35.241950511251517,36.593414047964409,37.944877584678146,39.214362481994577,40.292561304478589,41.370760126963411,42.448958949449043,43.527157771935485,44.5194489612941,45.333314106436937,46.147179251580674,46.961044396725185,47.774909541870457,48.500493893530695,49.062125816032619,49.623757738535353,50.185389661038833,50.747021583543216,51.219520088460328,51.543460650734254,51.867401213008982,52.191341775284563,52.515282337560926,52.750664877020128,52.853208289602627,52.955751702185943,53.058295114770068,53.160838527355075,53.176682920901079,53.075226713420463,52.973770505940749,52.872314298461816,52.770858090983793,52.585669602162675,52.298139899595952,52.010610197030047,51.723080494465044,51.435550791900887,51.068165758655439,50.61251798139071,50.156870204126882,49.701222426863964,49.245574649601892,47.502281102800417,46.896092954951563,46.289904807103618,45.613539675274595,44.873679818280664,44.133819961287706,43.393960104295729,42.654100247304626,41.84947737768379,40.991865475644133,40.134253573605392,39.2766416715677,38.419029769530944,37.502219521275386,36.541653000511694,35.58108647974904,34.620519958987423,33.65995343822685,32.645756858741052,31.595806061910142,30.54585526508037,29.495904468251631,28.445953671423986,27.347822375616641,26.220782051770186,25.093741727924847,23.966701404080684,22.839661080237612,21.669670633841619,20.476552573811077,19.283434513781746,18.090316453753594,16.89719839372659,15.666066851424182,14.416631989052773,13.167197126682657,11.91776226431376,10.668327401946121,9.3854665343382173,8.0882797845622054,6.7910930347874707,5.4939062850140763,4.1967195352419546,2.8703094565586751,1.5328142859140492,0.19531911527077317,-1.1421760553710933,-2.4796712260116287,-3.8425924708813537,-5.2139893942665116,-6.585386317650169,-7.9567832410324275,-9.3281801644132027,-10.721619260004809,-12.121457964746764,-13.521296669487201,-14.921135374226145,-16.320974078963548,-17.73988310702779,-19.163559941240898,-20.587236775452457,-22.01091360966236,-23.434590443870704,-24.874771214351213,-26.318453008884482,-27.762134803416011,-29.205816597945883,-30.649498392474069,-32.107503375854215,-33.568036140070674,-35.028568904285358,-36.489101668498293,-37.9496344327094,-39.422727193845667,-40.897614375933586,-42.372501558019678,-43.847388740103838,-45.322275922186229,-46.808219569462658,-48.2953918289886,-49.782564088512565,-51.269736348034442,-52.756908607554294,-54.254231507121368,-55.75237753527955,-57.250523563435813,-58.7486695915902,-60.246815619742641,-61.754234732801038,-63.262141995220894,-64.77004925763849,-66.277956520053877,-67.785863782466947,-69.302802457078442,-70.819972793914218,-72.337143130747577,-73.854313467578692,-75.371483804407461,0.14753735864013,0.14753735864013,0.14753735864013,0.14753735864013,0.14753735864013,0.14753735864013,0.14753735864013,0.14753735864013,0.14753735864013,0.14753735864013,0.14753735864013,0.14753735864013
DP 56,85.447357684822919,0.0030912460769652672,-173.12702870687212,-168.05198919920218,-162.97694969153025,-157.90191018385661,-152.82687067618124,-147.753327338356,-142.73813519043767,-137.72294304251773,-132.7077508945959,-127.69255874667272,-122.68355744423512,-117.79218337639192,-112.90080930854737,-108.00943524070119,-103.11806117285356,-98.240294330910572,-93.5303516567038,-88.820408982495351,-84.11046630828541,-79.400523634073835,-74.714013224279711,-70.238395409100249,-65.762777593919424,-61.287159778737184,-56.81154196355341,-52.371013991243117,-48.176117572441484,-43.981221153638394,-39.786324734833933,-35.591428316028093,-31.444528097219894,-27.569609369509294,-23.694690641797344,-19.819771914084058,-15.94485318636943,-12.131416807419418,-8.60782910772659,-5.0842414080324474,-1.5606537083370047,1.9629339913597339,5.4116145598890641,8.560663063591246,11.709711567294697,14.858760070999422,18.007808574705404,21.069189803349207,23.828602290593107,26.588014777838215,29.347427265084605,32.106839752332192,34.767015340958139,37.129476481722989,39.4919376224891,41.854398763256391,44.216859904024929,46.47012572249217,48.435509210794308,50.400892699097653,52.366276187402207,54.331659675707968,56.179814426827036,57.754431764311796,59.329049101797715,60.903666439284862,62.478283776773218,63.929749170187677,65.125433867306214,66.321118564425959,67.516803261546869,68.712487958669058,69.7812847200608,70.6144290312126,71.4475733423656,72.280717653519829,73.1138619646752,73.818540639860871,74.30910668370548,74.7996727275514,75.29023877139845,75.780804815246782,76.143363761445428,76.313909036326038,76.484454311208,76.654999586091137,76.825544860975469,76.870394670568842,76.745183113974235,76.6199715573808,76.494760000788631,76.3695484441977,76.122563600642437,75.726742181875963,75.330920763110825,74.935099344346909,74.539277925584258,74.02694758364747,73.385841902928362,72.744736222210491,72.103630541493843,71.462524860778672,68.988282967732687,68.1268069300705,67.265330892409551,66.3007761770598,65.242957945113488,64.185139713168667,63.127321481225266,62.069503249283152,60.916224619273848,59.6848403866606,58.453456154048787,57.2220719214384,55.990687688829468,54.6717329371807,53.288050710196487,51.904368483213844,50.520686256232615,49.137004029253,47.673697745014969,46.157307501579751,44.640917258146082,43.124527014714062,41.608136771283569,40.019945012395787,38.388671258353064,36.757397504311996,35.126123750272633,33.494849996234876,31.799325065479902,30.069202412940761,28.339079760403433,26.60895710786783,24.87883445533388,23.09162349143152,21.276924763382628,19.462226035335597,17.647527307290357,15.832828579246991,13.9677306464004,12.081032373812659,10.194334101226795,8.3076358286429084,6.4209375560608821,4.4899969497582521,2.5422741917928273,0.59455143382938658,-1.3531713241319874,-3.3008940820914074,-5.2872712510294342,-7.2865337107797874,-9.28579617052796,-11.285058630274069,-13.284321090018013,-15.317237715052466,-17.359925314657033,-19.402612914259386,-21.445300513859546,-23.487988113457448,-25.559920767997845,-27.639165031806204,-29.718409295612265,-31.797653559416009,-33.876897823217362,-35.981566169912561,-38.091627795172577,-40.201689420430036,-42.311751045685085,-44.421812670937612,-46.554041244648623,-48.69018187929062,-50.82632251393003,-52.96246314856684,-55.098603783200971,-57.254270209147855,-59.412726244776835,-61.571182280403271,-63.729638316026794,-65.888094351647752,-68.063822789112464,-70.241470563735689,-72.419118338355929,-74.596766112973043,-76.774413887587272,-78.967969850654413,-81.162815829394432,-83.35766180813151,-85.552507786865917,-87.747353765597325,-89.956797834167716,-92.167010368497728,-94.3772229028244,-96.587435437147789,-98.797647971467853,-101.02210026490219,-103.2469178184086,-105.47173537191152,-107.69655292541115,-109.92137047890742,0.21648698756261278,0.21648698756261278,0.21648698756261278,0.21648698756261278,0.21648698756261278,0.21648698756261278,0.21648698756261278,0.21648698756261278,0.21648698756261278,0.21648698756261278,0.21648698756261278,0.21648698756261278
DP 57,277.33182600722341,0.0014299630625105549,-134.3855282693219,-129.03250228652445,-123.67947630372649,-118.32645032092766,-112.97342433812815,-107.62442977120338,-102.4326619476288,-97.240894124053654,-92.04912630047798,-86.857358476901581,-81.6816668873499,-76.811426783371019,-71.94118667939162,-67.070946575411583,-62.200706471431118,-57.363974166893051,-52.940508945084915,-48.517043723276238,-44.093578501466958,-39.670113279657073,-35.300216592887054,-31.412441784843644,-27.5246669767997,-23.636892168755185,-19.749117360710194,-15.934483011754889,-12.631837407087902,-9.3291918024203984,-6.0265461977523715,-2.7239005930838278,0.48920157131993308,3.1948852650544377,5.90056895878944,8.6062526525249368,11.311936346260937,13.916677493605432,16.045541184412727,18.1744048752205,20.303268566028756,22.432132256837498,24.45447386997408,26.050722138126723,27.646970406279859,29.243218674433461,30.839466942587514,32.329309466834616,33.452638847582129,34.575968228330112,35.699297609078556,36.822626989827462,37.844531411529587,38.562157121369808,39.279782831210532,39.997408541051627,40.715034250893218,41.339842721261682,41.719948006404152,42.10005329154707,42.480158576690421,42.860263861834206,43.158427077474592,43.2653895491878,43.372352020901481,43.479314492615586,43.5862769643301,43.623178794010855,43.514568021864228,43.405957249718021,43.297346477572219,43.188735705426851,43.021922265940233,42.747016586710707,42.472110907481593,42.197205228252905,41.922299549024622,41.600285034030641,41.199754605352119,40.799224176674052,40.398693747996447,39.998163319319218,39.560395346924253,39.066770179018917,38.573145011113986,38.079519843209475,37.58589467530544,37.063464411168553,36.502061905613083,35.940659400058038,35.379256894503428,34.817854388949208,34.234606573244186,33.624658475167394,33.014710377091,32.404762279015088,31.794814180939603,31.16859727992863,30.524398746674162,29.880200213420146,29.23600168016652,28.591803146913403,26.599629425841787,25.931599599013694,25.263569772186123,24.586944784397442,23.902543067658552,23.2181413509201,22.533739634182147,21.84933791744464,21.1588211764607,20.463301128729967,19.767781080999718,19.072261033269932,18.376740985540643,17.676923374764325,16.973929233699337,16.270935092634883,15.567940951570911,14.864946810507446,14.158963665140204,13.450987803149948,12.743011941160228,12.035036079171013,11.327060217182325,10.61702202526484,9.90574640420093,9.1944707831375521,8.4831951620747468,7.7719195410124753,7.0592274149408469,6.345772534804504,5.6323176546687552,4.9188627745335776,4.205407894398947,3.4909796546638852,2.7760827466766171,2.0611858386899558,1.3462889307038848,0.63139202271841788,-0.084179154414311813,-0.80003931314299837,-1.515899471871081,-2.23175963059852,-2.9476197893253593,-3.6639559307418383,-4.3804726235216238,-5.0969893163007711,-5.8135060090792487,-6.5300227018571,-7.24688680474822,-7.9638667153883382,-8.6808466260277459,-9.39782653666649,-10.114806447304538,-10.832052759489898,-11.549376417308535,-12.266700075126462,-12.984023732943681,-13.701347390760175,-14.418888638149419,-15.136484285502087,-15.854079932854043,-16.571675580205223,-17.28927122755567,-18.007057724656892,-18.724884707224533,-19.442711689791391,-20.16053867235745,-20.878365654922742,-21.596367716728629,-22.314400676817343,-23.032433636905193,-23.750466596992243,-24.468499557078417,-25.186717400413762,-25.904961657638285,-26.623205914861945,-27.341450172084734,-28.05969442930666,-28.778091635199505,-29.496505836994562,-30.214920038788737,-30.933334240581882,-31.651748442374135,-32.370388700791743,-33.08904729043406,-33.807705880075474,-34.526364469715965,-35.245023059355582,-35.963842549101805,-36.682670508874537,-37.401498468646224,-38.120326428416845,-38.839154388186458,-39.558190093593154,-40.277231127824,-40.996272162053764,-41.7153131962825,-42.434354230510053,0.068850817798876057,0.068850817798876057,0.068850817798876057,0.068850817798876057,0.068850817798876057,0.068850817798876057,0.068850817798876057,0.068850817798876057,0.068850817798876057,0.068850817798876057,0.068850817798876057,0.068850817798876057
DP 58,154.31171507025093,0.0033783553958126058,-256.31764292431581,-247.6789770103305,-239.04031109634298,-230.40164518235389,-221.7629792683629,-213.12828801817835,-204.64861015928039,-196.16893230038062,-187.68925444147919,-179.20957658257592,-170.74609567164165,-162.59035983406213,-154.43462399648106,-146.27888815889835,-138.12315232131411,-130.00233794513895,-122.31222599412057,-114.62211404310051,-106.93200209207887,-99.241890141055649,-91.610286589599809,-84.5052641645489,-77.400241739496451,-70.295219314442562,-63.190196889387138,-56.169887105140376,-49.74257221227225,-43.315257319402718,-36.887942426531751,-30.46062753365937,-24.144553195017657,-18.458849006747069,-12.773144818475091,-7.0874406302017592,-1.4017364419270497,4.1480445109815243,9.05703715566043,13.966029800340669,18.875022445022228,23.784015089705115,28.53602658665136,32.660106073628981,36.784185560607895,40.908265047588081,45.032344534569496,48.983289754406584,52.337876336366129,55.692462918326974,59.047049500289,62.401636082252296,65.572548562256358,68.1924317919465,70.812315021637929,73.432198251330576,76.052081481024445,78.483534737954983,80.4182115901031,82.352888442252436,84.287565294403024,86.222242146554748,87.969219033596943,89.278223421511342,90.587227809426992,91.8962321973438,93.205236585261886,94.332101924721172,95.080673173999571,95.829244423279434,96.577815672560376,97.326386921842484,97.902333012540112,98.157684861087816,98.413036709636728,98.66838855818672,98.923740406737991,99.018941391224544,98.847220232232672,98.675499073241909,98.503777914252382,98.332056755263977,98.0146280473828,97.478634573052261,96.9426410987229,96.406647624394807,95.870654150067921,95.204446339561557,94.362063295870044,93.519680252179938,92.6772972084908,91.834914164803038,90.878067656623358,89.781318954239453,88.684570251856783,87.587821549475379,86.491072847095111,85.295231192877708,83.989863777919126,82.6844963629618,81.379128948005715,80.073761533050885,75.734759440275539,74.260231766377075,72.785704092479975,71.239930069407052,69.6296937810259,68.0194574926461,66.4092212042677,64.798984915890571,63.129465019633813,61.411439334466365,59.693413649300339,57.975387964135628,56.257362278972316,54.490567268069405,52.687724562536829,50.884881857005688,49.082039151475911,47.279196445947612,45.436657752369008,43.567654441406006,41.698651130444475,39.829647819484478,37.960644508526016,36.059646904629545,34.139452241109375,32.219257577590732,30.29906291407368,28.378868250558153,26.433118991224465,24.473609193305027,22.514099395387209,20.554589597471018,18.595079799556366,16.615326305014737,14.6258255619564,12.636324818899826,10.646824075844943,8.65732333279181,6.6519026012526457,4.6396588025385554,2.6274150038262176,0.61517120511572809,-1.3970725935930279,-3.4217583139300123,-5.4511635460591243,-7.4805687781863881,-9.5099740103117281,-11.539379242435253,-13.57846113309399,-15.620768698549616,-17.66307626400322,-19.705383829454892,-21.747691394904557,-23.79750168836491,-25.849490284686976,-27.901478881006987,-29.953467477324928,-32.005456073640772,-34.0632580273267,-36.122513389039092,-38.181768750749328,-40.241024112457374,-42.300279474163212,-44.364053000238371,-46.428784976579358,-48.493516952917979,-50.5582489292544,-52.622980905588506,-54.691241663143366,-56.76012518603455,-58.829008708923219,-60.897892231809571,-62.966775754693465,-65.038499070635282,-67.110628101974115,-69.18275713331046,-71.254886164644248,-73.327015195975534,-75.401354464284751,-77.475939337690477,-79.550524211093489,-81.6251090844936,-83.6996939578911,-85.776326541847851,-87.85312517731272,-89.929923812774874,-92.00672244823447,-94.083521083691352,-96.16191677727906,-98.2403965424448,-100.3188763076075,-102.39735607276732,-104.47583583792382,-106.55591795368034,-108.63604117088038,-110.71616438807752,-112.7962876052713,-114.87641082246209,0.20023589262187874,0.20023589262187874,0.20023589262187874,0.20023589262187874,0.20023589262187874,0.20023589262187874,0.20023589262187874,0.20023589262187874,0.20023589262187874,0.20023589262187874,0.20023589262187874,0.20023589262187874
DP 59,295.92869684534475,0.0014901072710814854,-142.79032599118588,-136.98698755117786,-131.18364911116925,-125.38031067115988,-119.5769722311499,-113.77825984810052,-108.15996543558693,-102.54167102307268,-96.92337661055771,-91.305082198042143,-85.7051775603766,-80.454682121322179,-75.2041866822672,-69.953691243211551,-64.703195804155428,-59.490835536265116,-54.748813852205949,-50.006792168146234,-45.264770484085943,-40.522748800025028,-35.841269934401581,-31.704682157301164,-27.568094380200208,-23.431506603098729,-19.294918825996668,-15.240275345974451,-11.759248141890726,-8.27822093780647,-4.7971937337216826,-1.3161665296363723,2.0655720134765083,4.8846685544903679,7.7037650955047354,10.52286163651962,13.341958177535011,16.050441531087895,18.237456740723061,20.42447195035869,22.611487159994834,24.798502369631436,26.8703139705963,28.481305692284607,30.092297413973391,31.703289135662661,33.314280857352415,34.81183105099386,35.918633437968815,37.025435824944246,38.132238211920139,39.239040598896509,40.239359978742542,40.920226311238928,41.6010926437358,42.2819589762331,42.962825308730892,43.547819316267578,43.880055717284527,44.212292118301917,44.54452851931979,44.876764920338033,45.125796708578534,45.180681778805727,45.235566849033432,45.290451919261507,45.345336989490058,45.33033696181014,45.170188929053225,45.010040896296672,44.849892863540575,44.689744830784917,44.472599988122809,44.149602387805054,43.826604787487661,43.503607187170779,43.1806095868543,42.812345890635534,42.3686375602856,41.924929229936133,41.481220899587044,41.037512569238423,40.558712449842844,40.027273817647966,39.495835185453487,38.964396553259462,38.432957921065842,37.874907707909323,37.280852999248339,36.68679829058788,36.092743581927749,35.498688873268136,34.8848563302082,34.246850463009487,33.608844595811227,32.9708387286134,32.332832861416037,31.680396853332304,31.012011455015678,30.343626056699502,29.6752406583838,29.006855260068516,26.949939365392193,26.260850048046681,25.571760730701648,24.875358450710049,24.172339549042256,23.469320647374929,22.766301745708102,22.063282844041733,21.355168709436562,20.64288566031663,19.930602611197155,19.218319562078193,18.506036512959735,17.790245847179811,17.07186253751221,16.353479227845156,15.63509591817855,14.916712608512507,14.195938228308556,13.473569763411781,12.751201298515541,12.02883283361983,11.306464368724656,10.582476856142259,9.85751789046231,9.1325589247829058,8.4075999591040738,7.6826409934257809,6.9565880847055288,6.22994611382437,5.5033041429438159,4.7766621720638307,4.0500202011844086,3.3226355526146483,2.5948933080907697,1.8671510635675141,1.1394088190448552,0.41166657452281308,-0.31658761512961725,-1.0450612167503317,-1.7735348183704305,-2.5020084199898753,-3.2304820216087102,-3.9593191578616382,-4.6882941913011145,-5.417269224739945,-6.1462442581780916,-6.8752192916156041,-7.6044650586066389,-8.3338010735270842,-9.0631370884467959,-9.7924731033658521,-10.521809118284178,-11.251360113628696,-11.980973525266737,-12.710586936904054,-13.440200348540658,-14.169813760176517,-14.899610988107488,-15.629454172283483,-16.3592973564587,-17.08914054063316,-17.818983724806852,-18.548996074161767,-19.279044308977493,-20.009092543792388,-20.739140778606515,-21.469189013419822,-22.199398883685273,-22.929637279650773,-23.659875675615396,-24.39011407157918,-25.120352467542123,-25.850768143305935,-26.581209146669906,-27.311650150033028,-28.042091153395205,-28.772532156756558,-29.503121740714914,-30.23372783518807,-30.964333929660263,-31.694940024131462,-32.42554611860173,-33.156377275171195,-33.887226682317966,-34.618076089463756,-35.348925496608658,-36.079774903752607,-36.810784840111808,-37.541803226973229,-38.272821613833578,-39.003840000692854,-39.734858387551085,-40.466085530666291,-41.197318028528713,-41.928550526390104,-42.659783024250373,-43.391015522109491,0.069987723327170209,0.069987723327170209,0.069987723327170209,0.069987723327170209,0.069987723327170209,0.069987723327170209,0.069987723327170209,0.069987723327170209,0.069987723327170209,0.069987723327170209,0.069987723327170209,0.069987723327170209
DP 60,81.670198805747191,0.0018396324350063531,-100.23567003057799,-97.3250507596001,-94.414431488621048,-91.503812217641027,-88.5931929466599,-85.683405043777526,-82.806040811114684,-79.928676578450848,-77.051312345785988,-74.173948113120133,-71.300028967523261,-68.491567127523467,-65.683105287522835,-62.874643447521294,-60.066181607518793,-57.265299519861991,-54.55790199974129,-51.850504479619758,-49.143106959497139,-46.435709439373724,-43.741384402345638,-41.1647129488102,-38.588041495273949,-36.011370041736832,-33.434698588198906,-30.877641146167477,-28.457883267838458,-26.038125389508579,-23.61836751117788,-21.198609632846367,-18.805740250078834,-16.565240703199077,-14.324741156318499,-12.084241609437127,-9.8437420625549414,-7.6377785948773882,-5.5946299373905823,-3.5514812799029927,-1.5083326224146278,0.53481603507450637,2.5357616034489312,4.367892820820189,6.2000240381922014,8.0321552555649767,9.8642864729384971,11.646859410221769,13.258729523056596,14.870599635892162,16.482469748728484,18.094339861565512,19.649903764412461,21.036546908436932,22.423190052462139,23.809833196488082,25.196476340514764,26.520915506866576,27.68136023040551,28.841804953945196,30.002249677485558,31.16269440102667,32.256069718210782,33.192947640735831,34.129825563261583,35.066703485788075,36.003581408315291,36.869678094096038,37.588765537303672,38.30785298051201,39.026940423721072,39.746027866930881,40.39183271120983,40.901539321258667,41.411245931308279,41.920952541358588,42.430659151409607,42.86579140468244,43.176631183630874,43.487470962580019,43.798310741529889,44.109150520480448,44.345285762091805,44.469362432405106,44.593439102719145,44.717515773033909,44.841592443349349,44.891903775633651,44.842413304138653,44.792922832644436,44.743432361150909,44.69394188965812,44.572574741161752,44.363356811024708,44.154138880888375,43.944920950752788,43.735703020618004,43.457304121131294,43.10244066834791,42.747577215565265,42.392713762783444,42.037850310002426,40.64411510963739,40.157593471161746,39.671071832686877,39.122575723248346,38.518006357624593,37.913436992001714,37.308867626379651,36.704298260758456,36.041961141259868,35.332358503085288,34.622755864911568,33.913153226738714,33.203550588566678,32.440601263738024,31.638220902269875,30.835840540802661,30.0334601793363,29.231079817870878,28.379862549425695,27.496086573641243,26.612310597857807,25.728534622075323,24.844758646293762,23.916636010832633,22.961904708893023,22.0071734069544,21.052442105016826,20.097710803080215,19.103013044561454,18.086794305164627,17.070575565768848,16.054356826374111,15.038138086980378,13.986149317278148,12.916937439498858,11.84772556172067,10.778513683943581,9.7093018061676073,8.6082750968976747,7.4936130302493646,6.3789509636021773,5.2642888969561854,4.1496268303113073,3.0068228252165281,1.853343924847566,0.69986502447979415,-0.45361387588673607,-1.6070927762520921,-2.7853525144069,-3.9718728441322089,-5.1583931738562,-6.3449135035789519,-7.5314338333004152,-8.7397036465484845,-9.9542880912432246,-11.168872535936627,-12.3834569806287,-13.598041425319426,-14.83168309792292,-16.070089302667167,-17.30849550741004,-18.546901712151477,-19.785307916891533,-21.040422829832274,-22.299082205641685,-23.557741581449584,-24.816400957256,-26.075060333060915,-27.348415146694364,-28.62436343629965,-29.900311725903336,-31.176260015505452,-32.452208305105991,-33.741211147944348,-35.032079067978728,-36.322946988011473,-37.613814908042563,-38.904682828072026,-40.207203932574345,-41.511019957735513,-42.814835982894927,-44.118652008052479,-45.422468033208254,-46.737082932629839,-48.052573526798071,-49.368064120964547,-50.683554715129333,-51.999045309292391,-53.324526173447019,-54.650532940682524,-55.976539707916089,-57.302546475147629,-58.62855324237718,-59.96433444575073,-61.300366370447975,-62.636398295143223,-63.972430219836369,-65.3084621445275,0.13016396871741612,0.13016396871741612,0.13016396871741612,0.13016396871741612,0.13016396871741612,0.13016396871741612,0.13016396871741612,0.13016396871741612,0.13016396871741612,0.13016396871741612,0.13016396871741612,0.13016396871741612
DP 61,123.5001840127079,0.0040538196669928622,-277.54935801733279,-268.70542917356278,-259.861500329791,-251.01757148601649,-242.17364264223983,-233.33312968225155,-224.625837481586,-215.91854528091824,-207.21125308024796,-198.50396087957603,-189.810674391283,-181.38349908591064,-172.95632378053642,-164.52914847516041,-156.1019731697823,-147.70525601090603,-139.68419316416541,-131.66313031742268,-123.642067470678,-115.62100462393131,-107.65158923398108,-100.1470058369957,-92.642422440008488,-85.137839043019525,-77.63325564602863,-70.204582027400988,-63.307282597391307,-56.409983167379849,-49.512683737366594,-42.615384307351569,-35.819584783986151,-29.598957794235968,-23.378330804484047,-17.157703814730418,-10.937076824975072,-4.8430905005805416,0.65386870412210529,6.15082790882643,11.647787113532384,17.14474631824,22.491949803983967,27.240123336328082,31.988296868673785,36.736470401021158,41.484643933370073,46.063275424177483,50.057921649534762,54.052567874893548,58.047214100253875,62.041860325615822,65.85143932776252,69.105809663154986,72.360179998549128,75.614550333944678,78.868920669341819,81.927512676353672,84.469955088461177,87.0123975005702,89.554839912680634,92.097282324792573,94.438215755037746,96.308955211973412,98.179694668910614,100.05043412584925,101.92117358278934,103.58949171735861,104.83739044912866,106.08528918090025,107.33318791267325,108.58108664444781,109.63004240956249,110.30952729250464,110.98901217544825,111.6684970583934,112.34798194134004,112.83577501064951,113.00407689218304,113.17237877371809,113.34068065525469,113.50898253679277,113.49588747187133,113.21069270080028,112.92549792973094,112.64030315866289,112.35510838759642,111.9010820191328,111.21863267580223,110.53618333247306,109.8537339891454,109.17128464581937,108.33408689530241,107.30774895222075,106.28141100914054,105.25507306606202,104.22873512298507,103.06255389252576,101.74180624587716,100.42105859923024,99.100310952584721,97.779563305940968,93.193727764515373,91.623542605738763,90.053357446963787,88.373301426024582,86.593836456438652,84.814371486854384,83.034906517271835,81.255441547691021,79.38029004483495,77.426847915772711,75.473405786712348,73.519963657653619,71.566521528596681,69.530634142701189,67.4338076030008,65.336981063302261,63.240154523605511,61.143327983910595,58.976174041231275,56.762134055325724,54.548094069422156,52.334054083520456,50.120014097620704,47.846542241940142,45.537410365581536,43.228278489224891,40.9191466128703,38.610014736517641,36.251094345802542,33.865364031037025,31.479633716273625,29.093903401512236,26.708173086752872,24.281067729237488,21.834040475461002,19.387013221686754,16.939985967914691,14.492958714144837,12.011800169269906,9.5160134673333747,7.0202267653990837,4.5244400634671571,2.0286533615374549,-0.49510401451543934,-3.0294713212781241,-5.5638386280384449,-8.0982059347962885,-10.632573241551803,-13.189733647274373,-15.754492039908083,-18.319250432539189,-20.884008825167825,-23.448767217793861,-26.03201743143169,-28.620636463795694,-31.2092554961571,-33.7978745285158,-36.386493560871827,-38.990073077168233,-41.597392891207619,-44.204712705244248,-46.812032519278056,-49.419352333309106,-52.038772511106608,-54.660759571366164,-57.282746631622665,-59.904733691876331,-62.526720752127,-65.158512908277544,-67.7920354845006,-70.425558060720519,-73.059080636937409,-75.6926032131511,-78.334195422204033,-80.976940523116866,-83.61968562402663,-86.262430724933068,-88.905175825836352,-91.554498087942747,-94.204551214810763,-96.854604341675284,-99.504657468536166,-102.15471059539357,-104.81062174067895,-107.46700792028852,-110.12339409989468,-112.77978027949754,-115.43616645909691,-118.09747273817733,-120.75903801881095,-123.42060329944074,-126.08216858006654,-128.74373386068859,-131.41004411892987,-134.07647608926021,-136.74290805958626,-139.40934002990849,-142.07577200022664,0.25746871517548425,0.25746871517548425,0.25746871517548425,0.25746871517548425,0.25746871517548425,0.25746871517548425,0.25746871517548425,0.25746871517548425,0.25746871517548425,0.25746871517548425,0.25746871517548425,0.25746871517548425
DP 62,146.35816149542515,0.0049037142399306066,-363.51286170135137,-351.4282658721508,-339.3436700429483,-327.25907421374279,-315.17447838453472,-303.09521217934815,-291.22380332616615,-279.35239447298193,-267.48098561979435,-255.6095767666047,-243.75992151399254,-232.32358878475756,-220.88725605552006,-209.45092332628056,-198.0145905970387,-186.62526218166246,-175.81565956119704,-165.0060569407292,-154.19645432025922,-143.38685169978672,-132.65624457311108,-122.63660435737644,-112.61696414163973,-102.59732392590092,-92.577683710159889,-82.672862119259079,-73.5717795844849,-64.470697049708676,-55.369614514930305,-46.268531980149916,-37.318925821565351,-29.227695339915346,-21.136464858263306,-13.04523437660926,-4.954003894953205,2.9511451729460694,9.9790432396234579,17.006941306302796,24.034839372984088,31.062737439667309,37.874420956039472,43.821236052739216,49.768051149440851,55.714866246144368,61.661681342849754,67.36842985218324,72.248272253289329,77.128114654397336,82.007957055507148,86.887799456618907,91.511101023776575,95.36477038965657,99.21843975553837,103.07210912142212,106.92577848730758,110.51419192043,113.40328514088797,116.29237836134793,119.18147158180943,122.07056480227263,124.69321851613532,126.69417165320726,128.69512479028089,130.69607792735636,132.69703106443353,134.43715337127134,135.63554252175825,136.83393167224682,138.03232082273692,139.2307099732289,140.17960071873483,140.6651305455886,141.15066037244415,141.63619019930144,142.12172002616055,142.37354657351116,142.23586176437527,142.09817695524112,141.96049214610878,141.82280733697812,141.47036758075956,140.79579032918943,140.12121307762143,139.44663582605486,138.77205857449039,137.90357818992203,136.77275396000968,135.64192973009926,134.51110550019058,133.3802812702836,132.07719789168971,130.56357193533952,129.04994597899102,127.53632002264438,126.02269406629959,124.3583162447739,122.52731494084132,120.69631363691049,118.86531233298153,117.03431102905449,110.89078309851213,108.7995716951813,106.70836029185243,104.50631114137349,102.20397822413875,99.90164530690582,97.599312389675134,95.296979472446253,92.901355785094921,90.429401682562727,87.95744758003255,85.4854934775044,83.013539374978379,80.463942941992173,77.85695742321613,75.249971904442376,72.64298638567054,70.036000866901,67.365070752541314,64.651509900436835,61.937949048334524,59.2243881962344,56.510827344136544,53.745113667467514,50.948107507330093,48.151101347194889,45.354095187062114,42.557089026931557,39.717928473174091,36.856068786775509,33.994209100379422,31.132349413985708,28.270489727594285,25.374836612514407,22.462912114113067,19.550987615714291,16.639063117318017,13.727138618924347,10.788322551692323,7.8379811632712819,4.887639774852822,1.9372983864370912,-1.0130430019760808,-3.9846465767713037,-6.9643153960165725,-9.94398421525912,-12.923653034498809,-15.903321853735823,-18.899714644548155,-21.9016823033194,-24.903649962087645,-27.90561762085305,-30.907585279615503,-33.922659160708569,-36.9415382339359,-39.960417307160192,-42.979296380381413,-45.998175453599544,-49.027309873665658,-52.05900825160942,-55.090706629550084,-58.122405007487522,-61.154103385421749,-64.193840288453444,-67.235282425267926,-70.276724562079082,-73.318166698886813,-76.359608835691233,-79.407374314299688,-82.4562557470694,-85.5051371798355,-88.554018612598057,-91.602900045356975,-94.656881112819747,-97.711590754611066,-100.76630039639883,-103.82101003818273,-106.87571967996286,-109.93443661263433,-112.99359884193169,-116.05276107122484,-119.11192330051387,-122.17108552979886,-125.2338946120003,-128.29699942224048,-131.36010423247671,-134.42320904270926,-137.4863138529378,-140.55231625849012,-143.61847119788476,-146.68462613727502,-149.75078107666084,-152.81693601604206,-155.88595277092065,-158.95504293342304,-162.02413309592089,-165.09322325841396,-168.16231342090242,0.29562922446208184,0.29562922446208184,0.29562922446208184,0.29562922446208184,0.29562922446208184,0.29562922446208184,0.29562922446208184,0.29562922446208184,0.29562922446208184,0.29562922446208184,0.29562922446208184,0.29562922446208184
DP 63,56.766921310558864,0.0055611920354430187,-237.51753104073049,-231.09315743893811,-224.66878383714223,-218.24441023534371,-211.82003663354223,-205.39711022922273,-199.03062507398644,-192.66413991874759,-186.29765476350545,-179.93116960826043,-173.57073731176447,-167.32531047579846,-161.07988363982994,-154.83445680385864,-148.58902996788495,-142.35701719777336,-136.29044626387642,-130.22387532997683,-124.15730439607441,-118.09073346216944,-112.04755181302758,-106.21487593756098,-100.38220006209187,-94.549524186620346,-88.716848311146279,-82.9197066911805,-77.371307546779136,-71.8229084023754,-66.274509257969214,-60.726110113560544,-55.227173111966557,-50.00852470314576,-44.789876294322617,-39.571227885497152,-34.352579476669334,-29.198594915101285,-24.349457697539293,-19.500320479975024,-14.651183262408484,-9.80204604483969,-5.0335336988133115,-0.58752464934074322,3.8584844001340448,8.3044934496110674,12.750502499090267,17.099687785404903,21.115364931083725,25.131042076764711,29.146719222447874,33.1623963681332,37.065310179230487,40.629929723151854,44.194549267075445,47.759168811001182,51.323788354929015,54.760437132938634,57.859704038636529,60.958970944336563,64.058237850038637,67.1575047557429,70.114729057863244,72.740516142943008,75.366303228024819,77.992090313108818,80.617877398194921,83.089047371368721,85.239084999928238,87.389122628489787,89.539160257053567,91.689197885619421,93.673796819720437,95.351147996256287,97.0284991727943,98.705850349334412,100.38320152587687,101.88625456498556,103.09880631507593,104.31135806516853,105.52390981526348,106.73646156536041,107.76793042068806,108.52777065482226,109.28761088895875,110.04745112309733,110.8072913572382,111.38138323612286,111.70416438562704,112.02694553513338,112.34972668464221,112.67250783415327,112.80697603919806,112.71128002332884,112.61558400746206,112.51988799159763,112.42419197573548,112.13962986677885,111.64631726506906,111.15300466336166,110.65969206165666,110.16637945995396,107.74874058503144,106.8803468463521,106.01195310767523,104.95905695926149,103.73922673739656,102.5193965155343,101.29956629367454,100.07973607181766,98.679941267236075,97.132899620344176,95.585857973454992,94.038816326568735,92.491774679685122,90.7705864711565,88.920678376104277,87.070770281054948,85.220862186008432,83.37095409096483,81.35376495773852,79.225052497126882,77.096340036518257,74.9676275759127,72.838915115310115,70.550593686262445,68.166504462322862,65.782415238386363,63.398326014453069,61.014236790522936,58.47878601726763,55.861830670245048,53.244875323225983,50.627919976210322,48.010964629197943,45.251245890573337,42.422787223522668,39.594328556475546,36.765869889431912,33.93741122239183,30.974923675425153,27.954993370127507,24.935063064833528,21.915132759543308,18.895202454256673,15.749917257043709,12.557082018250334,9.3642467794607889,6.1714115406752175,2.978576301893431,-0.33118067129719986,-3.6799130294970923,-7.0286453876927784,-10.377377745884449,-13.726110104071967,-17.183737530679707,-20.672980982680887,-24.162224434677746,-27.651467886670336,-31.1407113386586,-34.731379688996633,-38.347405462267304,-41.963431235533513,-45.57945700879511,-49.195482782052188,-52.906155996089552,-56.636907024370835,-60.367658052647165,-64.098409080918827,-67.829160109185565,-71.64857455281259,-75.483636467447454,-79.3186983820771,-83.1537602967017,-86.988822211321235,-90.907599527318453,-94.838337090692917,-98.769074654062223,-102.69981221742614,-106.63054978078478,-110.64076147105226,-114.65980445452415,-118.67884743799034,-122.69789042145052,-126.71693340490502,-130.81305655912934,-134.915430244568,-139.01780393000089,-143.12017761542859,-147.22255130085048,-151.39984272500524,-155.58107793343487,-159.76231314185813,-163.94354835027491,-168.12478355868521,-172.38096246749339,-176.63906373617806,-180.89716500485619,-185.15526627352747,-189.41336754219225,0.42010021052393948,0.42010021052393948,0.42010021052393948,0.42010021052393948,0.42010021052393948,0.42010021052393948,0.42010021052393948,0.42010021052393948,0.42010021052393948,0.42010021052393948,0.42010021052393948,0.42010021052393948
DP 64,54.1857421665025,0.0019364711099303536,-79.956029771402029,-77.811781803045577,-75.66753383468803,-73.523285866329473,-71.379037897969937,-69.235259317894887,-67.109787058424772,-64.984314798953719,-62.858842539481635,-60.733370280008458,-58.609863695780376,-56.523705312821569,-54.437546929861952,-52.3513885469014,-50.26523016393994,-48.183432517902936,-46.155417843519785,-44.127403169135718,-42.099388494750734,-40.071373820364791,-38.050970121156269,-36.09906591795049,-34.147161714743852,-32.19525751153639,-30.243353308328025,-28.303028656659528,-26.443761741385128,-24.584494826109925,-22.725227910833873,-20.865960995556975,-19.02283834593857,-17.27120088570523,-15.519563425471084,-13.767925965236131,-12.016288505000372,-10.285795236831973,-8.6549828733119938,-7.0241705097912348,-5.3933581462696933,-3.7625457827473689,-2.1581537373758781,-0.65944421324932878,0.83926531087798761,2.3379748350060718,3.8366843591349151,5.3035896918699352,6.6609459181716346,8.0183021444740827,9.3756583707773018,10.733014597081253,12.053234869589081,13.262045876653989,14.470856883719657,15.679667890786062,16.888478897853211,18.055024175657312,19.110140169037891,20.165256162419208,21.220372155801261,22.275488149184056,23.283547722578497,24.181807500057296,25.080067277536816,25.978327055017086,26.876586832498106,27.723453160557938,28.4635777528141,29.203702345071036,29.943826937328677,30.683951529587112,31.368891439367154,31.951344019938833,32.533796600511288,33.11624918108447,33.698701761658405,34.222797891283619,34.649631798416053,35.076465705549282,35.503299612683264,35.930133519817979,36.2960995351026,36.570762274286636,36.845425013471477,37.120087752657035,37.394750491843411,37.606720036559977,37.733867982680486,37.861015928801834,37.98816387492397,38.115311821046873,38.1786247176566,38.163915657359027,38.14920659706231,38.134497536766396,38.119788476471278,38.040768278504189,37.890666069686979,37.740563860870658,37.590461652055133,37.440359443240496,36.669254222347874,36.390832333179105,36.112410444011246,35.770559370745971,35.371318846079163,34.972078321413242,34.572837796748267,34.173597272084208,33.712174503982432,33.1998742862439,32.687574068506329,32.175273850769692,31.662973633034017,31.090186140364157,30.472689667556413,29.855193194749724,29.237696721944019,28.620200249139312,27.944284155586669,27.229420727888051,26.514557300190454,25.7996938724939,25.084830444798431,24.313913460451939,23.5093634943964,22.704813528341948,21.900263562288615,21.095713596236383,20.237696161127346,19.350887772864681,18.464079384603195,17.577270996342907,16.690462608083749,15.752919079793676,14.790946810668666,13.828974541544889,12.867002272422338,11.90503000330102,10.895128476258154,9.86468519148905,8.8342419067212141,7.8037986219546962,6.77335533718945,5.6977940700475322,4.6051184972325929,3.5124429244189965,2.4197673516067844,1.3270917787959002,0.19205192003642371,-0.95710990128066253,-2.1062717225962748,-3.25543354391048,-4.4045953652232317,-5.59348464464784,-6.793908186759519,-7.9943317288696978,-9.1947552709783746,-10.395178813085517,-11.632864512563573,-12.87986619164046,-14.126867870715813,-15.373869549789518,-16.620871228861645,-17.90289161823145,-19.192340620088039,-20.481789621942905,-21.771238623796126,-23.060687625647649,-24.383171566046606,-25.711485568834593,-27.039799571620762,-28.368113574405204,-29.696427577187819,-31.056140921742102,-32.420340225736346,-33.784539529728832,-35.148738833719371,-36.512938137708133,-37.907136264660245,-39.304667909219852,-40.702199553777433,-42.099731198332904,-43.497262842886393,-44.9240330516042,-46.353174253486,-47.782315455365861,-49.211456657243794,-50.6405978591198,-52.098288570070686,-53.557482170815859,-55.016675771558766,-56.475869372299371,-57.9350629730378,-59.422882555874757,-60.911436415764044,-62.399990275651014,-63.888544135535625,-65.3770979954179,0.14714478730351391,0.14714478730351391,0.14714478730351391,0.14714478730351391,0.14714478730351391,0.14714478730351391,0.14714478730351391,0.14714478730351391,0.14714478730351391,0.14714478730351391,0.14714478730351391,0.14714478730351391
DP 65,161.40163371544537,0.001132189428293234,-87.5600244681487,-84.573882848624081,-81.587741229098839,-78.601599609573015,-75.615457990046693,-72.630740929659652,-69.701582214339211,-66.772423499018174,-63.843264783696455,-60.914106068374288,-57.990745041268568,-55.177541186296637,-52.36433733132413,-49.551133476351161,-46.737929621377624,-43.937201085168695,-41.290336385972182,-38.643471686775115,-35.996606987577522,-33.3497422883794,-30.723721485941493,-28.285297724539983,-25.84687396313798,-23.408450201735544,-20.970026440332585,-18.56167908179377,-16.363868817592241,-14.166058553390235,-11.968248289187757,-9.7704380249848164,-7.6119600745708338,-5.6763677141203877,-3.7407753536694859,-1.8051829932181325,0.13040936723367716,2.0181709505046093,3.6804420007664524,5.3427130510287366,7.0049841012914627,8.6672551515546239,10.274581056811344,11.662123785302244,13.049666513793573,14.43720924228532,15.824751970777491,17.152054477020208,18.271860353747222,19.391666230474655,20.511472107202511,21.631277983930779,22.687587203267437,23.553404049717994,24.419220896169012,25.2850377426204,26.150854589072196,26.951980945946609,27.582557424982621,28.213133904019074,28.843710383055914,29.474286862093102,30.040896578405544,30.45824849962284,30.875600420840563,31.292952342058687,31.710304263277209,32.066065345892696,32.293905203213974,32.521745060535586,32.749584917857661,32.977424775180062,33.147364035046316,33.209772050256817,33.27218006546768,33.334588080678941,33.39699609589065,33.406140639185729,33.326511386746915,33.246882134308493,33.167252881870496,33.087623629432869,32.959957941731368,32.76023646601957,32.560514990308192,32.360793514597205,32.16107203888663,31.918808556670175,31.618987295976783,31.319166035283825,31.01934477459125,30.71952351389908,30.382652275101382,30.00049695150695,29.618341627912898,29.236186304319279,28.85403098072609,28.440104734135566,27.991062624648549,27.542020515161898,27.092978405675705,26.643936296189924,25.162532699029526,24.659779580527697,24.157026462026309,23.631874410450269,23.086456254250162,22.54103809805051,21.9956199418513,21.450201785652528,20.886332077804536,20.307365328778033,19.728398579751978,19.149431830726378,18.57046508170124,17.976473126348793,17.371375336719904,16.766277547091519,16.161179757463561,15.556081967836136,14.938879575466958,14.313607257246741,13.688334939027017,13.063062620807797,12.437790302589072,11.802862438208429,11.162141100106416,10.521419762004902,9.8806984239039419,9.23997708580347,8.59162332552877,7.9391596884797178,7.2866960514312309,6.6342324143832654,5.9817687773358124,5.3233212098539608,4.6619924068880536,4.00066360392272,3.3393348009579551,2.6780059979937643,2.0120192340835552,1.3440361383003598,0.67605304251774545,0.0080699467357415976,-0.65991314904569,-1.3315003818474116,-2.004454748093258,-2.6774091143384942,-3.3503634805830984,-4.0233178468270934,-4.6990486254814456,-5.3757049099294205,-6.0523611943767195,-6.7290174788233967,-7.40567376326939,-8.0844636392941478,-8.7638729711534324,-9.4432823030120474,-10.122691634869978,-10.802100966727222,-11.483150502998447,-12.164610109751841,-12.846069716504539,-13.527529323256511,-14.208988930007758,-14.891715240356445,-15.574710259919771,-16.25770527948233,-16.940700299044163,-17.623695318605179,-18.307674907959061,-18.991828255871294,-19.675981603782738,-20.360134951693368,-21.04428829960321,-21.729234464588185,-22.414293897718927,-23.099353330848885,-23.784412763977969,-24.469472197106242,-25.155144511437292,-25.840884930115617,-26.526625348793029,-27.212365767469517,-27.89810618614511,-28.584426167766711,-29.270793146900015,-29.957160126032459,-30.643527105164036,-31.329894084294747,-32.0167061032193,-32.70354154971789,-33.3903769962155,-34.077212442712067,-34.764047889207639,-35.451337504871908,-36.138638770301363,-36.825940035729765,-37.513241301157187,-38.200542566583529,0.0661259578994884,0.0661259578994884,0.0661259578994884,0.0661259578994884,0.0661259578994884,0.0661259578994884,0.0661259578994884,0.0661259578994884,0.0661259578994884,0.0661259578994884,0.0661259578994884,0.0661259578994884
DP 66,114.07989252929893,0.0048928649124155149,-321.89867074226174,-311.83411748520405,-301.76956422814362,-291.70501097108041,-281.64045771401447,-271.57956387311839,-261.66138864652766,-251.74321341993459,-241.82503819333857,-231.90686296674005,-222.0037247176827,-212.386291884588,-202.76885905149092,-193.15142621839138,-183.53399338528934,-173.94934579813321,-164.76905370953685,-155.5887616209381,-146.40846953233702,-137.22817744373322,-128.10368697767893,-119.48141638902554,-110.85914580036997,-102.2368752117121,-93.614604623052031,-85.074731669816174,-77.111648395219177,-69.148565120620049,-61.185481846018675,-53.222398571415169,-45.37010219396474,-38.145605214861938,-30.921108235757071,-23.696611256650144,-16.47211427754111,-9.3867421332439385,-2.9572517246341246,3.4722386839777348,9.9017290925916068,16.331219501207467,22.594981049361724,28.195819323223276,33.796657597086813,39.397495870952348,44.998334144819751,50.410017878094791,55.170161358611821,59.9303048391308,64.69044831965158,69.45059180017445,74.002420291998391,77.929295941654829,81.8561715913132,85.783047240973445,89.70992289063561,93.414302021660177,96.532091774230054,99.649881526802,102.76767127937549,105.88546103195104,108.77188355102226,111.11844190221835,113.46500025341622,115.81155860461593,118.15811695581732,120.26972357172751,121.89334667344596,123.51696977516625,125.14059287688826,126.76421597861224,128.15426957227791,129.11054491461945,130.06682025696287,131.02309559930811,131.97937094165516,132.70788521158107,133.05679195327579,133.40569869497236,133.75460543667083,134.10351217837115,134.23419055849538,134.03752123945864,133.84085192042377,133.6441826013907,133.44751328235938,133.04509980694681,132.36432201474318,131.6835442225414,131.00276643034152,130.32198863814349,129.45010482339222,128.344642966953,127.23918111051572,126.13371925408019,125.02825739764675,123.74771911159991,122.27367181420826,120.79962451681845,119.32557721943044,117.85152992204466,112.63766304974158,110.84692516162767,109.0561872735157,107.12394218318762,105.06366421934665,103.00338625550785,100.94310829167107,98.882830327836345,96.697497747340307,94.409845604067073,92.122193460796026,89.834541317527183,87.546889174260542,85.149873121558031,82.672021077151754,80.194169032747922,77.716316988346179,75.238464943946781,72.665902462453317,70.030198197542234,67.394493932633523,64.758789667727115,62.123085402823172,59.406108118412384,56.6403657931764,53.87462346794284,51.108881142711816,48.343138817483165,45.508246966655427,42.636119750338544,39.763992534024361,36.891865317712664,34.019738101403348,31.08924010055528,28.130636830520405,25.1720335604883,22.213430290458888,19.254827020432231,16.247306806351691,13.218821527152446,10.19033624795599,7.1618509687624385,4.1333656895716295,1.0641519805965929,-2.0205109741147167,-5.1051739288231062,-8.1898368835284412,-11.274499838230895,-14.392883984058971,-17.522508951908655,-20.6521339197551,-23.781758887598496,-26.911383855438732,-30.068804801702186,-33.234295887157828,-36.399786972610194,-39.56527805805927,-42.730769143505022,-45.919106739282725,-49.1131562325752,-52.307205725864307,-55.501255219149954,-58.695304712432126,-61.908123969399263,-65.124924906434543,-68.341725843466136,-71.558526780494262,-74.7753277175186,-78.007576871255822,-81.2425523526665,-84.477527834073229,-87.712503315476241,-90.947478796875288,-94.195339925321562,-97.445041999681379,-100.69474407403732,-103.94444614838926,-107.19414822273706,-110.45454655915761,-113.71613348147369,-116.97772040378537,-120.23930732609266,-123.50089424839558,-126.77202609608874,-130.04393195418231,-133.31583781227164,-136.58774367035684,-139.8596495284379,-143.13975729786026,-146.42029682842784,-149.70083635899061,-152.98137588954847,-156.26191542010139,-159.55035108120407,-162.83898928373654,-166.12762748626389,-169.41626568878635,-172.70490389130384,0.31797523281247325,0.31797523281247325,0.31797523281247325,0.31797523281247325,0.31797523281247325,0.31797523281247325,0.31797523281247325,0.31797523281247325,0.31797523281247325,0.31797523281247325,0.31797523281247325,0.31797523281247325
DP 67,290.904685731468,0.0030410274178061425,-289.93624591540851,-278.21523017837433,-266.4942144413389,-254.77319870430242,-243.05218296726409,-231.34037115956494,-219.98751607599644,-208.63466099242709,-197.28180590885609,-185.92895082528369,-174.61271444190473,-163.99224028471474,-153.37176612752347,-142.75129197033107,-132.13081781313747,-121.58638581125035,-111.979816641624,-102.37324747199654,-92.766678302367652,-83.160109132737631,-73.674489971338886,-65.27743231637281,-56.880374661405611,-48.483317006437325,-40.086259351467916,-31.85329237129287,-24.768972522718695,-17.684652674143443,-10.600332825567106,-3.51601297698968,3.3689284249256408,9.1240460654296331,14.879163705934662,20.634281346440744,26.389398986947885,31.92168908759022,36.403494464912967,40.885299842236762,45.367105219561495,49.848910596887315,54.097819832568476,57.415133494864392,60.73244715716131,64.049760819459166,67.367074481758053,70.454167491723055,72.748268583327587,75.042369674933056,77.336470766539449,79.630571858146752,81.707680285438187,83.133802515623074,84.559924745808942,85.986046975995777,87.4121692061834,88.64206437542299,89.3546269121242,90.067189448826483,90.779751985529558,91.492314522233585,92.033793981183763,92.176074201719118,92.3183544222554,92.460634642792584,92.602914863330611,92.600810839829748,92.298827648751711,91.996844457674541,91.694861266598238,91.392878075522958,90.97255464668136,90.332453294658734,89.692351942637018,89.052250590616154,88.412149238596115,87.677584263929518,86.785577537169559,85.893570810410466,85.001564083652241,84.1095573568948,83.143936406379652,82.067892380702645,80.99184835502659,79.915804329351417,78.839760303677039,77.707593762870289,76.499495512233992,75.291397261598675,74.083299010964168,72.875200760330642,71.6251654461229,70.323872840004881,69.02258023388778,67.721287627771645,66.419995021656291,65.087936201809441,63.721872007194662,62.355807812580757,60.989743617967783,59.623679423355775,55.414516472012835,54.004064046487869,52.593611620963877,51.167392801143976,49.726908864531396,48.286424927919718,46.845940991309092,45.405457054699411,43.953926535574588,42.493357713640229,41.032788891706808,39.572220069774417,38.111651247843085,36.643435862249227,35.169568543033378,33.695701223818631,32.221833904604942,30.74796658539233,29.268858914306346,27.786257592751276,26.303656271197259,24.821054949644342,23.338453628092548,21.852286375555693,20.363979510499391,18.875672645444229,17.387365780390247,15.899058915337354,14.408332511687453,12.916303244378531,11.424273977070852,9.9322447097643423,8.440215442458987,6.9465387444080324,5.4520688158924795,3.9575988873781975,2.4631289588651466,0.96865903035336065,-0.52694736270241249,-2.0230408273362,-3.5191342919687196,-5.0152277565999022,-6.5113212212298341,-8.0082197519110583,-9.50542366296893,-11.00262757402548,-12.499831485080623,-13.997035396134454,-15.494835019427413,-16.992833220973488,-18.490831422518081,-19.98882962406131,-21.486827825603047,-22.985294191480278,-24.483896481744289,-25.98249877200681,-27.481101062267836,-28.979703352527359,-30.4787008466452,-31.977797146395773,-33.476893446144778,-34.975989745892221,-36.475086045638108,-37.974541419727728,-39.474072965215065,-40.9736045107007,-42.473136056184721,-43.9726676016671,-45.47253879127905,-46.972469921865823,-48.472401052450856,-49.972332183034162,-51.472263313615677,-52.972563485117725,-54.472916380736208,-55.973269276352887,-57.4736221719678,-58.973975067580895,-60.474636292421707,-61.975331779302152,-63.476027266180594,-64.976722753056976,-66.477418239931424,-67.978578176492846,-69.479775775881308,-70.980973375267709,-72.482170974652362,-73.9833685740351,-75.484897325413073,-76.98644350913618,-78.487989692857042,-79.989535876575729,-81.4910820602922,-82.993058102585337,-84.49504517105818,-85.997032239528849,-87.499019307997187,-89.0010063764633,0.14377438325109757,0.14377438325109757,0.14377438325109757,0.14377438325109757,0.14377438325109757,0.14377438325109757,0.14377438325109757,0.14377438325109757,0.14377438325109757,0.14377438325109757,0.14377438325109757,0.14377438325109757
DP 68,67.107282519114364,0.0014277753941840661,-68.538024693461807,-66.6246585677873,-64.711292442112125,-62.79792631643604,-60.884560190759132,-58.971673331249626,-57.077478033500519,-55.183282735750645,-53.289087437999925,-51.394892140248416,-49.502692282744412,-47.648406167177896,-45.794120051610761,-43.93983393604293,-42.085547820474424,-40.235670484236351,-38.440168648712664,-36.64466681318828,-34.849164977663136,-33.0536631421373,-31.26581292001153,-29.546827941731575,-27.827842963450976,-26.108857985169742,-24.389873006887825,-22.682452243760657,-21.055981861170917,-19.42951147858054,-17.803041095989528,-16.176570713397879,-14.566094722999335,-13.046254629570296,-11.52641453614063,-10.006574442710363,-8.4867343492794767,-6.9876498457635785,-5.5864142443306877,-4.1851786428971911,-2.7839430414630932,-1.3827074400284072,-0.0071337148957413112,1.265791292232171,2.5387162993606678,3.8116413064897494,5.084566313619403,6.3269607238407337,7.464192906582201,8.6014250893242323,9.7386572720668347,10.875889454810013,11.977933455627713,12.974411580257163,13.970889704887187,14.967367829517752,15.9638459541489,16.920836981953538,17.77372430635484,18.626611630756692,19.479498955159091,20.332386279562051,21.141977683606495,21.85054390935403,22.559110135102134,23.267676360850778,23.976242586599991,24.63828883116927,25.203715300327175,25.769141769485604,26.3345682386446,26.899994707804151,27.416332125059697,27.841502834506958,28.266673543954727,28.69184425340304,29.117014962851908,29.491220616537976,29.780483226012578,30.069745835487758,30.359008444963475,30.648271054439778,30.885394813524631,31.04430906496664,31.203223316409233,31.362137567852351,31.52105181929608,31.627341161195314,31.662430925671941,31.697520690149091,31.732610454626872,31.767700219105205,31.750330155608765,31.668841422685055,31.587352689761971,31.505863956839463,31.424375223917544,31.291186698933871,31.100855269730033,30.910523840526782,30.720192411324142,30.529860982122173,29.706812256667451,29.415658861732698,29.124505466798638,28.784683195689585,28.400826303234549,28.016969410780135,27.633112518326442,27.249255625873374,26.818842974071408,26.350338446347479,25.881833918624242,25.413329390901684,24.944824863179853,24.432167453678648,23.886874579666156,23.341581705654374,22.796288831643334,22.250995957633009,21.664162899512224,21.049635730914112,20.435108562316763,19.82058139372015,19.206054225124319,18.552733451254831,17.876135927531244,17.19953840380844,16.522940880086459,15.846343356365244,15.133762580213167,14.401805683340783,13.669848786469268,12.937891889598564,12.205934992728675,11.440806836724803,10.659706869229792,9.87860690173567,9.0975069342424337,8.3164069667500868,7.5048931342755605,6.680344377559102,5.8557956208435655,5.0312468641289589,4.2066981074152654,3.3543915118565941,2.49155571898484,1.6287199261140457,0.76588413324425053,-0.096951659624598854,-0.98503134991722852,-1.881525990827811,-2.7780206317373373,-3.6745152726458605,-4.57100991355334,-5.4904100284678377,-6.4164603990674269,-7.342510769665946,-8.26856114026339,-9.1946115108597528,-10.141432195348637,-11.093445703713781,-12.045459212077828,-12.997472720440717,-13.949486228802463,-14.920361744550203,-15.895238508270635,-16.870115271989839,-17.844992035707872,-18.819868799424679,-19.811939201541289,-20.807043966334636,-21.802148731126682,-22.797253495917495,-23.792358260706994,-24.803277096311692,-25.816455255718854,-26.829633415124764,-27.842811574529293,-28.855989733932581,-29.883799563682302,-30.913235288247126,-31.942671012810525,-32.972106737372435,-34.001542461932914,-35.044893774199366,-36.089373519555991,-37.133853264911217,-38.178333010265092,-39.222812755617589,-40.280556083082949,-41.338997625783087,-42.397439168481533,-43.455880711178395,-44.514322253873644,-45.585907195833379,-46.657829275447327,-47.729751355059619,-48.801673434670263,-49.873595514279259,0.10508311349448553,0.10508311349448553,0.10508311349448553,0.10508311349448553,0.10508311349448553,0.10508311349448553,0.10508311349448553,0.10508311349448553,0.10508311349448553,0.10508311349448553,0.10508311349448553,0.10508311349448553
DP 69,205.05089147523788,0.0039082494915603791,-332.00420409886976,-319.91106852788607,-307.81793295690017,-295.72479738591255,-283.63166181492289,-271.54555641309292,-259.73363026657643,-247.921704120058,-236.10977797353786,-224.29785182701551,-212.51431071621226,-201.27009065007849,-190.02587058394323,-178.78165051780621,-167.5374304516676,-156.35355711938047,-145.9139677766812,-135.47437843398021,-125.03478909127746,-114.59519974857301,-104.25476396287883,-94.806719562405362,-85.35867516193052,-75.910630761454,-66.462586360975934,-57.154640757798504,-48.827397329576463,-40.500153901352839,-32.172910473127679,-23.845667044901013,-15.697087907631609,-8.5609510108310936,-1.4248141140290911,5.7113227827743982,12.847459679579373,19.772537065723352,25.70260821612251,31.632679366523103,37.562750516925185,43.49282166732862,49.188214131944271,53.9448807623564,58.701547392769925,63.458214023184851,68.214880653601114,72.723320226579418,76.376745062732169,80.030169898886314,83.683594735041822,87.3370195711987,90.738787498377349,93.3855751838603,96.032362869344553,98.679150554830173,101.32593824031707,103.7268028505213,105.47931635500525,107.23182985949055,108.9843433639772,110.73685686846515,112.25670934731828,113.23367876922833,114.2106481911397,115.18761761305241,116.16458703496637,116.92770828004889,117.24667709227458,117.56564590450161,117.8846147167299,118.20358352895941,118.331036256628,118.10281108373562,117.87458591084452,117.64636073795472,117.41813556506611,117.02238770450904,116.34743114198884,115.67247457946989,114.99751801695228,114.32256145443591,113.50418300789055,112.4706683462023,111.43715368451537,110.40363902282968,109.37012436114532,108.21621441906012,106.89941406704513,105.58261371503131,104.26581336301881,102.94901301100775,101.53296000660831,99.99559612007387,98.458232233540869,96.920868347009034,95.383504460478591,93.765672335991056,92.058900031456915,90.352127726923968,88.645355422392441,86.938583117862322,81.497066276202034,79.661813757566648,77.826561238932769,75.940751689144946,74.009199153321816,72.077646617500065,70.146094081679877,68.214541545860925,66.243721796587991,64.240773652383766,62.237825508181004,60.234877363979685,58.231929219779829,56.198850842209758,54.143501796854487,52.088152751500921,50.032803706148762,47.977454660798116,45.89924154266938,43.805785349166243,41.712329155664712,39.618872962164758,37.5254167686664,35.414782760557785,33.293841803897223,31.172900847238282,29.051959890581045,26.931018933925451,24.797284103710592,22.656660078612166,20.516036053515563,18.375412028420673,16.234788003327431,14.084703573678478,11.930064001954346,9.7754244302320465,7.6207848585115459,5.4661452867928828,3.3045462411566042,1.1399644698686835,-1.0246173014173872,-3.1891990727015047,-5.3537808439838,-7.523469494923182,-9.6950953047254416,-11.866721114525758,-14.03834692432403,-16.209972734120402,-18.385350821172313,-20.561979714597289,-22.738608608020108,-24.915237501440913,-27.091866394859615,-29.271270053004738,-31.451479321846062,-33.631688590685258,-35.811897859522247,-37.99210712835707,-40.174396097082273,-42.357205015350232,-44.54001393361596,-46.722822851879357,-48.905631770140474,-51.090035855894257,-53.274778328784208,-55.459520801671694,-57.644263274556771,-59.829005747439531,-62.015002249334749,-64.201220064410421,-66.387437879483542,-68.5736556945541,-70.759873509622139,-72.947165714457313,-75.134611415148754,-77.322057115837509,-79.509502816523664,-81.6969485172072,-83.885222039544686,-86.073587550757608,-88.261953061967475,-90.450318573174442,-92.63868408437861,-94.828003209824232,-97.017399665085478,-99.206796120344066,-101.39619257559984,-103.58558903085265,-105.77567166029451,-107.96579041099137,-110.15590916168495,-112.3460279123754,-114.53614666306264,-116.72706339555369,-118.91800059684967,-121.10893779814205,-123.29987499943118,-125.49081220071703,0.21028616432820721,0.21028616432820721,0.21028616432820721,0.21028616432820721,0.21028616432820721,0.21028616432820721,0.21028616432820721,0.21028616432820721,0.21028616432820721,0.21028616432820721,0.21028616432820721,0.21028616432820721
DP 70,71.957004110567482,0.002940619747757489,-147.85592600573619,-143.67141342870329,-139.48690085166865,-135.30238827463248,-131.11787569759457,-126.93446026967891,-122.79383407241184,-118.65320787514327,-114.51258167787277,-110.37195548060093,-106.23588987712901,-102.18647641803395,-98.137062958937392,-94.087649499839543,-90.0382360407402,-85.998885000535054,-82.083638394858525,-78.16839178918039,-74.25314518350082,-70.337898577819729,-66.440078104966574,-62.69909447471548,-58.958110844462986,-55.217127214209171,-51.476143583954,-47.761432312930509,-44.230629543172434,-40.699826773413022,-37.169024003652268,-33.638221233890221,-30.143648639216842,-26.85438265306421,-23.565116666910317,-20.275850680755131,-16.986584694598672,-13.744172910739417,-10.72264775412242,-7.7011225975041446,-4.6795974408846526,-1.6580722842639288,1.3057500281424195,4.0387582366183183,6.7717664450954294,9.50477465357374,12.237782862053248,14.902440594125892,17.331666036098529,19.760891478072324,22.190116920047316,24.619342362023477,26.970165645401693,29.085779488719247,31.201393332038002,33.317007175357908,35.432621018678979,37.460715675584566,39.2580749237886,41.055434171993809,42.852793420200136,44.650152668407664,46.352089346468283,47.831370354368758,49.310651362270335,50.78993237017302,52.269213378076934,53.646582221176033,54.812284373417604,55.977986525660242,57.143688677904123,58.309390830149042,59.368239572658879,60.228643382830221,61.089047193002692,61.9494510031763,62.809854813351066,63.560065411996511,64.126617880603334,64.693170349211272,65.2597228178203,65.826275286430587,66.280893520732377,66.567607758534066,66.854321996336964,67.141036234141026,67.427750471946311,67.602319099029842,67.6251588174595,67.647998535890409,67.67083825432249,67.693677972755651,67.6055812340517,67.381893161993816,67.158205089937184,66.934517017881745,66.710828945827558,66.3786818959522,65.926656975503462,65.474632055055963,65.022607134609785,64.5705822141649,62.690086594421459,62.028292934067565,61.366499273714879,60.60430678190896,59.75127544453899,58.898244107170434,58.045212769803214,57.192181432437366,56.243951012509,55.21782879806225,54.191706583616778,53.165584369172876,52.139462154730332,51.023869150595026,49.842144092012866,48.660419033432213,47.478693974852966,46.296968916275262,45.031847532054094,43.711127283619092,42.3904070351857,41.069686786753834,39.7489665383235,38.351106703494096,36.906961950215049,35.462817196937564,34.018672443661785,32.574527690387619,31.059533920364693,29.50638964951996,27.953245378676932,26.400101107835646,24.846956836995972,23.229158630101292,21.580229844935243,19.931301059771027,18.282372274608598,16.633443489447984,14.925852500952605,13.193119776055772,11.460387051160795,9.7276543262677517,7.9949216013765412,6.2092235944555032,4.4034346176161145,2.5976456407786817,0.7918566639432767,-1.0139323128902014,-2.8673560665715323,-4.7366586795328027,-6.6059612924919229,-8.4752639054490029,-10.344566518403953,-12.256596798932792,-14.181032407293026,-16.105468015651088,-18.029903624006959,-19.954339232360606,-21.917063138344336,-23.889359571115058,-25.86165600388356,-27.833952436649692,-29.80624886941353,-31.812896626725848,-33.826831422203988,-35.840766217679615,-37.854701013152912,-39.868635808623708,-41.913501172586592,-43.96382521611546,-46.014149259641727,-48.064473303165443,-50.114797346686515,-52.193232875539941,-54.275684634538656,-56.358136393534807,-58.440588152528186,-60.523039911518957,-62.631190102326279,-64.742195944337453,-66.8532017863457,-68.964207628350977,-71.075213470353361,-73.210441881707311,-75.347634532686442,-77.484827183662816,-79.62201983463639,-81.759212485607137,-83.919270821775541,-86.080532842560544,-88.241794863342236,-90.4030568841208,-92.56431890489597,-94.748140430453262,-96.932540623550253,-99.1169408166439,-101.30134100973424,-103.48574120282116,0.21363644468766244,0.21363644468766244,0.21363644468766244,0.21363644468766244,0.21363644468766244,0.21363644468766244,0.21363644468766244,0.21363644468766244,0.21363644468766244,0.21363644468766244,0.21363644468766244,0.21363644468766244
DP 71,175.46964538814882,0.0011840530253020946,-94.765916731773174,-91.460643954901357,-88.155371178028716,-84.8500984011556,-81.544825624281927,-78.241240804804789,-75.003486962012815,-71.765733119220329,-68.5279792764272,-65.290225433633452,-62.05932361213074,-58.958611490492437,-55.857899368853566,-52.757187247214141,-49.656475125574232,-46.570449851083751,-43.665564209068556,-40.760678567052842,-37.855792925036567,-34.950907283019752,-32.070427499918388,-29.409602753932294,-26.748778007945681,-24.0879532619586,-21.427128515970967,-18.80128157720474,-16.420281933905727,-14.039282290606243,-11.658282647306276,-9.2772830040058079,-6.94165411268372,-4.8631290082386354,-2.7846039037930854,-0.70607879934706663,1.3724463050994167,3.3963140276813992,5.1625082835979583,6.9287025395149691,8.69489679543244,10.461091051350341,12.165159920386175,13.620724305811288,15.076288691236829,16.531853076662806,17.987417462089223,19.375660114800816,20.532013971126005,21.688367827451636,22.844721683777706,24.001075540104164,25.087364019429504,25.96345371868701,26.839543417944927,27.715633117203289,28.591722816462052,29.397395155961391,30.017419308484289,30.637443461007553,31.257467613531258,31.877491766055353,32.428885798026016,32.8201407197063,33.211395641386915,33.602650563068018,33.99390548474944,34.320078457418312,34.511079335485647,34.702080213553366,34.893081091621482,35.084081969690047,35.214866803608523,35.233820215051651,35.252773626495163,35.271727037939065,35.290680449383373,35.255150227435664,35.128812576539964,35.002474925644655,34.8761372747498,34.749799623855331,34.575159882321593,34.328065863437025,34.080971844552877,33.833877825669134,33.586783806785789,33.297660804150091,32.951674124054868,32.605687443960043,32.259700763865638,31.913714083771666,31.531781415748966,31.105914007445612,30.680046599142713,30.254179190840226,29.828311782538186,29.372186190901143,28.882616741886192,28.393047292871653,27.90347784385752,27.413908394843858,25.819711883956003,25.279947074514794,24.740182265074029,24.179883402432452,23.60100574100899,23.022128079585993,22.443250418163444,21.864372756741322,21.2689068003853,20.659868317639067,20.050829834893314,19.441791352148016,18.8327528694032,18.210470646406179,17.578399354211911,16.94632806201815,16.314256769824848,15.682185477632038,15.039655209472924,14.390152125904136,13.740649042335846,13.091145958768065,12.441642875200799,11.783962289078776,11.121375077752687,10.458787866427141,9.79620065510213,9.1336134437776231,8.4646901886469248,7.7923551254839358,7.1200200623215,6.4476849991596126,5.7753499359982392,5.0981449303214719,4.4185950693135467,3.7390452083062091,3.0594953472994479,2.3799454862932721,1.6966778659448098,1.0118168699633776,0.32695587398253562,-0.35790512199768443,-1.0427661179773213,-1.7304502978055047,-2.4192053772793463,-3.1079604567525689,-3.7967155362251406,-4.4854706156970989,-5.1763626207640332,-5.8679669612934582,-6.5595713018221931,-7.2511756423502938,-7.9427799828777035,-8.6360008881711021,-9.3296911384346632,-10.023381388697532,-10.717071638959718,-11.410761889221199,-12.105678919994691,-12.800902660390204,-13.496126400785014,-14.191350141179059,-14.886573881572398,-15.582736802814281,-16.279098954995831,-16.97546110717661,-17.671823259356614,-18.368185411535862,-19.065274226264403,-19.762491283640376,-20.459708341015514,-21.156925398389877,-21.854142455763398,-22.551949892690526,-23.249841675930657,-23.947733459169985,-24.645625242408418,-25.343517025646037,-26.041861321836418,-26.740255901995361,-27.438650482153374,-28.13704506231042,-28.835439642466579,-29.534285493825877,-30.233167939352704,-30.932050384878625,-31.63093283040368,-32.329815275927835,-33.029034817776314,-33.728272104889534,-34.427509392001724,-35.126746679112905,-35.825983966223056,-36.525579411052682,-37.225184042884692,-37.92478867471565,-38.624393306545571,-39.323997938374426,0.067248568859323662,0.067248568859323662,0.067248568859323662,0.067248568859323662,0.067248568859323662,0.067248568859323662,0.067248568859323662,0.067248568859323662,0.067248568859323662,0.067248568859323662,0.067248568859323662,0.067248568859323662
DP 72,222.27848081003717,0.0019279508269678574,-168.55891946830005,-162.27497380282469,-155.99102813734851,-149.70708247187119,-143.42313680639316,-137.14310218950766,-131.01559994647502,-124.88809770344153,-118.76059546040717,-112.63309321737177,-106.52133437680752,-100.7087031593837,-94.89607194195905,-89.0834407245336,-83.27080950710733,-77.491491282302519,-72.1230374982191,-66.754583714134966,-61.386129930049933,-56.017676145964089,-50.703598384269924,-45.878909963795593,-41.054221543320544,-36.229533122844721,-31.404844702368106,-26.656359317711225,-22.441300946036662,-18.226242574361368,-14.011184202685339,-9.7961258310085562,-5.6772973872539962,-2.1037779322382546,1.4697415227782109,5.0432609777953941,8.6167804328132878,12.07789784358288,15.009113831823832,17.940329820065461,20.871545808307804,23.802761796550804,26.61056633781099,28.924719258642579,31.238872179474829,33.553025100307778,35.867178021141378,38.052594466590449,39.794579866460538,41.536565266331237,43.278550666202648,45.020536066074683,46.6339479628667,47.861634489252168,49.089321015638291,50.317007542025081,51.544694068412454,52.648731987091566,53.4267829627549,54.204833938419014,54.98288491408362,55.760935889748893,56.4239683575915,56.818620683287833,57.21327300898475,57.607925334682356,58.002577660380474,58.293368907483583,58.368445663022385,58.443522418561912,58.518599174101979,58.593675929642686,58.5774392522107,58.391618018958241,58.205796785706404,58.019975552455264,57.834154319204686,57.56997093776684,57.1751820008494,56.78039306393255,56.385604127016286,55.990815190100705,55.530245758144339,54.971004029215365,54.411762300287094,53.852520571359371,53.293278842432258,52.679922223060046,51.993350136614943,51.3067780501704,50.620205963726491,49.933633877283228,49.203362341745404,48.41967945053198,47.635996559319146,46.852313668106937,46.068630776895404,45.250257480921107,44.393541468319476,43.536825455718471,42.680109443118127,41.823393430518443,39.117707262683354,38.206775895581409,37.295844528480096,36.364037438244431,35.413342413135666,34.462647388027513,33.511952362920127,32.561257337813338,31.594699891641145,30.615163828355019,29.635627765069518,28.656091701784757,27.676555638500691,26.685113699122045,25.684871568655122,24.684629438188988,23.684387307723519,22.684145177258824,21.6750655905132,20.660094227026239,19.645122863540035,18.630151500054588,17.615180136569915,16.593712941762238,15.56834814992221,14.542983358082976,13.517618566244568,12.49225377440691,11.462153512776965,10.429503313935868,9.3968531150956309,8.364202916256227,7.3315527174176074,6.2954718850234936,5.257739218063489,4.22000655110438,3.1822738841461287,2.1445412171887615,1.1043319224308408,0.0630611823170358,-0.97820955779588281,-2.0194802979078661,-3.0607510380189735,-4.1038102051824463,-5.1475477645436856,-6.1912853239039922,-7.2350228832633281,-8.2787604426217456,-9.3237969017258315,-10.369266343780957,-11.414735785835058,-12.460205227888169,-13.505674669940289,-14.552099910579937,-15.598802652788491,-16.645505394996007,-17.692208137202471,-18.738910879407907,-19.786333097311587,-20.833935192639672,-21.881537287966687,-22.929139383292583,-23.976741478617406,-25.024904526101295,-26.07318656986309,-27.121468613623719,-28.169750657383243,-29.218032701141585,-30.266767283670056,-31.315581731012855,-32.364396178354426,-33.413210625694795,-34.4620250730339,-35.511246508188286,-36.560526088854488,-37.609805669519496,-38.659085250183153,-39.708364830845589,-40.7579626214122,-41.807595771975542,-42.85722892253753,-43.906862073098033,-44.956495223657242,-46.006526750208927,-47.056590581586391,-48.10665441296252,-49.156718244337355,-50.206782075710784,-51.257129916841038,-52.307492708677515,-53.357855500512429,-54.4082182923458,-55.458581084177666,-56.509288187038358,-57.560004121723217,-58.610720056406493,-59.661435991088261,-60.712151925768381,0.10077798262754165,0.10077798262754165,0.10077798262754165,0.10077798262754165,0.10077798262754165,0.10077798262754165,0.10077798262754165,0.10077798262754165,0.10077798262754165,0.10077798262754165,0.10077798262754165,0.10077798262754165
DP 73,170.36937068627506,0.0010215936636224679,-80.795207271317054,-77.999634981220538,-75.204062691123539,-72.408490401025986,-69.612918110927822,-66.81873952834917,-64.078916065990754,-61.339092603631762,-58.59926914127233,-55.859445678912351,-53.125284356298607,-50.498704759258551,-47.872125162218026,-45.24554556517699,-42.618965968135512,-40.004540291597834,-37.54001449968343,-35.075488707768535,-32.610962915853186,-30.146437123937346,-27.70214788192196,-25.439989501797641,-23.177831121672885,-20.915672741547692,-18.653514361422072,-16.420429705757481,-14.390863319788709,-12.361296933819514,-10.331730547849894,-8.3021641618798476,-6.3104215142562508,-4.533015767360161,-2.7556100204636658,-0.978204273566763,0.79920147333054392,2.530886029751684,4.0470253615721568,5.563164693393035,7.079304025214296,8.5954433570359488,10.059415139419089,11.314714258578983,12.570013377739279,13.825312496899924,15.080611616060965,16.279140839110191,17.282126924015436,18.285113008921041,19.288099093827014,20.291085178733336,21.234715825684045,22.000277914629724,22.765840003575761,23.531402092522178,24.296964181468965,25.002578793069969,25.550147994830656,26.097717196591692,26.645286398353068,27.192855600114818,27.681693290270371,28.033488936221566,28.385284582173153,28.737080228125055,29.088875874077324,29.384669555919793,29.5641498374206,29.743630118921743,29.923110400423209,30.102590681925072,30.229957800518587,30.260541923483718,30.29112604644919,30.321710169415002,30.352294292381174,30.335444158539403,30.239535734407113,30.143627310275207,30.047718886143681,29.951810462012475,29.813589201793157,29.611897687577518,29.410206173362234,29.208514659147305,29.0068231449327,28.768079478638029,28.479205606067687,28.190331733497654,27.901457860928005,27.612583988358722,27.291813280938346,26.932056883161195,26.572300485384446,26.212544087608023,25.852787689831981,25.466002047492932,25.049341439092895,24.632680830693197,24.21602022229392,23.799359613894971,22.436516128359596,21.97471077048402,21.512905412608823,21.032503999044067,20.53527724790888,20.038050496774066,19.540823745639671,19.043596994505645,18.531241828888046,18.006508609610464,17.481775390333262,16.957042171056472,16.43230895178008,15.895411551295972,15.349523034306785,14.803634517318031,14.257746000329679,13.711857483341765,13.156293649529767,12.594279452081595,12.032265254633861,11.470251057186562,10.908236859739709,10.338603370140264,9.7643981900200565,9.1901930099002929,8.6159878297810035,8.0417826496621672,7.4616315259718746,6.8782786538945349,6.2949257818176836,5.7115729097413013,5.128220037665379,4.5402645406373052,3.9500929004776881,3.3599212603185924,2.7697496201599967,2.1795779800019104,1.5858682413050456,0.9906421268883413,0.39541601247214964,-0.19981010194349852,-0.79503621635863952,-1.3929669696936675,-1.9919236558111224,-2.5908803419280355,-3.1898370280443862,-3.7887937141601986,-4.3898102130295014,-4.9915133421090205,-5.5932164711879491,-6.1949196002663056,-6.7966227293440769,-7.3998924936707722,-8.0036171066925217,-8.6073417197136717,-9.2110663327342177,-9.8147909457541456,-10.419709505964111,-11.024926567077722,-11.630143628190712,-12.235360689303056,-12.840577750414775,-13.446711167695931,-14.053038974056731,-14.659366780416848,-15.265694586776318,-15.872022393135115,-16.479059803824128,-17.086222446697022,-17.693385089569194,-18.30054773244067,-18.907710375311449,-19.515446964830051,-20.123265552926281,-20.73108414102181,-21.338902729116551,-21.946721317210589,-22.554980857495185,-23.16328939709792,-23.77159793669988,-24.37990647630097,-24.988215015901289,-25.596954121634568,-26.205728142534436,-26.814502163433531,-27.423276184331854,-28.032050205229407,-28.641148896377604,-29.250264678663225,-29.859380460947957,-30.468496243231773,-31.077612025514675,-31.687067515003413,-32.29653171822568,-32.905995921447,-33.515460124667456,-34.124924327887,0.058602165404283188,0.058602165404283188,0.058602165404283188,0.058602165404283188,0.058602165404283188,0.058602165404283188,0.058602165404283188,0.058602165404283188,0.058602165404283188,0.058602165404283188,0.058602165404283188,0.058602165404283188
DP 74,69.299527828062381,0.0011693633719953851,-57.355137462117128,-55.743905924587324,-54.132674387056944,-52.5214428495259,-50.910211311994125,-49.299391913698862,-47.704646101474019,-46.109900289248543,-44.515154477022378,-42.920408664795623,-41.327377388469941,-39.766922618397658,-38.206467848324841,-36.646013078251443,-35.0855583081775,-33.528889541641853,-32.0189152958957,-30.508941050148913,-28.998966804401562,-27.488992558653685,-25.985582330699472,-24.541248883332695,-23.096915435965396,-21.652581988597536,-20.208248541229135,-18.773824736672669,-17.408769181139785,-16.043713625606372,-14.678658070072441,-13.313602514537971,-11.962234808782076,-10.688432447634789,-9.41463008648699,-8.1408277253386849,-6.86702536418988,-5.6109575887863414,-4.4384966754945561,-3.2660357622022715,-2.0935748489094981,-0.92111393561623722,0.22945885563743026,1.2924781242861556,2.3554973929353609,3.418516661585044,4.4815359302352,5.5185663081621819,6.4660783040416314,7.4135902999215553,8.36110229580194,9.3086142916827921,10.226236681409942,11.054189122595247,11.882141563781007,12.710094004967228,13.538046446153935,14.332538405377166,15.038815216615241,15.745092027853755,16.451368839092719,17.157645650332153,17.827327224392693,18.411618758694296,18.995910292996356,19.580201827298865,20.164493361601835,20.709572049533989,21.173207531482614,21.636843013431694,22.100478495381235,22.564113977331218,22.986490834693015,23.332243417873187,23.677996001053806,24.023748584234909,24.369501167416448,24.672549408753611,24.904422670626651,25.136295932500165,25.368169194374126,25.600042456248577,25.788367441223606,25.911368981791533,26.034370522359968,26.157372062928847,26.28037360349818,26.3595688458445,26.379495769272356,26.399422692700686,26.419349616129523,26.439276539558829,26.415686130018017,26.33890695500121,26.26212777998488,26.185348604969043,26.108569429953697,25.989059424920068,25.822319757452476,25.655580089985431,25.488840422518869,25.322100755052833,24.6143323478896,24.364572761577172,24.114813175265237,23.82513374941356,23.499335654784495,23.173537560155978,22.847739465528043,22.52194137090062,22.15810892129079,21.763156800322882,21.368204679355561,20.973252558388804,20.578300437422616,20.147425432860693,19.689998141211571,19.232570849563071,18.77514355791515,18.317716266267823,17.826634881738496,17.313116905117781,16.799598928497684,16.286080951878208,15.772562975259355,15.227752693639445,14.664166555773905,14.100580417909018,13.536994280044802,12.973408142181221,12.380927067211063,11.772886759771341,11.164846452332318,10.556806144893979,9.94876583745629,9.3142112989352253,8.6668902778701664,8.0195692568058359,7.3722482357422239,6.724927214679342,6.0534119683827869,5.3715274417202767,4.6896429150585073,4.0077583883975123,3.325873861737251,2.6220163954564297,1.9098240794020018,1.1976317633483569,0.48543944729552274,-0.22675286875653924,-0.95882677088251356,-1.697528118929754,-2.4362294669761315,-3.1749308150216931,-3.9136321630664073,-4.6702787416462055,-5.4321354447293873,-6.1939921478116995,-6.95584885089313,-7.7177055539736781,-8.4957469134957861,-9.2778346283514352,-10.059922343206177,-10.842010058059977,-11.624097772912853,-12.420801944659694,-13.220606744421234,-14.020411544181771,-14.820216343941356,-15.620021143699953,-16.433075295779471,-17.248467716190426,-18.06386013660034,-18.879252557009252,-19.694644977417102,-20.52215760177274,-21.351401814761676,-22.180646027749578,-23.009890240736372,-23.839134453722103,-24.679531733110593,-25.521168359231631,-26.362804985351502,-27.204441611470155,-28.046078237587633,-28.89827892380222,-29.751336263377848,-30.604393602952349,-31.457450942525742,-32.310508282097977,-33.173591096489154,-34.037201667197714,-34.900812237904994,-35.764422808610995,-36.62803337931566,-37.501558988952645,-38.375338926476843,-39.249118863999676,-40.122898801521188,-40.996678739041329,0.0855636666672767,0.0855636666672767,0.0855636666672767,0.0855636666672767,0.0855636666672767,0.0855636666672767,0.0855636666672767,0.0855636666672767,0.0855636666672767,0.0855636666672767,0.0855636666672767,0.0855636666672767
DP 75,151.25489449304644,0.0036008668556439163,-270.83587109610977,-261.75535932194606,-252.67484754778081,-243.594335773613,-234.51382399944353,-225.43742364593183,-216.52137025262252,-207.60531685931167,-198.68926346599847,-189.77321007268372,-180.87392123291869,-172.29316207985175,-163.71240292678326,-155.13164377371297,-146.55088462064097,-138.00630058667176,-129.90788091407859,-121.80946124148363,-113.71104156888684,-105.61262189628836,-97.5748832283733,-90.083279338264731,-82.591675448154518,-75.1000715580428,-67.608467667929489,-60.204852992274368,-53.417169471310594,-46.629485950345327,-39.841802429378433,-33.054118908410125,-26.382184442351551,-20.366168581278604,-14.350152720204187,-8.3341368591283072,-2.3181209980509552,3.5561706591926154,8.762326272107666,13.968481885024167,19.174637497942065,24.380793110861369,29.422888874527064,33.808737487612362,38.194586100699063,42.580434713787113,46.966283326876521,51.170723814273487,54.750306470102757,58.329889125933356,61.909471781765305,65.489054437598568,68.875647018476243,71.6832620778287,74.490877137182466,77.298492196537538,80.106107255893761,82.715140637079585,84.800633677572648,86.886126718067089,88.971619758562667,91.0571127990597,92.944158548875734,94.368154367947852,95.792150187021335,97.216146006096039,98.640141825172051,99.870920760907367,100.70039747337215,101.5298741858383,102.35935089830573,103.18882761077423,103.83453070873185,104.13893498817124,104.44333926761223,104.74774354705437,105.05214782649779,105.18543038781591,105.03350577236075,104.88158115690692,104.72965654145432,104.57773192600287,104.26952373126532,103.72688647457363,103.18424921788315,102.64161196119403,102.09897470450622,101.41612071226744,100.54355860641466,99.670996500563163,98.798434394712942,97.925872288863872,96.929554837440648,95.7819782530945,94.634401668749717,93.486825084406249,92.339248500064159,91.084089867919431,89.710022621093088,88.3359553742681,86.961888127444468,85.587820880622147,81.004543874724689,79.4460461730843,77.887548471445328,76.2510369784729,74.543940174494338,72.836843370517258,71.129746566541613,69.422649762567332,67.65035319992802,65.824710259698961,63.999067319471294,62.1734243792452,60.347781439020537,58.468263459515292,56.548923913180886,54.629584366847993,52.710244820516586,50.790905274186848,48.827516553917135,46.834761023758787,44.842005493601988,42.849249963446788,40.856494433293243,38.82807490655339,36.77825644250256,34.728437978453343,32.678619514405852,30.628801050360032,28.550367269603424,26.456524825272417,24.362682380943166,22.268839936615667,20.174997492289819,18.058383603402856,15.930805366782783,13.80322713016456,11.675648893548182,9.5480706569336711,7.4025038308795246,5.2492273664523861,3.0959509020271212,0.94267443760384206,-1.2106020268175781,-3.3779992867689197,-5.5507528946390146,-7.72350650250713,-9.8962601103731753,-12.069013718237258,-14.252796673419139,-16.440256216706334,-18.627715759991354,-20.815175303274312,-23.002634846555104,-25.198680387623995,-27.397218742443592,-29.595757097260968,-31.794295452076131,-33.992833806889081,-36.19804923470749,-38.404934009665908,-40.611818784622059,-42.818703559575809,-45.025588334527306,-47.237678686278805,-49.450873310929829,-51.664067935578323,-53.877262560224416,-56.090457184868029,-58.307727826237596,-60.525717810000259,-62.743707793760152,-64.961697777517543,-67.179687761272348,-69.40095941633291,-71.622699917027859,-73.844440417720108,-76.066180918409557,-78.287921419096392,-80.512225071945352,-82.736813546395439,-84.9614020208426,-87.185990495286731,-89.4105789697279,-91.637524200261709,-93.864660543207179,-96.091796886149837,-98.31893322908968,-100.54606957202664,-102.77505690897442,-105.00414168507291,-107.23322646116829,-109.46231123726027,-111.69139601334896,-113.9223261360864,-116.1533035932909,-118.38428105049216,-120.61525850768986,-122.84623596488433,0.21480954785039016,0.21480954785039016,0.21480954785039016,0.21480954785039016,0.21480954785039016,0.21480954785039016,0.21480954785039016,0.21480954785039016,0.21480954785039016,0.21480954785039016,0.21480954785039016,0.21480954785039016
DP 76,102.15113866506785,0.0010697309791435116,-66.373928384882788,-64.350858317716686,-62.327788250549958,-60.3047181833826,-58.281648116214647,-56.259255729726036,-54.26329314597784,-52.26733056222902,-50.271367978479624,-48.275405394729646,-46.282234926155908,-44.342115173770139,-42.40199542138388,-40.461875668997109,-38.521755916609806,-36.5877440040176,-34.729062885331992,-32.870381766645835,-31.011700647959106,-29.153019529271877,-27.304784667966903,-25.550567110499539,-23.796349553031678,-22.042131995563356,-20.287914438094514,-18.54921178280269,-16.919114615942174,-15.289017449081175,-13.658920282219707,-12.028823115357744,-10.419735501386159,-8.92970334436032,-7.4396711873340156,-5.9496390303072566,-4.4596068732800367,-2.9961764446941554,-1.658155601291375,-0.32013475788814205,1.0178860855155349,2.3559069289196546,3.6619424925042323,4.8400354251667732,6.01812835782976,7.1962212904931713,8.3743142231570182,9.5155197589496225,10.529667155900677,11.543814552852163,12.557961949804072,13.572109346756406,14.545169078824795,15.394964262779483,16.244759446734591,17.094554630690119,17.944349814646081,18.749717844981515,19.437958216024246,20.126198587067375,20.814438958110941,21.502679329154883,22.144109792722052,22.6763156640012,23.208521535280717,23.740727406560652,24.272933277840988,24.756936053094446,25.140823303919202,25.524710554744324,25.908597805569865,26.292485056395826,26.627742876184641,26.87268758218757,27.117632288190965,27.362576994194736,27.6075217001989,27.804309427383423,27.920834309374673,28.037359191366303,28.153884073358341,28.270408955350771,28.340046030087752,28.339350285969491,28.338654541851646,28.337958797734231,28.337263053617249,28.291619008451882,28.185161556323834,28.078704104196181,27.972246652068932,27.865789199942125,27.716856486693292,27.516008673226761,27.315160859760624,27.114313046294939,26.91346523282968,26.673009066568095,26.388774459042072,26.104539851516495,25.820305243991371,25.536070636466693,24.50096093826086,24.143763842555629,23.786566746850827,23.396154552074716,22.97569000299077,22.555225453907294,22.134760904824279,21.71429635574173,21.263914302993403,20.78905377854856,20.314193254104186,19.839332729660327,19.364472205216934,18.862935223525628,18.341680421870642,17.820425620216206,17.299170818562239,16.777916016908829,16.233098324275634,15.672571666457776,15.112045008640456,14.55151835082364,13.990991693007373,13.409835573188268,12.816301464180599,12.222767355173483,11.629233246166939,11.035699137160922,10.424252008450903,9.8031591471069675,9.18206628576363,8.5609734244208671,7.9398805630786855,7.3033519416269517,6.659391071381366,6.0154302011364011,5.3714693308920376,4.7275084606482993,4.070339128668337,3.4075088490192647,2.744678569370818,2.0818482897230255,1.4190180100758494,0.74495575282261706,0.066632943835290254,-0.6116898651513798,-1.2900126741373628,-1.9683354831226969,-2.6561583099535095,-3.3471479291259447,-4.0381375482976507,-4.7291271674686746,-5.4201167866389826,-6.1191077010843546,-6.8204216698078666,-7.5217356385306475,-8.22304960725269,-8.9243635759740023,-9.6323987410737253,-10.342114284679283,-11.051829828284081,-11.761545371888092,-12.471260915491333,-13.186620571345918,-13.903177527797114,-14.619734484247479,-15.33629144069705,-16.052848397145794,-16.774154948803211,-17.496299717136413,-18.218444485468741,-18.940589253800209,-19.662734022130785,-20.388922296016492,-21.11568825723176,-21.842454218446129,-22.569220179659567,-23.295986140872138,-24.026194296173912,-24.756784953635798,-25.487375611096716,-26.217966268556577,-26.948556926015495,-27.682247842069579,-28.41619016212135,-29.150132482172111,-29.884074802221992,-30.618017122270924,-31.354699601102372,-32.09152632607946,-32.828353051055487,-33.565179776030419,-34.30200650100425,-35.041478638721905,-35.78101863318031,-36.520558627637605,-37.260098622093771,-37.999638616548815,0.071658282567945875,0.071658282567945875,0.071658282567945875,0.071658282567945875,0.071658282567945875,0.071658282567945875,0.071658282567945875,0.071658282567945875,0.071658282567945875,0.071658282567945875,0.071658282567945875,0.071658282567945875
DP 77,71.174440676008075,0.0015497916442048295,-77.367855253386864,-75.1829801611579,-72.998105068928,-70.8132299766973,-68.6283548844657,-66.444048536679247,-64.281923437323556,-62.119798337966955,-59.957673238609495,-57.795548139251217,-55.635787773531234,-53.520957793991478,-51.40612781445089,-49.291297834909614,-47.176467855367527,-45.066856376236963,-43.021607059868785,-40.976357743499818,-38.931108427130084,-36.885859110759547,-34.849650390592814,-32.894807890794311,-30.939965390995134,-28.985122891195211,-27.030280391394559,-25.089073383382146,-23.243315848965391,-21.397558314547961,-19.551800780129813,-17.706043245710987,-15.879098537728522,-14.158761031695578,-12.438423525661943,-10.718086019627641,-8.9977485135926649,-7.3017535705439691,-5.7205177392259037,-4.1392819079071757,-2.5580460765878024,-0.97681024526778126,0.57442805217483073,2.0056747964053376,3.4369215406364773,4.8681682848682577,6.2994150291006692,7.6951034611301257,8.9683117684535034,10.241520075777501,11.514728383102124,12.787936690427367,14.020325905105045,15.130256298532007,16.240186691959597,17.35011708538779,18.460047478816584,19.524374223478013,20.468471599385115,21.412568975292821,22.356666351201131,23.300763727110056,24.195093471780819,24.973297175531005,25.751500879281803,26.529704583033215,27.30790828678521,28.032908993194788,28.647409619336635,29.261910245479076,29.87641087162212,30.490911497765769,31.049571556809397,31.5045261974918,31.959480838174766,32.41443547885838,32.869390119542579,33.266696357854322,33.567920472480573,33.869144587107506,34.170368701735015,34.471592816363149,34.714191394211561,34.868850281552454,35.023509168894023,35.178168056236153,35.332826943578965,35.428680173336126,35.44497149968295,35.461262826030371,35.477554152378424,35.493845478727124,35.4518926612808,35.33875133357364,35.225610005867118,35.112468678161228,34.999327350456042,34.829169981239765,34.59599374735987,34.362817513480636,34.129641279602041,33.896465045724177,32.9208871204535,32.577290988383659,32.233694856314571,31.837177255434039,31.392777372829961,30.948377490226537,30.503977607623909,30.05957772502196,29.56492712671912,29.029161442887972,28.493395759057595,27.957630075227978,27.421864391399062,26.838803060481393,26.220783299900614,25.60276353932068,24.984743778741489,24.366724018163087,23.704553967178931,23.012949693735596,22.321345420293078,21.629741146851369,20.938136873410492,20.205632190228187,19.448586642649161,18.691541095070981,17.934495547493679,17.177449999917204,16.382780437732489,15.567851243641694,14.752922049551815,13.93799285546285,13.123063661374736,12.273744731054977,11.407867298023492,10.541989864992962,9.6761124319633822,8.8102349989347637,7.9131029974765639,7.0025757589469881,6.0920485204184,5.1815212818908307,4.2709940433642242,3.3321991317854187,2.3826816308577219,1.4331641299310562,0.48364662900546368,-0.46587087191911247,-1.440856247457321,-2.4243312354994564,-3.4078062235404545,-4.3912812115803792,-5.3747561996191839,-6.3811171910405058,-7.3941227851474371,-8.4071283792532228,-9.420133973357844,-10.433139567461311,-11.466692008528756,-12.505381404099991,-13.544070799670017,-14.582760195238818,-15.621449590806403,-16.678608659728898,-17.739685749758806,-18.800762839787403,-19.861839929814746,-20.922917019840767,-22.000657182857793,-23.081338073461708,-24.16201896406422,-25.242699854665418,-26.323380745265229,-27.419234821030589,-28.517256658582454,-29.615278496132902,-30.713300333681904,-31.811322171229538,-32.923241636055963,-34.036705427647249,-35.150169219237057,-36.263633010825238,-37.37709680241192,-38.503678886998216,-39.631324751010759,-40.758970615021759,-41.886616479031346,-43.014262343039412,-44.154311141318793,-45.295012849014839,-46.435714556709158,-47.576416264401743,-48.7171179720926,-49.87006517038467,-51.023326474327014,-52.176587778267574,-53.329849082206344,-54.483110386143359,0.11283054911991489,0.11283054911991489,0.11283054911991489,0.11283054911991489,0.11283054911991489,0.11283054911991489,0.11283054911991489,0.11283054911991489,0.11283054911991489,0.11283054911991489,0.11283054911991489,0.11283054911991489
DP 78,91.656121159072057,0.0036539081929095277,-213.29076306501997,-206.94382198263736,-200.59688090025227,-194.24993981786545,-187.90299873547656,-181.55802349427179,-175.28971680259389,-169.02141011091393,-162.753103419232,-156.48479672754794,-150.22461115449195,-144.11872837064269,-138.01284558679154,-131.90696280293869,-125.80108001908415,-119.7130157955537,-113.84471606168573,-107.97641632781593,-102.10811659394422,-96.239816860070846,-90.402121639523315,-84.83986993170079,-79.277618223876658,-73.715366516050821,-68.153114808223222,-62.63655471187176,-57.439839350922611,-52.243123989971821,-47.046408629019346,-41.849693268065217,-36.715240063400806,-31.93360966777966,-27.15197927215695,-22.370348876532624,-17.588718480906735,-12.886501267033657,-8.558664770701979,-4.2308282743687524,0.097008221966003463,4.4248447183022854,8.6564048170923,12.502854775615349,16.349304734139896,20.195754692665943,24.042204651193458,27.776593897137186,31.124991536574417,34.47338917601305,37.821786815453251,41.17018445489483,44.392495790528848,47.236543447609165,50.0805911046909,52.924638761774091,55.768686418858707,58.474898459058942,60.8177209535155,63.160543447973474,65.503365942432808,67.846188436893627,70.042068746495445,71.895079328377662,73.748089910261342,75.601100492146358,77.454111074032753,79.15390582718716,80.53547863385603,81.9170514405263,83.298624247198035,84.680197053871069,85.905149085287889,86.8392297329503,87.773310380614049,88.707391028279275,89.641471675945965,90.418294510838308,90.933017027324169,91.447739543811352,91.96246206029997,92.477184576789909,92.836566627362771,92.962934308321039,93.0893019892807,93.215669670241724,93.342037351204326,93.317240870306065,93.087924808488637,92.858608746672672,92.629292684858228,92.3999766230452,92.025578418507379,91.473854547677874,90.922130676849847,90.370406806023482,89.818682935198439,89.129485354782389,88.288340412362146,87.447195469943381,86.606050527526222,85.764905585110512,82.597859567526584,81.499269662303632,80.40067975708233,79.182894921434979,77.857264907509858,76.531634893586386,75.20600487966459,73.880374865744358,72.44551225394568,70.921275639376873,69.3970390248097,67.872802410244262,66.348565795680528,64.725194066515158,63.028546927364665,61.331899788215914,59.635252649068995,57.938605509923853,56.152803399608551,54.30756323734294,52.462323075079254,50.617082912817324,48.771842750557326,46.847101542553553,44.874658504780285,42.902215467008915,40.929772429239577,38.957329391472051,36.914553882020314,34.833906018908372,32.753258155798513,30.67261029269072,28.591962429584868,26.449547183626251,24.277391221729378,22.105235259834664,19.933079297942076,17.760923336051654,15.534882634740052,13.285747746071735,11.03661285740562,8.7874779687417863,6.5383430800801232,4.2424780357581957,1.9288871507411753,-0.38470373427353488,-2.698294619285841,-5.0118855042958774,-7.3657993305087928,-9.7331546453034061,-12.100509960095485,-14.467865274885151,-16.835220589672304,-19.237237103272584,-21.649316968295867,-24.061396833316561,-26.473476698334672,-28.885556563350164,-31.327364620359422,-33.776605076607545,-36.225845532853008,-38.675085989095678,-41.124326445335626,-43.599066154191789,-46.07921508756634,-48.55936402093792,-51.039512954306609,-53.5196618876725,-56.021739627369286,-58.5276874002673,-61.033635173162139,-63.53958294605399,-66.045530718942828,-68.570538432635047,-71.098269200903957,-73.625999969169882,-76.1537307374325,-78.681461505692013,-81.22580792799944,-83.772000708590113,-86.318193489177276,-88.864386269760914,-91.4105790503412,-93.97193308263499,-96.534516560530363,-99.0971000384224,-101.65968351631123,-104.22226699419677,-106.79857438941416,-109.37560423261358,-111.95263407580931,-114.52966391900107,-117.10669376218902,-119.69705086901705,-122.28774982975057,-124.87844879048018,-127.46914775120588,-130.05984671192746,0.25164104769837775,0.25164104769837775,0.25164104769837775,0.25164104769837775,0.25164104769837775,0.25164104769837775,0.25164104769837775,0.25164104769837775,0.25164104769837775,0.25164104769837775,0.25164104769837775,0.25164104769837775
DP 79,78.966725760060115,0.0012876232460409822,-68.70878024797922,-66.727440028753449,-64.746099809526953,-62.764759590299718,-60.783419371071751,-58.80263227406121,-56.84341715268512,-54.88420203130827,-52.924986909930766,-50.965771788552509,-49.008849850217217,-47.095498823220673,-45.182147796223518,-43.268796769225744,-41.355445742227346,-39.447145065504053,-37.601132678668165,-35.755120291831631,-33.909107904994436,-32.063095518156565,-30.225802673362491,-28.466986531149264,-26.708170388935429,-24.949354246721004,-23.190538104505976,-21.444822608760621,-19.790812628937285,-18.136802649113374,-16.48279266928888,-14.828782689463791,-13.192761591601709,-11.658678625085999,-10.124595658569728,-8.5905126920528954,-7.0564297255354944,-5.545495303725569,-4.14369098584001,-2.7418866679539056,-1.3400823500672578,0.061721967819929148,1.4351766483687414,2.6952314397424342,3.9552862311166592,5.2153410224914163,6.4753958138666912,7.7020804869698694,8.8138222397203858,9.9255639924714156,11.037305745222975,12.149047497975038,13.222775033392322,14.182458479545431,15.142141925699045,16.101825371853167,17.061508818007805,17.97907458433718,18.785601383486252,19.592128182635879,20.39865498178596,21.205181780936577,21.96615675417176,22.620842698400427,23.275528642629581,23.930214586859226,24.584900531089378,25.191354689644587,25.697633736744489,26.203912783844874,26.710191830945796,27.216470878047186,27.672638586408869,28.035741026659387,28.398843466910417,28.761945907161945,29.125048347413951,29.436969232965783,29.663586237287014,29.890203241608745,30.116820245930967,30.3434372502537,30.518584792646173,30.616526925905337,30.714469059165037,30.812411192425234,30.910353325685975,30.957269346186983,30.935148902825986,30.913028459465444,30.890908016105481,30.868787572745997,30.796739866287936,30.66366890066924,30.530597935051066,30.39752696943345,30.264456003816392,30.083123003323305,29.848446793381829,29.61377058344091,29.379094373500546,29.144418163560726,28.209748023677122,27.882815035309935,27.555882046943331,27.185322660602264,26.775290985881433,26.365259311161225,25.955227636441567,25.545195961722516,25.094307920813229,24.60999124178689,24.12567456276113,23.641357883736021,23.157041204711504,22.634812309927323,22.084560719407104,21.534309128887553,20.984057538368624,20.433805947850367,19.848675706129953,19.240292480813615,18.63190925549797,18.02352603018295,17.415142804868651,16.774927230818587,16.115611766114803,15.456296301411754,14.796980836709411,14.137665372007739,13.449513094379302,12.745832882761849,12.042152671145146,11.338472459529163,10.634792247913902,9.9051658574910668,9.1630464991300755,8.4209271407698765,7.6788077824104395,6.936688424051793,6.17136635622538,5.3960999567497305,4.62083355727488,3.8455671578008692,3.0703007583276425,2.2743955815425765,1.4706616339433058,0.66692768634487565,-0.13680626125268033,-0.9405402088494087,-1.762552353212385,-2.59065746018682,-3.4187625671603326,-4.2468676741329681,-5.074972781104691,-5.9192151185179025,-6.76814265513062,-7.617070191742406,-8.4659977283532477,-9.31492526496314,-10.178078642617882,-11.044788648613258,-11.911498654607682,-12.778208660601079,-13.644918666593487,-14.524179408684006,-15.406102571922871,-16.288025735160637,-17.169948898397397,-18.051872061633105,-18.944904363312109,-19.839897224721106,-20.734890086128985,-21.629882947535791,-22.524875808941431,-23.429798796041272,-24.336140479794221,-25.242482163546072,-26.148823847296729,-27.055165531046281,-27.97042978446305,-28.886685528216272,-29.802941271968212,-30.719197015718876,-31.635452759468286,-32.560014797784696,-33.485250404321107,-34.4104860108563,-35.33572161739032,-36.260957223923143,-37.19392126699853,-38.1272921467853,-39.060663026570666,-39.99403390635463,-40.927404786137224,-41.868354184775612,-42.80949797787855,-43.750641770980067,-44.691785564080142,-45.632929357178725,0.091780308922418535,0.091780308922418535,0.091780308922418535,0.091780308922418535,0.091780308922418535,0.091780308922418535,0.091780308922418535,0.091780308922418535,0.091780308922418535,0.091780308922418535,0.091780308922418535,0.091780308922418535
DP 80,55.050950131354064,0.0037706362271715818,-157.50009890228867,-153.26402304675935,-149.02794719122809,-144.79187133569468,-140.5557954801595,-136.32065601849425,-132.12203627187128,-127.92341652524645,-123.72479677861955,-119.52617703199077,-115.33147702940114,-111.21125290459067,-107.09102877977857,-102.97080465496472,-98.850580530149173,-94.739047656468074,-90.734707975476866,-86.730368294483839,-82.726028613488992,-78.7216889324923,-74.73251612521446,-70.879846615011317,-67.027177104806569,-63.174507594600087,-59.321838084391914,-55.492230301976896,-51.824056357980623,-48.155882413982731,-44.4877084699832,-40.819534525981979,-37.183497200598786,-33.729569405785277,-30.275641610970215,-26.82171381615354,-23.367786021335295,-19.955921709550534,-16.742358946866169,-13.52879618418026,-10.315233421492817,-7.10167065880385,-3.940630046741878,-0.98968051941918633,1.961269007905005,4.9122185352306964,7.8631680625578664,10.750944275802638,13.421120864442605,16.091297453084046,18.76147404172697,21.43165063037134,24.028126402981282,26.403496940971202,28.778867478962596,31.154238016955443,33.529608554949718,35.821179165795456,37.8918198156606,39.9624604655272,42.033101115395205,44.103741765264658,46.081179394085318,47.841140370572163,49.601101347060371,51.36106232355008,53.121023300041173,54.779304253979895,56.226400665413294,57.6734970768481,59.120593488284335,60.567689899722026,61.905736253879894,63.041258128078887,64.17678000227923,65.312301876481143,66.4478237506845,67.4681711972427,68.296558361347337,69.124945525453413,69.953332689560952,70.781719853670054,71.490135673236082,72.018591641030923,72.547047608827242,73.0755035766251,73.603959544424441,74.009016716123426,74.247119831029678,74.485222945937352,74.723326060846659,74.961429175757416,75.0740700933561,75.03336569005647,74.992661286758377,74.951956883461847,74.911252480166908,74.744339010011373,74.437928796605334,74.131518583200958,73.825108369798272,73.518698156397193,71.970915872073348,71.4130845257392,70.855253179406816,70.173345826140562,69.379176994639067,68.585008163139378,67.790839331641465,66.996670500145314,66.081071595130581,65.066118724927676,64.051165854726662,63.036212984527417,62.021260114330076,60.888395275629875,59.668376174094305,58.44835707256081,57.228337971029148,56.008318869499533,54.67462709251997,53.265151741163564,51.855676389809204,50.446201038456891,49.036725687106681,47.518388130245008,45.934731603713523,44.351075077184092,42.767418550656856,41.183762024131781,39.49646940207321,37.753371221528859,36.010273040986846,34.267174860447156,32.524076679909683,30.682838359159962,28.794346004040982,26.905853648924424,25.017361293810239,23.128868938698485,21.147859465328278,19.127198549160745,17.106537632995682,15.0858767168332,13.065215800673158,10.957654433698117,8.8171296938054642,6.6766049539154313,4.5360802140280878,2.39555547414333,0.17361729278498142,-2.0754597284341512,-4.324536749650413,-6.5736137708639513,-8.8226907920746616,-11.147937592328153,-13.495299128385291,-15.842660664439517,-18.190022200490812,-20.537383736539198,-22.956019316449652,-25.392474249435576,-27.828929182418452,-30.265384115398209,-32.701839048374886,-35.205118019221544,-37.7225725515871,-40.240027083949322,-42.757481616308333,-45.274936148664047,-47.8552813446856,-50.446725592468077,-53.038169840246944,-55.629614088022507,-58.221058335794488,-60.8721460797498,-63.531754967450006,-66.191363855146761,-68.850972742839787,-71.510581630529259,-74.227052554472024,-76.949842079623636,-79.672631604771411,-82.395421129915093,-85.118210655054853,-87.896330239864227,-90.678936611114352,-93.461542982360669,-96.2441493536033,-99.026755724842118,-101.86330549711995,-104.70269493247848,-107.54208436783253,-110.38147380318233,-113.22086323852764,-116.11429805078841,-119.0091191658811,-121.90394028096938,-124.79876139605287,-127.69358251113194,0.28596410421279223,0.28596410421279223,0.28596410421279223,0.28596410421279223,0.28596410421279223,0.28596410421279223,0.28596410421279223,0.28596410421279223,0.28596410421279223,0.28596410421279223,0.28596410421279223,0.28596410421279223
DP 81,311.86508584716006,0.0031122961559751222,-302.80490168643848,-290.29386726978015,-277.78283285312011,-265.27179843645888,-252.76076401979643,-240.26017415866656,-228.16692591230213,-216.07367766593637,-203.98042941956962,-191.88718117320124,-179.83534038364218,-168.57024910125784,-157.30515781887243,-146.04006653648554,-134.77497525409765,-123.5953804777144,-113.47025338371968,-103.34512628972386,-93.219999195726743,-83.094872101728313,-73.104669121751343,-64.328795921167924,-55.55292272058324,-46.777049519997604,-38.0011763194107,-29.406566585022389,-22.080814820617647,-14.755063056211867,-7.4293112918049768,-0.10355952739699914,7.0044914380873768,12.878890824778646,18.753290211470954,24.627689598164324,30.502088984858723,36.136385068245055,40.638752610407344,45.141120152570679,49.643487694735029,54.14585523690031,58.400932968377283,61.666839770041122,64.932746571705778,68.198653373371528,71.464560175038258,74.489899275187625,76.686606186226527,78.883313097266367,81.080020008307187,83.276726919348931,85.250541887366623,86.5556725991106,87.860803310855587,89.165934022601419,90.471064734348218,91.5782593376641,92.163615579063332,92.748971820463368,93.33432806186434,93.91968430326628,94.33571954711833,94.356667128550143,94.3776147099827,94.398562291416084,94.419509872850426,94.300361527685453,93.890240645113934,93.480119762543239,93.069998879973468,92.659877997404536,92.137257524627771,91.405706203296461,90.674154881966061,89.9426035606366,89.211052239307975,88.391570337097733,87.42553525040492,86.459500163713088,85.49346507702208,84.527429990332,83.494333228725807,82.360642370059267,81.226951511393679,80.093260652728887,78.959569794065018,77.775864568470539,76.524491734107613,75.273118899745654,74.021746065384448,72.770373231024266,71.482454460662126,70.149867667550282,68.817280874439334,67.484694081329337,66.152107288220222,64.793310731195845,63.405544966185886,62.017779201176928,60.630013436168852,59.242247671161714,54.986555873055522,53.5618322369507,52.13710860084683,50.699556612345596,49.250397788332577,47.801238964320547,46.3520801403095,44.902921316299434,43.444978477930938,41.979848567764833,40.514718657599673,39.049588747435592,37.584458837272514,36.113384483124477,34.637916311792019,33.1624481404607,31.686979969130352,30.211511797801109,28.7320572071873,27.249944940917391,25.767832674648545,24.28572040838079,22.803608142114143,21.31883656054756,19.832469349583707,18.346102138620974,16.859734927659403,15.37336771669893,13.885225348098913,12.39612709957199,10.907028851046306,9.4179306025217926,7.92883235399842,6.4385376540202248,4.9476668680695948,3.4567960821202353,1.9659252961721034,0.47505451022523121,-1.0166415480978064,-2.508691305724907,-4.0007410633507456,-5.4927908209752472,-6.9848405785985,-8.4774833930461835,-9.9703511678135239,-11.463218942579532,-12.956086717344153,-14.448954492107456,-15.942275209091626,-17.435746912523502,-18.929218615953907,-20.422690319382955,-21.916162022810514,-23.410006672089416,-24.90395960051773,-26.397912528944598,-27.891865457369963,-29.385818385793865,-30.880103592265673,-32.374471872174162,-33.868840152081106,-35.363208431986493,-36.857576711890331,-38.352262644653429,-39.8470159619642,-41.341769279273272,-42.836522596580757,-44.3312759138866,-45.8263417869684,-47.321462820426035,-48.816583853881973,-50.311704887336241,-51.806825920788626,-53.302298022801708,-54.797820281256961,-56.293342539710565,-57.78886479816228,-59.284387056612232,-60.780205993773215,-62.276057898349364,-63.771909802923631,-65.267761707495765,-66.76361361206601,-68.259921196697,-69.756265733014516,-71.252610269330162,-72.748954805643919,-74.245299341955757,-75.741969526728909,-77.238656854132714,-78.735344181534316,-80.232031508933744,-81.728718836331,-83.225830876999311,-84.722953811866816,-86.220076746731934,-87.717199681594892,-89.2143226164556,0.14324452260630627,0.14324452260630627,0.14324452260630627,0.14324452260630627,0.14324452260630627,0.14324452260630627,0.14324452260630627,0.14324452260630627,0.14324452260630627,0.14324452260630627,0.14324452260630627,0.14324452260630627
DP 82,80.639511083262192,0.0012995655461408337,-70.256429436981833,-68.221697398063867,-66.186965359145262,-64.15223332022579,-62.117501281305678,-60.083345512769732,-58.071664507127615,-56.059983501484766,-54.048302495841192,-52.0366214901969,-50.02732839196068,-48.063405985906414,-46.099483579851579,-44.135561173796077,-42.171638767739992,-40.212972453018295,-38.31913192717878,-36.425291401338605,-34.531450875497725,-32.6376103496562,-30.752838204433285,-28.949682341937272,-27.146526479440642,-25.343370616943407,-23.540214754445582,-21.750672260130834,-20.056424372502462,-18.3621764848735,-16.667928597243947,-14.973680709613806,-13.298107195983322,-11.728356311769231,-10.158605427554555,-8.5888545433393162,-7.0191036591235179,-5.4733551914787819,-4.040762269806244,-2.6081693481331509,-1.175576426459513,0.25701649521467,1.6602536218704236,2.946066181079253,4.2318787402886127,5.5176912994985079,6.8035038587089378,8.0548137064231664,9.1872794317666688,10.319745157110706,11.452210882455255,12.584676607800315,13.677901472585027,14.653402272051364,15.628903071518229,16.604403870985607,17.579904670453516,18.512006734310727,19.329692458067306,20.14737818182439,20.96506390558196,21.782749629340053,22.553587609610577,23.215112712375678,23.876637815141269,24.538162917907382,25.199688020674003,25.811710161377892,26.320917018081737,26.830123874786075,27.339330731490929,27.848537588196276,28.306423702957023,28.668998482422072,29.031573261887605,29.394148041353617,29.756722820820148,30.066999773670872,30.290112363961949,30.513224954253623,30.736337544545776,30.9594501348384,31.130096238027569,31.222041370763765,31.313986503500441,31.405931636237653,31.497876768975395,31.537936325210715,31.507796594582128,31.477656863954081,31.447517133326532,31.417377402699508,31.336599957261551,31.193930907869603,31.051261858478181,30.908592809087281,30.76592375969695,30.574436768436517,30.328992133145807,30.083547497855616,29.838102862565975,29.592658227276903,28.623666446707336,28.285158485610946,27.946650524515118,27.564259513242867,27.142163999835013,26.720068486427735,26.297972973021071,25.87587745961498,25.412804521498817,24.916203895305227,24.419603269112233,23.923002642919858,23.426402016728115,22.891890586367371,22.329357503643489,21.76682442092023,21.204291338197638,20.64175825547569,20.044454120160495,19.423968735350382,18.803483350540951,18.182997965732174,17.562512580924089,16.910392576885894,16.23929132288772,15.568190068890244,14.897088814893499,14.225987560897442,13.52632015597292,12.811270562071293,12.096220968170428,11.381171374270281,10.66612178037086,9.925454064634657,9.1724513389104452,8.4194486131870239,7.6664458874643815,6.91344316174252,6.1376080409799822,5.3519872997516016,4.5663665585240265,3.78074581729729,2.9951250760713424,2.1892651054525647,1.3757279218875798,0.562190738323438,-0.25134644523982513,-1.0648836288022561,-1.8962815364543986,-2.7336332438978244,-3.5709849513403178,-4.4083366587819368,-5.2456883662226357,-6.0987509924421053,-6.9563750447595867,-7.8139990970761453,-8.6716231493917419,-9.5292472017063883,-10.400669199121186,-11.275540845834797,-12.150412492547442,-13.025284139259053,-13.900155785969687,-14.787153473244905,-15.676723489871332,-16.566293506496688,-17.455863523121007,-18.345433539744256,-19.245694449442521,-20.147842106213666,-21.049989762983696,-21.952137419752585,-22.854285076520377,-23.765952152350657,-24.678979248021474,-25.592006343691189,-26.505033439359678,-27.418060535027081,-28.339606465693013,-29.262099023047554,-30.184591580400852,-31.107084137752821,-32.029576695103557,-32.959977164403071,-33.891018896558357,-34.822060628712414,-35.753102360865249,-36.684144093016918,-37.622517659316706,-38.561277184571622,-39.500036709825167,-40.438796235077255,-41.377555760327944,-42.323494824163909,-43.269618048333179,-44.215741272501049,-45.161864496667413,-46.107987720832327,0.092209978964352554,0.092209978964352554,0.092209978964352554,0.092209978964352554,0.092209978964352554,0.092209978964352554,0.092209978964352554,0.092209978964352554,0.092209978964352554,0.092209978964352554,0.092209978964352554,0.092209978964352554
DP 83,188.10150791523284,0.0010052206738831396,-82.677041277064049,-79.737757024481681,-76.798472771898773,-73.859188519315438,-70.9199042667315,-67.982209837926248,-65.106519137598809,-62.230828437270809,-59.355137736942396,-56.479447036613486,-53.610194866846541,-50.863275994923583,-48.116357123000114,-45.369438251076268,-42.622519379151896,-39.889353012929007,-37.325802616900894,-34.762252220872313,-32.198701824843283,-29.635151428813803,-27.094344123405744,-24.758226783299069,-22.422109443191953,-20.08599210308444,-17.7498747629765,-15.446154312470648,-13.369214538935221,-11.292274765399405,-9.2153349918631751,-7.13839521832655,-5.1031736802332368,-3.3043581051578768,-1.5055425300821308,0.29327304499400642,2.0920886200705322,3.8410670976007806,5.3550965663197312,6.8691260350390673,8.38315550375877,9.8971849724788523,11.355099874585781,12.588553858232693,13.822007841879969,15.055461825527603,16.288915809175617,17.462190699942482,18.428179520474938,19.39416834100777,20.360157161540943,21.326145982074472,22.230205093521015,22.948472736239363,23.66674037895806,24.385008021677105,25.103275664396509,25.760049433421294,26.254700876352455,26.749352319283947,27.24400376221579,27.738655205147996,28.174136159324348,28.471550775449764,28.7689653915755,29.066380007701579,29.363794623828035,29.605848150235108,29.732919341750325,29.859990533265851,29.987061724781739,30.114132916297933,30.190697348627509,30.173462149908698,30.156226951190227,30.138991752472077,30.1217565537543,30.059485093888995,29.922152063610422,29.784819033332184,29.647486003054272,29.510152972776734,29.333490996005622,29.097834670140092,28.862178344274884,28.626522018410075,28.390865692545589,28.121515332045991,27.806578175322986,27.491641018600305,27.176703861877932,26.861766705155919,26.518466998266007,26.140501356535324,25.762535714805004,25.384570073075032,25.006604431345423,24.605149241909889,24.177731453376719,23.750313664843908,23.322895876311424,22.89547808777931,21.517408750833084,21.051664501309109,20.585920251785467,20.104759150061373,19.609649190209687,19.114539230358371,18.61942927050745,18.124319310656869,17.616965651620824,17.099594210107991,16.582222768595546,16.064851327083506,15.547479885571834,15.020500427405667,14.486419233771436,13.952338040137629,13.418256846504196,12.884175652871182,12.342637319489667,11.796127442133143,11.249617564777045,10.703107687421351,10.15659781006608,9.60435791825204,9.0486799311057649,8.49300194395992,7.937323956814522,7.3816459696695524,6.8216044275383769,6.2592132154228235,5.6968220033077461,5.1344307911931306,4.5720395790789539,4.0063511304666264,3.4390750773690106,2.8717990242718847,2.3045229711752353,1.7372469180790746,1.1674949030193054,0.59668172797108232,0.025868552923348005,-0.54494462212386985,-1.1157577971706041,-1.6884221617213644,-2.2617887257355909,-2.8351552897493031,-3.4085218537624762,-3.9818884177751408,-4.5566366788430752,-5.1318455230090141,-5.707054367174381,-6.2822632113392105,-6.8574720555034849,-7.4337140773801975,-8.0102560666771385,-8.5867980559735049,-9.1633400452692921,-9.7398820345645039,-10.317201829097241,-10.894716084128756,-11.472230339159685,-12.04974459418999,-12.627258849219688,-13.20536681139181,-13.783600718244294,-14.361834625096121,-14.940068531947318,-15.518302438797866,-16.096996816484431,-16.675772458850251,-17.254548101215367,-17.833323743579832,-18.412099385943595,-18.991255582454588,-19.570466147954054,-20.149676713452823,-20.728887278950879,-21.308097844448248,-21.887599650389102,-22.467133819437251,-23.046667988484632,-23.626202157531242,-24.205736326577068,-24.785578471252727,-25.36544559007179,-25.945312708890103,-26.525179827707685,-27.105046946524531,-27.685139642947426,-28.265244214119466,-28.845348785290682,-29.425453356460991,-30.005557927630498,-30.585911928509642,-31.166272327439614,-31.746632726368691,-32.326993125296916,-32.907353524224249,0.055747550584618763,0.055747550584618763,0.055747550584618763,0.055747550584618763,0.055747550584618763,0.055747550584618763,0.055747550584618763,0.055747550584618763,0.055747550584618763,0.055747550584618763,0.055747550584618763,0.055747550584618763
DP 84,223.05924706241393,0.0018748524618636964,-164.11661730857389,-157.99203495120696,-151.86745259383918,-145.74287023647062,-139.618287879101,-133.49752876098589,-127.52587741934582,-121.55422607770514,-115.58257473606342,-109.61092339442096,-103.65465980008665,-97.990766313564649,-92.326872827041754,-86.66297934051812,-80.999085853993719,-75.367746069562884,-70.137906046984327,-64.908066024404945,-59.678226001824832,-54.448385979243845,-49.271667285356124,-44.573045570807118,-39.874423856257359,-35.1758021417069,-30.477180427155652,-25.852974946649837,-21.74968873159338,-17.646402516536231,-13.54311630147834,-9.439830086419736,-5.4304758372912127,-1.9534086474752843,1.5236585423413462,5.0007257321586733,8.4777929219766932,11.845197275869232,14.695613765848289,17.546030255828029,20.39644674580844,23.246863235789512,25.976945945237524,28.225687845508617,30.474429745780355,32.723171646052748,34.971913546325766,37.095206325999676,38.786391309122052,40.477576292245011,42.168761275368588,43.859946258492855,45.425926330430315,46.616286935002293,47.806647539574847,48.99700814414809,50.187368748721916,51.257406630709248,52.0102259265898,52.763045222471035,53.515864518352771,54.268683814235217,54.909663402704126,55.289680150136071,55.669696897568521,56.049713645001624,56.429730392435353,56.708837076792378,56.778358387641134,56.847879698490523,56.917401009340537,56.986922320191177,56.967797847975071,56.784043098949461,56.600288349924348,56.416533600899896,56.232778851876084,55.973016454508596,55.586572727414243,55.200129000320374,54.813685273227115,54.427241546134496,53.977050065058869,53.431235446631462,52.885420828204609,52.339606209778367,51.793791591352722,51.195581681100236,50.526482857796893,49.857384034494011,49.188285211191811,48.519186387890244,47.807815881534921,47.044779096876979,46.281742312219627,45.518705527562929,44.755668742906821,43.959106495024479,43.125489120657605,42.291871746291356,41.45825437192574,40.624636997560756,37.992923650716229,37.106961687900039,36.22099972508444,35.314901871472443,34.390585468422429,33.4662690653731,32.541952662324427,31.617636259276402,30.678034589323438,29.72592652921567,28.773818469108551,27.821710409002094,26.86960234889634,25.906032855020626,24.933991678211193,23.961950501402516,22.989909324594485,22.0178681477872,21.037327744637956,20.051121056701618,19.064914368766047,18.078707680831187,17.0925009928971,16.1000531409362,15.103860496172103,14.107667851408799,13.111475206646256,12.115282561884475,11.114544383799259,10.111358544748111,9.1081727056978217,8.1049868666483089,7.1018010275995858,6.0953250884484627,5.08726498095456,4.0792048734615181,3.071144765969319,2.0630846584779716,1.0526512698871531,0.041200728779248318,-0.970249812327795,-1.981700353433931,-2.9931508945392142,-4.0063141271570224,-5.0201270237114839,-6.0339399202650439,-7.0477528168176491,-8.0615657133693617,-9.07662199393073,-10.092092751498148,-11.107563509064569,-12.123034266630048,-13.138505024194526,-14.154890677844559,-15.171541957644719,-16.18819323744388,-17.20484451724203,-18.22149579703914,-19.238836101647024,-20.256348670597692,-21.273861239547312,-22.291373808495859,-23.308886377443326,-24.326936615509251,-25.345100910759548,-26.363265206008681,-27.381429501256751,-28.399593796503645,-29.418192572956563,-30.436868027393977,-31.45554348183019,-32.474218936265238,-33.492894390699085,-34.511961440218265,-35.531084436121546,-36.550207432023605,-37.56933042792442,-38.588453423824042,-39.607882910284737,-40.627346454469823,-41.646809998653616,-42.666273542836016,-43.685737087017081,-44.7055856053742,-45.725465341786425,-46.745345078197317,-47.765224814606952,-48.785104551015294,-49.805258706228749,-50.825427307266118,-51.845595908301959,-52.865764509336309,-53.885933110369258,-54.906434834447133,-55.9269451033695,-56.947455372290293,-57.967965641209624,-58.988475910127335,0.0978780184846551,0.0978780184846551,0.0978780184846551,0.0978780184846551,0.0978780184846551,0.0978780184846551,0.0978780184846551,0.0978780184846551,0.0978780184846551,0.0978780184846551,0.0978780184846551,0.0978780184846551
DP 85,194.90971918046085,0.005361509618570061,-446.97409135039521,-430.92499273159905,-414.87589411280032,-398.82679549399887,-382.77769687519475,-366.73753995663117,-351.04611272826219,-335.35468549989042,-319.66325827151621,-303.97183104313945,-288.3165713014742,-273.34850064457191,-258.38042998766736,-243.41235933076013,-228.44428867385074,-213.55332693017144,-199.61338483426385,-185.67344273835417,-171.7335006424419,-157.79355854652727,-143.98080202301151,-131.31272767284216,-118.64465332267056,-105.97657897249682,-93.30850462232074,-80.8210118104202,-69.597603421483029,-58.374195032543746,-47.15078664360226,-35.927378254658692,-24.935601548699104,-15.256418975722376,-5.5772364027435781,4.1019461702372864,13.781128743220208,23.184843798737536,31.289911393332009,39.394978987928475,47.500046582527,55.605114177127383,63.401584223876291,69.963649494717515,76.525714765560721,83.087780036405888,89.649845307252889,95.882794375369627,100.98210714143752,106.08141990750723,111.18073267357896,116.2800454396525,121.0427053350908,124.79539389029571,128.54808244550247,132.30077100071088,136.05345955592136,139.47401302840879,142.01892623052126,144.56383943263549,147.1087526347516,149.65366583686952,151.88116880307263,153.36803788481532,154.85490696655981,156.34177604830612,157.8286451300541,159.02066288084811,159.60028852283514,160.17991416482388,160.7595398068145,161.33916544880674,161.65180039920716,161.468588283433,161.28537616766081,161.10216405189033,160.91895193612166,160.49950961933268,159.68634434651116,158.87317907369118,158.06001380087318,157.24684852805692,156.22903735276253,154.90425248791107,153.57946762306139,152.25468275821333,150.9298978933673,149.43122725490264,147.69729552604139,145.9633637971819,144.2294320683244,142.49550033946855,140.61642798339309,138.55995847874831,136.50348897410555,134.44701946946464,132.39054996482545,130.21490879925096,127.90754921596111,125.60018963267328,123.29283004938706,120.98547046610292,113.5815296663193,111.08142489869944,108.58132013108153,106.00437137422843,103.35789571980524,100.71142006538386,98.064944410964742,95.418468756547313,92.711513967931936,89.955075211962992,87.198636455996123,84.442197700031357,81.6857589440685,78.882290631751,76.04406056990463,73.2058305080604,70.367600446218177,67.529370384378282,64.65497151925814,61.756459548832822,58.857947578409885,55.959435607989029,53.060923637570376,50.134872913362116,47.192298520402296,44.249724127444622,41.307149734489379,38.364575341536394,35.401218675301557,32.426671252013989,29.452123828728929,26.477576405446261,23.503028982165887,20.512916381528061,17.515309218276791,14.517702055028105,11.520094891781925,8.5224877285383176,5.5132911081522957,2.49912742107148,-0.51503626600675922,-3.529199953082276,-6.54336364015524,-9.5661247414374238,-12.592147042954064,-15.618169344467979,-18.644191645979053,-21.670213947487461,-24.70260996800409,-27.737130641848374,-30.771651315689621,-33.806171989528067,-36.840692663363583,-39.8799549130436,-42.92059380708637,-45.961232701126121,-49.00187159516291,-52.042510489196559,-55.086709289818309,-58.131798109145244,-61.176886928469109,-64.2219757477897,-67.267064567107155,-70.314872607340888,-73.36325748316311,-76.411642358981865,-79.460027234797437,-82.508412110609513,-85.558914112049933,-88.609789747435144,-91.6606653828168,-94.711541018194964,-97.762416653569474,-100.81506483294017,-103.86796625202631,-106.92086767110881,-109.97376909018752,-113.0266705092626,-116.08093042723183,-119.13534130378613,-122.18975218033644,-125.24416305688267,-128.29857393342488,-131.354471023827,-134.41048863323914,-137.46650624264728,-140.52252385205153,-143.57854146145209,-146.63563893560934,-149.69279325549371,-152.7499475753736,-155.80710189524882,-158.86425621511984,-161.9226295754047,-164.98103420494959,-168.03943883448983,-171.09784346402543,-174.15624809355643,0.29368135391202055,0.29368135391202055,0.29368135391202055,0.29368135391202055,0.29368135391202055,0.29368135391202055,0.29368135391202055,0.29368135391202055,0.29368135391202055,0.29368135391202055,0.29368135391202055,0.29368135391202055
DP 86,52.564388019291172,0.001138050678992788,-45.95053186127015,-44.725034554145893,-43.499537247021088,-42.274039939895623,-41.048542632769554,-39.823308664871718,-38.608345026460178,-37.393381388048063,-36.178417749635308,-34.963454111222,-33.749594437593466,-32.556710303582278,-31.36382616957053,-30.170942035558276,-28.978057901545537,-27.787623645484064,-26.627404859581894,-25.467186073679198,-24.306967287775961,-23.146748501872164,-21.990809325516878,-20.873387039616613,-19.755964753715819,-18.638542467814538,-17.52112018191276,-16.41021425318954,-15.344923317466057,-14.279632381742086,-13.214341446017634,-12.149050510292692,-11.092853748333068,-10.088191210773756,-9.08352867321398,-8.0788661356537244,-7.0742035980929971,-6.0814660076114553,-5.1449466688820484,-4.2084273301521815,-3.2719079914218541,-2.3353886526910763,-1.4137898941568412,-0.55187416156527525,0.31004157102673852,1.1719573036192015,2.0338730362121051,2.8778016426018791,3.6597738364403245,4.4417460302792096,5.2237182241185325,6.0056904179582986,6.7666240693197679,7.4644412978107173,8.1622585263021055,8.8600757547939288,9.5578929832861839,10.231723081084121,10.842313555308895,11.4529040295341,12.063494503759728,12.674084977985796,13.25791739220068,13.77931348998832,14.300709587776373,14.822105685564882,15.343501783353796,15.835612000833217,16.266896845935744,16.69818169103873,17.129466536142125,17.560751381245982,17.960520437800305,18.301759321645918,18.642998205491956,18.984237089338453,19.32547597318537,19.633308517292491,19.885462986471854,20.137617455651693,20.389771924831933,20.641926394012653,20.859150248155462,21.023977354321186,21.188804460487376,21.353631566653991,21.518458672821076,21.647212504051776,21.727160513971711,21.8071085238921,21.887056533812981,21.967004543734316,22.010122495123717,22.008225156925654,22.006327818728082,22.004430480531013,22.002533142334379,21.963423773621873,21.883184578060781,21.80294538250017,21.722706186940066,21.642466991380463,21.215576374392018,21.060867825932231,20.906159277472948,20.714525749061796,20.48948324065811,20.26444073225495,20.039398223852341,19.814355715450276,19.552997029795758,19.261924484090279,18.970851938385369,18.67977939268102,18.388706846977232,18.062190065240081,17.709474787264814,17.356759509290157,17.004044231316062,16.651328953342595,16.264262165298938,15.854293829384957,15.444325493471604,15.03435715755889,14.624388821646775,14.181341627595462,13.718446618396918,13.255551609199022,12.792656600001813,12.329761590805214,11.83519638387061,11.323577533000194,10.811958682130486,10.300339831261473,9.7887209803931476,9.2469338290905654,8.6906207773511159,8.134307725612409,7.5779946738744162,7.021681622137149,6.4367548449831276,5.8395646562795651,5.2423744675767452,4.6451842788747024,4.0479940901734039,3.4237567688033534,2.78925983759065,2.1547629063787368,1.5202659751676433,0.8857690439573318,0.2257672209524097,-0.44273655408345,-1.1112403291184414,-1.779744104152603,-2.4482478791859075,-3.1407741505313012,-3.8402749879836842,-4.5397758254351759,-5.239276662885783,-5.9387775003354859,-6.660910708675452,-7.38870227714172,-8.1164938456070654,-8.8442854140714644,-9.5720769825349183,-10.321233889280899,-11.074923082264753,-11.8286122752476,-12.582301468229478,-13.335990661210353,-14.109924086267288,-14.887430247984637,-15.664936409700912,-16.442442571416155,-17.219948733130327,-18.016777491050348,-18.81636682858651,-19.615956166121659,-20.415545503655665,-21.215134841188608,-22.033258420174036,-22.8534415539727,-23.673624687770168,-24.493807821566381,-25.313990955361422,-26.152294198850207,-26.992066825581496,-27.831839452311609,-28.671612079040596,-29.511384705768442,-30.36890070974972,-31.22735075222964,-32.085800794708234,-32.944250837185479,-33.802700879661423,-34.678967590576612,-35.555691311865864,-36.432415033153788,-37.309138754440234,-38.185862475725337,0.086778113483368821,0.086778113483368821,0.086778113483368821,0.086778113483368821,0.086778113483368821,0.086778113483368821,0.086778113483368821,0.086778113483368821,0.086778113483368821,0.086778113483368821,0.086778113483368821,0.086778113483368821
DP 87,151.31530914957574,0.0036451518959758175,-274.21457693892847,-265.01982824915444,-255.82507955937857,-246.63033086960013,-237.4355821798203,-228.2449979930883,-219.21683099985094,-210.18866400661153,-201.1604970133705,-192.1323300201274,-183.12114382869856,-174.43259608186355,-165.74404833502695,-157.05550058818872,-148.36695284134882,-139.71504599921303,-131.51504826624026,-123.31505053326592,-115.11505280028979,-106.91505506731187,-98.776518132051976,-91.191134185616889,-83.605750239180281,-76.020366292742054,-68.4349823463022,-60.938716321639106,-54.066282488245974,-47.193848654851315,-40.321414821455122,-33.448980988057414,-26.693775120893108,-20.602868449407662,-14.511961777920696,-8.4210551064322541,-2.33014843494233,3.617227782415942,8.8879526779105689,14.15867757340664,19.429402468904147,24.700127364403073,29.804708820000865,34.2447086639564,38.684708507913371,43.124708351871753,47.564708195831464,51.821005133025885,55.444539896332749,59.068074659640907,62.691609422950485,66.315144186261321,69.743260044147661,72.585111797270983,75.426963550395683,78.268815303521734,81.110667056649092,83.751448333598148,85.86212780774504,87.972807281893381,90.0834867560429,92.194166230193687,94.103924724974249,95.544861270796972,96.985797816620973,98.426734362446183,99.867670908272757,101.11299492893015,101.95204109284572,102.79108725676254,103.63013342068064,104.46917958460003,105.12218654181834,105.42968709098115,105.73718764014527,106.04468818931072,106.35218873847737,106.48647082384025,106.3320511034488,106.17763138305861,106.02321166266979,105.86879194228221,105.55618511682822,105.00629389576896,104.45640267471103,103.90651145365439,103.35662023259904,102.66481620347616,101.78100933667159,100.89720246986846,100.01339560306657,99.12958873626603,98.12053905097342,96.958412179059,95.796285307146022,94.634158435234355,93.472031563323966,92.201038888148048,90.8097186851279,89.418398482109126,88.027078279091569,86.6357580760756,81.995257779231849,80.417321348319817,78.839384917409092,77.182517134506384,75.4542338501487,73.725950565792459,71.997667281437614,70.26938399708429,68.475139758180788,66.6269263319727,64.778712905765957,62.930499479560886,61.082286053357166,59.17957335765815,57.236577697318218,55.293582036979927,53.350586376643122,51.407590716308022,49.420039502274506,47.402783883869347,45.385528265465844,43.368272647063968,41.351017028663748,39.2976907009472,37.222721402130865,35.1477521033161,33.072782804503156,30.997813505691834,28.893905101081355,26.774413680217346,24.654922259355168,22.535430838494666,20.415939417635908,18.273421001218662,16.11981519041699,13.966209379617185,11.812603568819243,9.6589977580231974,7.4872031037213826,5.3076129851713292,3.1280228666231822,0.94843274807704381,-1.2311573704672156,-3.4250242303785159,-5.6243065921109308,-7.8235889538413428,-10.022871315569654,-12.222153677296003,-14.43258623392196,-16.646735662703524,-18.860885091482892,-21.075034520260157,-23.289183949035223,-25.512012752081379,-27.737361479318597,-29.962710206553542,-32.188058933786273,-34.413407661016741,-36.645505581537982,-38.879290880122682,-41.113076178705107,-43.346861477285138,-45.580646775862789,-47.819693576321789,-50.059856513217014,-52.30001945010968,-54.540182386999945,-56.780345323887694,-59.024627781843478,-61.269637259912948,-63.514646737979682,-65.759656216043879,-68.00466569410537,-70.252991896496653,-72.501791952475671,-74.750592008451989,-76.99939206442545,-79.24819212039624,-81.499582502730391,-83.751260726306725,-86.00293894988009,-88.254617173450413,-90.506295397017809,-92.7603555696871,-95.014608897702047,-97.268862225714173,-99.523115553723457,-101.77736888172974,-104.03349297050941,-106.28971553899241,-108.54593810747217,-110.80216067594853,-113.05838324442159,-115.31647085881895,-117.57460631298382,-119.83274176714535,-122.09087722130343,-124.34901267545814,0.21742339173257164,0.21742339173257164,0.21742339173257164,0.21742339173257164,0.21742339173257164,0.21742339173257164,0.21742339173257164,0.21742339173257164,0.21742339173257164,0.21742339173257164,0.21742339173257164,0.21742339173257164
DP 88,201.74784080567116,0.0045842892768838978,-387.11979934806459,-373.08399000205253,-359.04818065603882,-345.01237131002256,-330.97656196400357,-316.94880171091455,-303.23495912541858,-289.52111653992023,-275.80727395441977,-262.09343136891704,-248.41210599063382,-235.34861369669437,-222.28512140275308,-209.22162910880996,-196.15813681486458,-183.1638404002656,-171.0229685516,-158.8820967029327,-146.74122485426309,-134.60035300559147,-122.5733161896253,-111.57080542784863,-100.56829466607017,-89.565783904289873,-78.563273142507711,-67.721860381472325,-58.008145807412269,-48.294431233350544,-38.580716659286928,-28.86700208522149,-19.359120643712643,-11.017639923757025,-2.6761592037996325,5.6653215161595067,14.006802236120386,22.104599882727236,29.053592735968486,36.002585589211449,42.951578442456139,49.900571295702413,56.577949871988274,62.168858503781848,67.759767135577221,73.3506757673742,78.94158439917274,84.244427167729185,88.555030972530133,92.865634777332673,97.17623858213679,101.48684238694256,105.50455255145292,108.64357072121874,111.78258889098613,114.92160706075514,118.06062523052557,120.91253596472107,123.00751722777353,125.1024984908275,127.19747975388309,129.29246101694017,131.11492644490102,132.30151300480134,133.48809956470342,134.67468612460669,135.86127268451176,136.79651626459088,137.20973249973176,137.62294873487426,138.03616497001815,138.44938120516352,138.63669508137002,138.40446990453322,138.17224472769783,137.94001955086406,137.70779437403172,137.27723328238787,136.51610733354198,135.75498138469743,134.9938554358545,134.23272948701305,133.30115049660259,132.11388791598554,130.92662533537009,129.7393627547562,128.55210017414367,127.2211874793629,125.69592143530258,124.17065539124393,122.64538934718654,121.12012330313084,119.47595622560621,117.68646316525142,115.89697010489797,114.10747704454634,112.31798398419612,110.43169663820568,108.43842420827529,106.4451517783465,104.45187934841935,102.45860691849386,96.09080488400933,93.942338262823625,91.793871641639427,89.584076938730874,87.318793819634337,85.053510700539334,82.788227581446023,80.522944462354431,78.209823923841867,75.857562856413367,73.505301788986515,71.15304072156141,68.80077965413804,66.411653517932777,63.995278681406226,61.5789038448815,59.162529008358526,56.746154171837361,54.30168336812546,51.8384814770102,49.375279585896855,46.912077694785317,44.448875803675683,41.964474139730058,39.46735229147162,36.970230443215115,34.4731085949606,31.975986746707989,29.463008475408273,26.941491899581585,24.419975323756997,21.898458747934484,19.376942172113903,16.84365225733352,14.304693533006366,11.765734808681366,9.2267760843584856,6.6878173600377826,4.1401642485140977,1.5887848536472919,-0.96259454121733634,-3.5139739360796645,-6.0653533309398355,-8.6231346523930519,-11.183344374292787,-13.743554096190238,-16.30376381808528,-18.863973539978069,-21.428900074329192,-23.995398938943229,-26.561897803554761,-29.128396668163866,-31.694895532770534,-34.264888405928126,-36.83589571127699,-39.406903016623261,-41.977910321967009,-44.548917627308143,-47.122544308591849,-49.696825864807366,-52.271107421020233,-54.845388977230378,-57.419670533437795,-59.995957626301951,-62.572670159008148,-65.1493826917115,-67.726095224411992,-70.302807757109619,-72.881091287921109,-75.4596520711611,-78.038212854398068,-80.616773637632051,-83.195334420863,-85.7752303122558,-88.355316947805562,-90.93540358335234,-93.515490218895863,-96.095576854436317,-98.676690122275176,-101.25791747114832,-103.83914482001813,-106.42037216888436,-109.00159951774722,-111.58398972317337,-114.16647422614658,-116.74895872911648,-119.331443232083,-121.9139277350464,-124.49725143568779,-127.08061931297385,-129.66398719025631,-132.24735506753478,-134.83072294480971,-137.41505762931368,-139.99941711311556,-142.58377659691345,-145.16813608070751,-147.75249556449774,0.24808293345236396,0.24808293345236396,0.24808293345236396,0.24808293345236396,0.24808293345236396,0.24808293345236396,0.24808293345236396,0.24808293345236396,0.24808293345236396,0.24808293345236396,0.24808293345236396,0.24808293345236396
DP 89,124.47011429772431,0.0045845274417773028,-315.09105919145082,-305.0318081802854,-294.97255716911724,-284.91330615794647,-274.85405514677353,-264.79871282839639,-254.89581100700835,-244.99290918561798,-235.09000736422522,-225.1871055428299,-215.30022773041856,-205.71780911796674,-196.1353905055127,-186.55297189305654,-176.97055328059838,-167.42296966753369,-158.30502210388141,-149.18707454022675,-140.06912697657023,-130.95117941291107,-121.89227940584256,-113.36481298935423,-104.83734657286377,-96.309880156371221,-87.782413739876688,-79.341695304437877,-71.508219296017771,-63.674743287595639,-55.8412672791716,-48.007791270745464,-40.290234925932722,-33.229563979512534,-26.168893033090345,-19.108222086666252,-12.047551140240252,-5.1314202904450443,1.1032994397415592,7.338019169930047,13.572738900120415,19.807458630312613,25.871385163423891,31.252130836422236,36.632876509422381,42.013622182424349,47.394367855428122,52.581913389386777,57.103983661519742,61.6260539336545,66.148124205791049,70.670194477929357,74.981568130178957,78.66084395664592,82.340119783114716,86.019395609585175,89.69867143605741,93.155274384327015,96.024823000136223,98.89437161594708,101.76392023175968,104.63346884757387,107.27406465703854,109.38043003806007,111.48679541908322,113.59316080010812,115.6995261811346,117.57615970631242,118.97565115718342,120.37514260805622,121.77463405893063,123.17412550980676,124.34809428564787,125.10322914594981,125.85836400625344,126.61349886655857,127.36863372686562,127.90673248873122,128.08309894932862,128.25946540992763,128.43583187052838,128.6121983311308,128.58344365604003,128.24700243033996,127.91056120464141,127.57411997894455,127.23767875324941,126.71057689728272,125.925518183547,125.14045946981319,124.3554007560809,123.57034204235035,122.61076273196602,121.43787680436466,120.26499087676513,119.09210494916726,117.91921902157119,116.58884183878646,115.08439224000435,113.57994264122392,112.07549304244529,110.57104344366864,105.35640405811719,103.57143769336501,101.78647132861454,99.878125042363209,97.858147081990751,95.8381691216203,93.81819116125186,91.798213200885158,89.67094259001037,87.455885239371185,85.240827888733975,83.025770538098769,80.810713187465524,78.503350590376854,76.127760858988083,73.752171127601457,71.376581396216793,69.000991664834288,66.546784284101591,64.040163898631846,61.533543513164275,59.026923127698893,56.520302742235586,53.947347741250745,51.334590967750692,48.72183419425275,46.109077420757224,43.496320647263843,40.8280798315768,38.129962186338439,35.431844541102379,32.733726895868664,30.035609250637194,27.291456367149916,24.525137724311136,21.758819081474861,18.992500438641066,16.226181795809765,13.421947988118633,10.601464312091787,7.7809806360674694,4.9604969600458215,2.1400132840266823,-0.7114924764755,-3.5747656389855109,-6.4380388014928531,-9.3013119639974029,-12.164585126499324,-15.05309775326818,-17.950023852879,-20.846949952486867,-23.743876052091963,-26.640802151694135,-29.558172382396624,-32.481478255339013,-35.404784128278472,-38.328090001214889,-41.251395874148372,-44.191215935091996,-47.135164738152994,-50.079113541210965,-53.023062344265774,-55.967011147317358,-58.924296566125847,-61.884411116830563,-64.844525667531883,-67.804640218230034,-70.7647547689247,-73.73566008752141,-76.708469779269109,-79.681279471013355,-82.65408916275409,-85.626898854491174,-88.608578343281636,-91.591525041748852,-94.5744717402126,-97.557418438672528,-100.54036513712884,-103.53052834296648,-106.52149345874398,-109.51245857451772,-112.50342369028721,-115.49438880605283,-118.49178199679307,-121.48969644848327,-124.4876109001697,-127.48552535185222,-130.48343980353098,-133.48674059950264,-136.49032494086686,-139.4939092822265,-142.49749362358168,-145.50107796493259,-148.50985885612232,-151.51877304255294,-154.52768722897906,-157.53660141540058,-160.54551560181775,0.29050235123568557,0.29050235123568557,0.29050235123568557,0.29050235123568557,0.29050235123568557,0.29050235123568557,0.29050235123568557,0.29050235123568557,0.29050235123568557,0.29050235123568557,0.29050235123568557,0.29050235123568557
DP 90,101.11081214802114,0.0042589978512761612,-262.78065786981307,-254.78960378722056,-246.79854970462591,-238.80749562202865,-230.816441539429,-222.82804406966511,-214.9432555050121,-207.05846694035674,-199.17367837569881,-191.28888981103884,-183.41505018838259,-175.74924253365984,-168.08343487893544,-160.41762722420862,-152.75181956947989,-145.1099716218724,-137.76362974838588,-130.41728787489734,-123.07094600140658,-115.72460412791364,-108.4192553044728,-101.48284780623013,-94.546440307985392,-87.610032809738883,-80.673625311490355,-73.798133724884437,-67.349058126063468,-60.899982527240532,-54.450906928415726,-48.001831329588995,-41.63529682799502,-35.736500411982334,-29.837703995967818,-23.938907579951458,-18.040111163933261,-12.24590095721779,-6.9447456718564169,-1.643590386493256,3.6575648988716831,8.9587201842383877,14.134020173447238,18.805893030026528,23.477765886607543,28.149638743190319,32.821511599774745,37.348109991659335,41.374312457791774,45.4005149239259,49.426717390061739,53.45291985619923,57.31714176169384,60.695415861021992,64.073689960351842,67.451964059683377,70.8302381590165,74.033180029083567,76.77387635922868,79.51457268937547,82.255269019523865,84.995965349673881,87.551712093562173,89.6759039756236,91.800095857686486,93.92428773975108,96.048479621817279,97.981981239396632,99.519428300191649,101.05687536098841,102.59432242178681,104.13176948258662,105.47659055278233,106.46367243836214,107.45075432394366,108.43783620952671,109.42491809511132,110.22098833052492,110.69870100108331,111.17641367164343,111.65412634220522,112.13183901276858,112.4233073596649,112.43540482005523,112.4475022804473,112.4595997408409,112.47169720123622,112.30499304774467,111.89637685181116,111.48776065587931,111.07914445994916,110.6705282640207,110.09268997804865,109.30802113867655,108.52335229930615,107.7386834599376,106.9540146205707,106.01129800228087,104.89389385173941,103.77648970119958,102.65908555066166,101.54168140012537,97.46044429817708,96.051429736246448,94.6424151743175,93.100430220339234,91.43813632717233,89.7758424340073,88.113548540844093,86.451254647682774,84.668988969609458,82.7885624966332,80.9081360236588,79.027709550686339,77.147283077715869,75.15969664399843,73.092903260359535,71.026109876722771,68.959316493087812,66.892523109455041,64.730911158950065,62.506085336805405,60.28125951466275,58.056433692522248,55.831607870383827,53.52361872448828,51.165730326629152,48.8078419287723,46.449953530917689,44.092065133065248,41.661833249599823,39.192646129576914,36.723459009556379,34.254271889538167,31.785084769522221,29.253443548429836,26.691730959675482,24.13001837092359,21.568305782174125,19.006593193427122,16.391338420879684,13.753136275153052,11.114934129428905,8.4767319837073742,5.8385298379883075,3.154710684315893,0.45358793290167609,-2.2475348185099158,-4.94865756991877,-7.6497803213250384,-10.389560318687726,-13.142226551890641,-15.894892785090658,-18.647559018287943,-21.400225251482375,-24.185514054249722,-26.980274323474141,-29.77503459269564,-32.569794861914211,-35.364555131129784,-38.186773343116769,-41.015856365213367,-43.844939387306979,-46.674022409397381,-49.503105431484762,-52.355292959236849,-55.212381707444059,-58.069470455647867,-60.926559203848562,-63.783647952045889,-66.660219496771631,-69.540229398709656,-72.420239300644084,-75.3002492025752,-78.180259104502738,-81.076887771713359,-83.9758907277697,-86.8748936838225,-89.773896639871666,-92.672899595917258,-95.5860824229213,-98.500840940061082,-101.41559945719717,-104.33035797432903,-107.24511649145714,-110.17266051151796,-113.10124132462413,-116.0298221377262,-118.95840295082469,-121.88698376391946,-124.82689245127418,-127.76739745524065,-130.70790245920278,-133.64840746316071,-136.58891246711403,-139.54035830291031,-142.49208477891733,-145.44381125492006,-148.39553773091831,-151.34726420691189,0.28607130010037135,0.28607130010037135,0.28607130010037135,0.28607130010037135,0.28607130010037135,0.28607130010037135,0.28607130010037135,0.28607130010037135,0.28607130010037135,0.28607130010037135,0.28607130010037135,0.28607130010037135
DP 91,79.342963318146957,0.0014190521577541223,-75.94713120170195,-73.754922049512885,-71.562712897322953,-69.370503745132211,-67.178294592940688,-64.986699375001223,-62.819047825045104,-60.651396275088054,-58.483744725130364,-56.316093175171808,-54.150987140142909,-52.034246370002506,-49.917505599861464,-47.800764829719768,-45.684024059577304,-43.572887737059617,-41.5308736415739,-39.488859546087475,-37.446845450600286,-35.404831355112421,-33.372492442093233,-31.427231085807922,-29.481969729521929,-27.5367083732353,-25.591447016948049,-23.660719331416729,-21.831728440172977,-20.002737548928629,-18.173746657683591,-16.344755766437938,-14.5357170417573,-12.83974185154938,-11.143766661340848,-9.447791471131703,-7.7518162809219273,-6.0815095557812331,-4.5322126952331923,-2.98291583468454,-1.4336189741352956,0.11567788641454473,1.6335494376850106,3.0257182666581977,4.4178870956319694,5.8100559246063277,7.2022247535812571,8.5574148845592326,9.7852323912045325,11.013049897850413,12.240867404496864,13.468684911143876,14.654392358755342,15.713768037142842,16.773143715530896,17.83251939391954,18.8918950723087,19.904634976145168,20.794424416863286,21.684213857581955,22.574003298301154,23.463792739020935,24.30316499018582,25.024895543892068,25.746626097598888,26.468356651306266,27.190087205014191,27.858458691510712,28.416005948088014,28.973553204665855,29.531100461244229,30.088647717823168,30.590784158349777,30.9900133012095,31.389242444069794,31.788471586930633,32.187700729792027,32.530363636043532,32.77874805549051,33.027132474938114,33.275516894386236,33.523901313834919,33.715433054630353,33.821684434001106,33.927935813372457,34.034187192744355,34.140438572116821,34.190357998300065,34.164062352625194,34.137766706950913,34.111471061277122,34.085175415603985,34.003792717026471,33.855080241145956,33.706367765266023,33.557655289386666,33.408942813507913,33.207013015207821,32.946263012092523,32.685513008977779,32.424763005863696,32.1640130027502,31.1275969700644,30.765180365422815,30.402763760781855,29.99230191747337,29.53836970750606,29.084437497539369,28.630505287573342,28.176573077607951,27.677675502248547,27.141987309716775,26.606299117185685,26.070610924655256,25.534922732125516,24.957537978936781,24.349333343312452,23.741128707688866,23.13292407206594,22.524719436443746,21.878180541683065,21.206084870264274,20.533989198846228,19.861893527428919,19.189797856012355,18.482741216881909,17.754707468395686,17.026673719910203,16.298639971425544,15.57060622294162,14.81092409971399,14.034200083711026,13.257476067708904,12.480752051707576,11.704028035707035,10.898849271369254,10.079969674192025,9.2610900770156626,8.4422104798401421,7.6233308826654875,6.7790247341784156,5.9238211489373267,5.0686175636971145,4.213413978457818,3.35821039321939,2.4804074547874051,1.594032053266728,0.70765665174697434,-0.17871874977181648,-1.0650941512896954,-1.9714679457220909,-2.8845081231612841,-3.7975483005994577,-4.7105884780366649,-5.6236286554728663,-6.5543101361613179,-7.4901135006931927,-8.4259168652240284,-9.3617202297538231,-10.297523594282575,-11.248865499742957,-12.204092224025315,-13.159318948306607,-14.114545672586775,-15.06977239686587,-16.038695955616774,-17.010525060423152,-17.98235416522833,-18.954183270032388,-19.926012374835292,-20.909954258642845,-21.896033826381185,-22.882113394118278,-23.868192961854177,-24.854272529588851,-25.851169901451229,-26.849612790760521,-27.848055680068587,-28.846498569375317,-29.844941458680843,-30.853095610608928,-31.862328893706991,-32.871562176803714,-33.880795459899,-34.890028742992925,-35.908296726572942,-36.927297345755456,-37.946297964936633,-38.965298584116496,-39.984299203295045,-41.011699295653443,-42.03954154911748,-43.067383802579911,-44.095226056040829,-45.123068309500191,-46.159144549524,-47.195431997231,-48.231719444936466,-49.268006892640329,-50.304294340342523,0.10104468537311795,0.10104468537311795,0.10104468537311795,0.10104468537311795,0.10104468537311795,0.10104468537311795,0.10104468537311795,0.10104468537311795,0.10104468537311795,0.10104468537311795,0.10104468537311795,0.10104468537311795
DP 92,90.2557134591724,0.0045618996315446,-263.91800055356572,-256.09063489793937,-248.26326924231043,-240.43590358667893,-232.60853793104485,-224.78357011471417,-217.05211893791281,-209.32066776110858,-201.58921658430179,-193.85776540749256,-186.13622449342111,-178.60298044487391,-171.06973639632434,-163.53649234777271,-156.00324829921877,-148.49175686776292,-141.24855045531817,-134.00534404287114,-126.76213763042179,-119.51893121797022,-112.31310739054447,-105.44373036181665,-98.574353333086748,-91.704976304354687,-84.835599275620638,-78.022071702072338,-71.599494538003057,-65.176917373931659,-58.754340209858249,-52.331763045782694,-45.985355146694396,-40.070577882281334,-34.155800617866291,-28.241023353449254,-22.326246089030246,-16.508714564784569,-11.149632496666689,-5.7905504285468572,-0.43146836042511078,4.9276137076985362,10.16866943421044,14.937614216277584,19.706558998346598,24.475503780417498,29.244448562490227,33.8758484193217,38.0334766443603,42.191104869400753,46.34873309444307,50.506361319487127,54.509016317972716,58.046745777481085,61.584475236991274,65.122204696503275,68.65993415601703,72.028002898247408,74.948778463447326,77.869554028648963,80.790329593852363,83.711105159057638,86.450724336250033,88.767639567042337,91.084554797836319,93.401470028632062,95.718385259429567,97.84609135299101,99.580819120211345,101.31554688743343,103.05027465465727,104.78500242188284,106.32597330573493,107.50710474500124,108.68823618426936,109.86936762353911,111.05049906281077,112.03672145227512,112.69809051258758,113.35945957290188,114.02082863321777,114.68219769353561,115.15066005055458,115.32975779418558,115.50885553781841,115.68795328145293,115.86705102508931,115.85804598746012,115.59454476819256,115.33104354892667,115.0675423296627,114.8040411104006,114.35962625521951,113.69409093388002,113.02855561254256,112.36302029120692,111.69748496987332,110.86015197243057,109.83293391433972,108.80571585625086,107.7784977981638,106.75127974007877,102.8635185426326,101.51385706572589,100.16419558882119,98.664903178715647,97.030227706517778,95.395552234322039,93.760876762128348,92.126201289936745,90.35407847091642,88.469496369641618,86.58491426836882,84.700332167098267,82.815750065829718,80.806126693896871,78.704079457727758,76.6020322215608,74.49998498539604,72.397937749233577,70.183160866884776,67.89322911119109,65.603297355499691,63.31336559981056,61.02343384412378,58.632727378134021,56.181554561909863,53.7303817456881,51.279208929468794,48.828036113251805,46.287483058251972,43.698800882628873,41.110118707008439,38.521436531390478,35.932754355774996,33.265372060674174,30.560096013404813,27.854819966138173,25.149543918874173,22.444267871612887,19.67015311542551,16.866535125884617,14.06291713634649,11.259299146811228,8.455681157278681,5.5922029351242486,2.7060183270732567,-0.18016628097484821,-3.0663508890199425,-5.9525354970621862,-8.8905159538996088,-11.845762346439979,-14.801008738977167,-17.756255131511338,-20.711501524042369,-23.711397362592418,-26.72425648808926,-29.737115613582873,-32.749974739073245,-35.762833864560321,-38.81409924170255,-41.874966635530818,-44.935834029355789,-47.996701423177214,-51.057568816995271,-54.151477163892039,-57.25239457635611,-60.353311988816571,-63.454229401273381,-66.555146813726637,-69.684565068169377,-72.819013199893121,-75.953461331612985,-79.087909463329154,-82.222357595041359,-85.381651198423157,-88.544494423288072,-91.707337648149093,-94.870180873006063,-98.0330240978592,-101.21759723875041,-104.404585042968,-107.5915728471814,-110.77856065139019,-113.9655484555949,-117.17240407814809,-120.38087080790702,-123.589337537662,-126.79780426741269,-130.00627099715933,-133.23277814193264,-136.46023496172344,-139.68769178150959,-142.91514860129092,-146.14260542106746,-149.38759784913503,-152.63304007817808,-155.878482307216,-159.12392453624918,-162.36936676527731,0.31535664877835595,0.31535664877835595,0.31535664877835595,0.31535664877835595,0.31535664877835595,0.31535664877835595,0.31535664877835595,0.31535664877835595,0.31535664877835595,0.31535664877835595,0.31535664877835595,0.31535664877835595
DP 93,184.73342129554482,0.0043392056140763623,-354.40699319067642,-341.870245525257,-329.3334978598354,-316.79675019441146,-304.26000252898524,-291.72993501989896,-279.460396133818,-267.19085724773504,-254.92131836164992,-242.65177947556256,-230.40931063420936,-218.6811777602363,-206.95304488626132,-195.22491201228428,-183.49677913830556,-171.8265202386188,-160.8700476489837,-149.91357505934653,-138.95710246970754,-128.00062988006644,-117.13999030716302,-107.14185694316718,-97.1437235791696,-87.1455902151702,-77.147456851168968,-67.2860549947989,-58.381784031075739,-49.477513067350742,-40.573242103624032,-31.668971139895543,-22.941115473044047,-15.212957605155767,-7.4847997372657638,0.2433581306259284,7.9715159985193047,15.488455324319652,22.009638686176622,28.530822048035265,35.05200540989555,41.573188771757451,47.855951393856884,53.185019789002041,58.5140881841488,63.843156579297066,69.172224974447019,74.244895251077637,78.434405681674363,82.623916112272724,86.813426542872662,91.002936973474007,94.927799410133076,98.058707859030847,101.18961630793011,104.32052475683082,107.45143320573314,110.31871288434324,112.49096219818568,114.66321151202951,116.83546082587503,119.00771013972178,120.92542700133551,122.24922678817228,123.57302657501073,124.89682636185047,126.22062614869174,127.30542951224967,127.89384873815359,128.48226796405896,129.07068718996572,129.65910641587416,130.02867024083878,129.99178241077638,129.9548945807156,129.91800675065619,129.8811189205982,129.64832448492876,129.08901410195654,128.52970371898576,127.97039333601631,127.41108295304858,126.68000792807581,125.69128188124954,124.70255583442469,123.71382978760131,122.72510374077923,121.58861670226766,120.25221444757915,118.91581219289215,117.57940993820672,116.24300768352268,114.78170000555393,113.16772751997064,111.55375503438879,109.93978254880857,108.32581006322975,106.60794664510166,104.77525433944292,102.94256203378573,101.10986972813008,99.277177422476143,93.353457526607357,91.350507707537687,89.34755788846968,87.275816286060277,85.1418332601947,83.007850234330746,80.873867208468411,78.739884182607724,76.551021625166015,74.317256689654158,72.0834917541439,69.849726818635418,67.6159618831285,65.338934612021973,63.02993012082856,60.720925629636952,58.411921138446992,56.1029166472588,53.760180465643188,51.394955959017281,49.02973145239315,46.664506945770853,44.299282439150389,41.908019768806724,39.501133806445054,37.09424784408526,34.687361881727441,32.280475919371433,29.853670741842905,27.416139543409066,24.978608344977292,22.541077146547448,20.103545948119496,17.650895777040827,15.190965888900068,12.731036000761431,10.271106112624855,7.8111762244903939,5.339844208327218,2.8636254119043403,0.38740661548358363,-2.0888121809349292,-4.5650309773513387,-7.0498090122778665,-9.5378337665038515,-12.025858520727601,-14.513883274949004,-17.001908029168209,-19.496344088990316,-21.992917331479021,-24.489490573965224,-26.986063816449118,-29.482637058930536,-31.984018028805949,-34.486794849139827,-36.989571669471239,-39.492348489800179,-41.995125310126546,-44.501527935247182,-47.008837054403614,-49.516146173557566,-52.023455292708789,-54.5307644118574,-57.040842029902947,-59.551506937007112,-62.062171844108306,-64.572836751206921,-67.083501658302708,-69.5963109163195,-72.1094986130478,-74.6226863097731,-77.135874006495584,-79.649061703215054,-82.164012049921368,-84.679214222806763,-87.194416395689245,-89.709618568568672,-92.224820741445058,-94.741371832885321,-97.258072818329921,-99.774773803771112,-102.29147478920875,-104.80817577464323,-107.32627965876648,-109.84449730576452,-112.36271495275936,-114.88093259975109,-117.39915024673962,-119.91840063393572,-122.43770538615132,-124.95701013836333,-127.47631489057176,-129.99561964277623,-132.51605384845166,-135.03651702541828,-137.55698020238106,-140.07744337934011,-142.5979065562951,0.24215025453253675,0.24215025453253675,0.24215025453253675,0.24215025453253675,0.24215025453253675,0.24215025453253675,0.24215025453253675,0.24215025453253675,0.24215025453253675,0.24215025453253675,0.24215025453253675,0.24215025453253675
DP 94,239.21826713083902,0.0015414038862191491,-138.17878888436803,-132.91506219432705,-127.65133550428557,-122.38760881424312,-117.12388212419995,-111.8636435621536,-106.73944331082041,-101.61524305948632,-96.491042808151533,-91.366842556816167,-86.256642395982951,-81.41244660131855,-76.568250806653523,-71.724055011987929,-66.879859217321638,-62.065150590609839,-57.614120751562872,-53.163090912515287,-48.712061073467069,-44.261031234418127,-39.857824104811364,-35.885025880450044,-31.912227656088163,-27.939429431725628,-23.966631207362532,-20.060314423086719,-16.619372746548194,-13.178431070009093,-9.7374893934693922,-6.2965477169291137,-2.9387578732641773,-0.052166988967209026,2.8344238953303238,5.7210147796284225,8.6076056639270728,11.398134315186109,13.735792965019675,16.073451614853806,18.411110264688482,20.748768914523676,22.982248240618407,24.799005348175523,26.615762455733115,28.4325195632913,30.249276670849962,31.958814900042341,33.299039155104566,34.639263410167317,35.979487665230565,37.31971192029431,38.554401312040426,39.472482123722635,40.39056293540537,41.308643747088595,42.226724558772311,43.0448746144097,43.599567423899678,44.154260233390147,44.708953042881106,45.263645852372569,45.726891217191792,45.976756329870248,46.226621442549209,46.476486555228561,46.726351667908482,46.895042500127488,46.895138235178386,46.89523397022981,46.895329705281661,46.895425440334044,46.825412532786217,46.625195967052768,46.424979401319796,46.224762835587285,46.0245462698553,45.765261843564964,45.407529494167846,45.049797144771233,44.692064795375053,44.334332445979442,43.927946087024942,43.448577564024433,42.969209041024357,42.489840518024756,42.010471995025647,41.49184716995304,40.920110004298628,40.348372838644721,39.776635672991269,39.204898507338285,38.602082870919567,37.961281784104521,37.320480697289916,36.679679610475823,36.038878523662206,35.373899089599973,34.682195737975718,33.990492386351953,33.298789034728671,32.607085683105886,30.439425407674324,29.710701897844022,28.981978388014213,28.239292778631263,27.483974542088326,26.728656305545858,25.973338069003965,25.218019832462581,24.452312084930529,23.678103649855636,22.903895214781326,22.129686779707551,21.355478344634317,20.573633798433697,19.786145044569718,18.998656290706368,18.211167536843522,17.423678782981284,16.630639151359073,15.833898847117943,15.0371585428774,14.240418238637448,13.443677934398092,12.642940663755457,11.839805152823514,11.036669641892193,10.233534130961504,9.43039862003141,8.6244066007241358,7.81687641998324,7.0093462392430093,6.2018160585034208,5.3942858777644584,4.5847242322082788,3.77418444551581,2.9636446588240339,2.1531048721329267,1.3425650854425089,0.5305822393897478,-0.28201908016064703,-1.0946203997103519,-1.9072217192593286,-2.7198230388076223,-3.5334537599249556,-4.3474749571266615,-5.1614961543276419,-5.97551735152786,-6.7895385487273678,-7.60430281471804,-8.4193147796700245,-9.2343267446212067,-10.049338709571636,-10.864350674521258,-11.679910924887865,-12.495630361578105,-13.311349798267504,-14.127069234956108,-14.942788671643903,-15.758926733012519,-16.575169455496781,-17.391412177980222,-18.207654900462781,-19.023897622944489,-19.840475725513922,-20.657124973155835,-21.47377422079683,-22.290423468436948,-23.107072716076182,-23.924002292857345,-24.740981342603593,-25.557960392348892,-26.374939442093261,-27.191918491836667,-28.009163423953733,-28.8264463421383,-29.64372926032193,-30.461012178504522,-31.278295096686186,-32.095789685268691,-32.913307795006716,-33.730825904743682,-34.5483440144795,-35.365862124214289,-36.183664158579141,-37.001489216760326,-37.819314274940467,-38.637139333119578,-39.454964391297686,-40.2729911967974,-41.0910286225834,-41.9090660483682,-42.727103474151818,-43.545140899934246,-44.36343011250834,-45.181725783593777,-46.0000214546779,-46.818317125760871,-47.636612796842613,0.078439538616960347,0.078439538616960347,0.078439538616960347,0.078439538616960347,0.078439538616960347,0.078439538616960347,0.078439538616960347,0.078439538616960347,0.078439538616960347,0.078439538616960347,0.078439538616960347,0.078439538616960347
DP 95,63.740222833184433,0.0011777501292329752,-54.58549036721773,-53.076636011560154,-51.56778165590206,-50.058927300243191,-48.550072944583754,-47.041584104494824,-45.547350509878662,-44.05311691526191,-42.558883320644519,-41.064649726026467,-39.571940571031277,-38.1081960570658,-36.644451543099805,-35.180707029133245,-33.716962515166117,-32.256589020592,-30.8377918567155,-29.418994692838421,-28.000197528960708,-26.581400365082455,-25.168462416194195,-23.808257956040919,-22.448053495887084,-21.087849035732734,-19.727644575577848,-18.376310414999168,-17.08706902220219,-15.797827629404686,-14.508586236606652,-13.219344843808104,-11.942397531454295,-10.735117449656981,-9.5278373678591528,-8.3205572860608328,-7.113277204261987,-5.9219891913011553,-4.8060932237721321,-3.6901972562426173,-2.5743012887126131,-1.4584053211821242,-0.3623360332736828,0.65442559912493581,1.6711872315240337,2.6879488639236104,3.7047104963236612,4.6978130885415039,5.6094224373396608,6.521031786138292,7.4326411349373975,8.3442504837369569,9.2284981556208,10.030659762253837,10.832821368887352,11.634982975521316,12.437144582155732,13.208490724400821,13.898595037723284,14.588699351046202,15.278803664369578,15.968907977693432,16.625089785835328,17.202118013087691,17.779146240340513,18.356174467593803,18.933202694847544,19.4736290437513,19.938035042343,20.402441040935141,20.86684703952772,21.331253038120785,21.756862438811474,22.110419967083821,22.463977495356652,22.817535023629894,23.171092551903623,23.484179286196518,23.729813677095894,23.975448067995746,24.221082458896035,24.466716849796821,24.670742790923203,24.812355074168572,24.953967357414427,25.095579640660798,25.237191923907559,25.336588893602595,25.378870088436059,25.421151283269989,25.463432478104416,25.505713672939329,25.505682665800752,25.453935856384241,25.402189046968253,25.350442237552773,25.298695428137762,25.205014644796904,25.064984950559989,24.92495525632356,24.784925562087643,24.644895867852281,24.019168397943307,23.796883193331524,23.574597988720253,23.312365849723168,23.013990527076476,22.71561520443035,22.417239881784756,22.118864559139723,21.782038228008634,21.4137513200379,21.045464412067737,20.677177504098161,20.308890596129139,19.903902241601887,19.471786127608066,19.039670013614877,18.607553899622264,18.175437785630283,17.708562831445839,17.218514769559381,16.728466707673597,16.238418645788414,15.748370583903858,15.225639579120582,14.683298314321922,14.140957049523903,13.598615784726583,13.056274519929916,12.483404430159709,11.894095298385949,11.304786166612907,10.715477034840573,10.12616790306893,9.5085107345975857,8.8772041144583422,8.2458974943198466,7.6145908741820749,6.9832842540450617,6.3257908907882481,5.6570742840235928,4.988357677259696,4.3196410704965844,3.6509244637342229,2.9581222636703304,2.2561838348931209,1.5542454061167064,0.852306977341123,0.15036854856632723,-0.57364976252884758,-1.305028312665472,-2.0364068628012193,-2.7677854129361319,-3.4991639630701772,-4.2507432984676283,-5.008187624347312,-5.765631950226104,-6.5230762761040042,-7.2805206019809958,-8.0564388138315053,-8.8369757154460622,-9.6175126170597149,-10.398049518672391,-11.178586420284137,-11.97604600300919,-12.777095439248386,-13.578144875486572,-14.37919431172377,-15.180243747959983,-15.996854320589975,-16.816211149153947,-17.635567977716835,-18.454924806278694,-19.274281634839493,-20.108072293631359,-20.943925084089692,-21.779777874546962,-22.615630665003092,-23.451483455458149,-24.300803401482568,-25.15161983956137,-26.002436277638953,-26.853252715715286,-27.704069153790453,-28.567775020436464,-29.43252610759502,-30.297277194752432,-31.162028281908693,-32.026779369063817,-32.903896422897176,-33.78166444011697,-34.6594324573354,-35.537200474552549,-36.41496849176832,-37.305028308714256,-38.195403419173374,-39.085778529631142,-39.97615364008751,-40.866528750542471,0.0874477364322215,0.0874477364322215,0.0874477364322215,0.0874477364322215,0.0874477364322215,0.0874477364322215,0.0874477364322215,0.0874477364322215,0.0874477364322215,0.0874477364322215,0.0874477364322215,0.0874477364322215
DP 96,244.07553552840858,0.0014499140277119407,-130.84611028967495,-125.83183093282928,-120.81755157598292,-115.80327221913585,-110.78899286228801,-105.77809419132571,-100.89904354811685,-96.0199929049073,-91.140942261696964,-86.26189161848616,-81.396398676477375,-76.788504620304508,-72.18061056413103,-67.57271650795694,-62.964822451782325,-58.38544537717911,-54.157781335911864,-49.930117294643978,-45.702453253375481,-41.474789212106408,-37.293290198013239,-33.527280792082891,-29.761271386151993,-25.995261980220548,-22.229252574288523,-18.527272154423407,-15.273499478705409,-12.019726802986895,-8.7659541272678183,-5.5121814515481935,-2.3382738548341249,0.38305992821951068,3.1043937112736746,5.8257274943283575,8.5470612773835644,11.176419393323071,13.372172967916832,15.567926542511112,17.763680117105885,19.959433691701161,22.055789320603541,23.754548469129411,25.453307617655742,27.152066766182596,28.850825914709937,30.447679781758804,31.693522287179078,32.93936479259979,34.185207298021,35.4310498034427,36.577001835438296,37.423278670450472,38.269555505463096,39.115832340476231,39.962109175489807,40.714215881478069,41.218052646920221,41.721889412362835,42.22572617780591,42.729562943249427,43.147623303692562,43.365536016573614,43.583448729455107,43.801361442337033,44.019274155219428,44.161415200806964,44.146182118313142,44.130949035819761,44.115715953326834,44.100482870834391,44.020136497906329,43.8188636842889,43.617590870671876,43.4163180570553,43.215045243439192,42.959198304076274,42.612393112893322,42.265587921710768,41.9187827305287,41.571977539347074,41.18045989149963,40.721872502085631,40.263285112672,39.804697723258876,39.34611033384617,38.851644185481554,38.308635388817088,37.765626592153083,37.222617795489533,36.679608998826474,36.108354276695721,35.502576163474217,34.896798050253189,34.291019937032658,33.685241823812561,33.057613810907874,32.405835474083013,31.754057137258638,31.102278800434718,30.45050046361127,28.412010087927232,27.726969542140083,27.041928996353409,26.344416741542272,25.635620334977755,24.926823928413722,24.218027521850196,23.509231115287122,22.791208704901802,22.065637587379754,21.340066469858243,20.61449535233724,19.888924234816738,19.156611983012219,18.419317042879737,17.682022102747791,16.944727162616381,16.207432222485497,15.465265583275336,14.719851067932801,13.97443655259084,13.229022037249415,12.483607521908541,11.734705101359598,10.983709884937149,10.232714668515284,9.4817194520940156,8.73072423567331,7.9772498957386286,7.2224406070921674,6.4676313184463279,5.7128220298010941,4.9580127411564359,4.2014491304275481,3.4440408215368743,2.686632512646848,1.9292242037574439,1.1718158948686859,0.41316652681458987,-0.34601474049655551,-1.1051960078070566,-1.8643772751168777,-2.6235585424260606,-3.3836226763191446,-4.1440217021504644,-4.9044207279811,-5.6648197538110239,-6.4252187796402778,-7.1862547037738809,-7.9475029353685072,-8.7087511669623741,-9.4699993985555455,-10.231247630147985,-10.992966884629817,-11.754822893436618,-12.516678902242676,-13.278534911047965,-14.040390919852493,-14.802608744796697,-15.564917028050077,-16.327225311302715,-17.089533594554506,-17.851841877805523,-18.614442823876139,-19.377105853291184,-20.139768882705376,-20.902431912118747,-21.665094941531272,-22.428005407352469,-23.1909595411731,-23.953913674992808,-24.716867808811632,-25.47982194262957,-26.243014363992238,-27.006240829006021,-27.769467294018856,-28.5326937590308,-29.295920224041833,-30.059337451122193,-30.822775875990583,-31.586214300857971,-32.349652725724319,-33.113091150589696,-33.876789722668626,-34.640509390422316,-35.404229058175027,-36.16794872592677,-36.931668393677555,-37.695572842794355,-38.45948701908361,-39.22340119537175,-39.987315371658752,-40.751229547944682,-41.515375900377919,-42.279528208295439,-43.0436805162118,-43.807832824126962,-44.571985132041014,0.073238170918849321,0.073238170918849321,0.073238170918849321,0.073238170918849321,0.073238170918849321,0.073238170918849321,0.073238170918849321,0.073238170918849321,0.073238170918849321,0.073238170918849321,0.073238170918849321,0.073238170918849321
DP 97,100.43629890139852,0.0013733048168582123,-84.421305627753839,-81.857944661442986,-79.294583695131422,-76.73122272881912,-74.167861762505922,-71.605348941848135,-69.075914122453241,-66.546479303057467,-64.017044483660982,-61.487609664263786,-58.961670366100975,-56.502146632209175,-54.042622898316836,-51.583099164423665,-49.123575430529883,-46.6717025367132,-44.314190968077419,-41.956679399440979,-39.599167830803786,-37.241656262165939,-34.89723871270477,-32.670668573501864,-30.444098434298272,-28.217528295094112,-25.990958155889277,-23.783851907100129,-21.712994363024162,-19.642136818947566,-17.57127927487036,-15.500421730792523,-13.455948336339533,-11.560986785670396,-9.6660252350006566,-7.7710636843303265,-5.8761021336594057,-4.0145871357552441,-2.3107505502721217,-0.60691396478841919,1.0969226206958567,2.8007592061807003,4.4643261686487694,5.966812735882737,7.4692993031172668,8.971785870352333,10.474272437587974,11.930247688726729,13.226015341618018,14.521782994509866,15.817550647402252,17.113318300295198,18.357193525392127,19.445389505127519,20.533585484863416,21.621781464599895,22.709977444336886,23.741963836630845,24.625759384576586,25.509554932522846,26.393350480469632,27.277146028416947,28.101603770314725,28.787604761870881,29.473605753427588,30.159606744984824,30.845607736542579,31.470381125991668,31.967987714968103,32.465594303945,32.963200892922437,33.460807481900439,33.896512752075289,34.217256758477824,34.538000764880884,34.858744771284464,35.179488777688547,35.438795320494734,35.595704542067473,35.752613763640724,35.9095229852145,36.066432206788846,36.163382971428312,36.170394633830433,36.177406296233094,36.18441795863631,36.191429621040051,36.140823507524708,36.01226265103729,35.883701794550404,35.755140938064052,35.626580081578268,35.443434466586233,35.193573000217249,34.943711533848806,34.693850067480909,34.443988601113567,34.143094774375363,33.785795744356676,33.42849671433855,33.071197684321028,32.713898654304018,31.406359101690466,30.954802908465247,30.503246715240603,30.008664086968363,29.475152004718726,28.941639922469651,28.408127840221205,27.874615757973324,27.302240896953165,26.698068549055346,26.093896201158131,25.489723853261541,24.885551505365587,24.246627538237338,23.582017020413847,22.917406502591028,22.25279598476887,21.588185466947373,20.892790410485368,20.1768718432986,19.46095327611248,18.74503470892704,18.029116141742303,17.28616577551837,16.526995921059211,15.767826066600749,15.008656212143022,14.249486357685992,13.466773793928038,12.671384044349528,11.875994294771795,11.080604545194808,10.285214795618558,9.4694762886044472,8.6439399467671247,7.8184036049305945,6.9928672630948565,6.16733092125991,5.3243281492321843,4.4738395284158381,3.6233509076002948,2.7728622867856,1.9223736659716997,1.056985636683637,0.18594591338066821,-0.68509380992145386,-1.5561335332226907,-2.4271732565230928,-3.3108551401404411,-4.1987512365229236,-5.0866473329044677,-5.9745434292851307,-6.8624395256648665,-7.7610178337199587,-8.662697559318028,-9.5643772849151532,-10.466057010511335,-11.367736736106556,-12.278419230713022,-13.191352523940441,-14.104285817166886,-15.017219110392302,-15.930152403616733,-16.85067109488827,-17.772798896893796,-18.694926698898232,-19.617054500901656,-20.539182302903988,-21.467715102558643,-22.397378267140134,-23.32704143172046,-24.256704596299731,-25.186367760877822,-26.121501302082571,-27.057416384754713,-27.993331467425772,-28.92924655009563,-29.865161632764352,-30.805751295965639,-31.746860406096744,-32.687969516226573,-33.62907862635511,-34.570187736482417,-35.51551487716015,-36.461184063415786,-37.406853249670156,-38.352522435923383,-39.298191622175352,-40.247603767312263,-41.19721294752474,-42.146822127735824,-43.096431307945458,-44.04604048815375,-44.999265922855685,-45.952584117088072,-46.905902311319039,-47.8592205055485,-48.8125386997765,0.092405512743442622,0.092405512743442622,0.092405512743442622,0.092405512743442622,0.092405512743442622,0.092405512743442622,0.092405512743442622,0.092405512743442622,0.092405512743442622,0.092405512743442622,0.092405512743442622,0.092405512743442622
DP 98,56.82518427683393,0.0036140511789511925,-154.4696613283065,-150.29077151541765,-146.11188170252686,-141.93299188963417,-137.75410207673946,-133.57615438566145,-129.4349498017117,-125.29374521776009,-121.15254063380657,-117.01133604985112,-112.87407068712872,-108.81165127255046,-104.74923185797047,-100.68681244338882,-96.624393028805542,-92.570705160798056,-88.624707467667562,-84.678709774535463,-80.732712081401473,-76.78671438826575,-72.855938096117058,-69.062155851611664,-65.2683736071046,-61.474591362595952,-57.680809118085676,-53.910153738903148,-50.301388165807055,-46.692622592709363,-43.083857019610043,-39.475091446509161,-35.89851699360954,-32.50436091701858,-29.110204840426121,-25.716048763832177,-22.321892687236666,-18.969816347630495,-15.816118183794385,-12.662420019956803,-9.5087218561177256,-6.35502369227719,-3.2537902959604246,-0.36241844925795907,2.5289533974459544,5.4203252441513143,8.3116970908580967,11.140063732099764,13.751409796591728,16.362755861085127,18.97410192557993,21.585447990076158,24.123423239049011,26.441283267411791,28.759143295776003,31.077003324141593,33.394863352508629,35.6294625227126,37.644552932335486,39.659643341959793,41.674733751585386,43.689824161212471,45.612506683897614,47.319567892217492,49.026629100538706,50.733690308861355,52.440751517185312,54.047228128847181,55.444795345172814,56.84236256149989,58.239929777828365,59.637496994158226,60.927450036201542,62.01754527690823,63.107640517616311,64.197735758325791,65.287830999036728,66.264559200078438,67.052339477516142,67.840119754955325,68.627900032395871,69.4156803098379,70.085689387495137,70.579038882508513,71.072388377523453,71.565737872539827,72.0590873675576,72.431645288088959,72.640776627290279,72.849907966492978,73.0590393056972,73.2681706449029,73.354852214562726,73.291870382757708,73.228888550954309,73.165906719152417,73.102924887352017,72.917145913025308,72.595641337606864,72.274136762190025,71.952632186774736,71.6311276113611,70.057014198828867,69.491669287944589,68.926324377061931,68.241044980892482,67.447251272065813,66.653457563240892,65.859663854417562,65.06587014559598,64.155105881854482,63.14863642659968,62.1421669713466,61.135697516095384,60.129228060845925,59.009583757308476,57.80628661853077,56.602989479754854,55.399692340980849,54.196395202208755,52.884396005729258,51.499927058339232,50.115458110951238,48.730989163565177,47.346520216181013,45.858349835015318,44.307957025265736,42.757564215518208,41.207171405772776,39.656778596029383,38.008054764099285,36.306382028784114,34.604709293471259,32.903036558160558,31.201363822852034,29.40695782539817,27.567901180950038,25.728844536504226,23.889787892060706,22.050731247619456,20.124627857071072,18.16121754279947,16.197807228530234,14.234396914263451,12.270986599999011,10.226174118299205,8.1504838911296691,6.0747936639626294,3.99910343679816,1.9234132096361598,-0.22819121039519552,-2.4051013181133558,-4.5820114258287825,-6.7589215335415966,-8.9358316412517169,-11.183434232719291,-13.451561310685888,-15.719688388649686,-17.9878154666107,-20.255942544568889,-22.589901429773921,-24.940319044599878,-27.290736659422983,-29.641154274243057,-31.991571889060229,-34.403413151405907,-36.8282843760526,-39.253155600696161,-41.678026825336588,-44.102898049973923,-46.585300348659828,-49.077855829575007,-51.570411310486861,-54.062966791395475,-56.5555222723008,-59.102389912533525,-61.657017019369171,-64.211644126201534,-66.7662712330304,-69.32089833985593,-71.927078582353545,-74.538987492462212,-77.150896402567071,-79.762805312668121,-82.3747142227654,-85.036618009431919,-87.702575945608331,-90.368533881781048,-93.034491817950283,-95.700449754115866,-98.414994597783391,-101.13209713052429,-103.84919966326112,-106.56630219599384,-109.2834047287222,-112.04910853298009,-114.81605899484661,-117.583009456709,-120.34995991856702,-123.11691038042066,0.27297323266628271,0.27297323266628271,0.27297323266628271,0.27297323266628271,0.27297323266628271,0.27297323266628271,0.27297323266628271,0.27297323266628271,0.27297323266628271,0.27297323266628271,0.27297323266628271,0.27297323266628271
DP 99,95.4789550948919,0.0031000155076271645,-185.24740155079908,-179.68551499234968,-174.12362843389877,-168.56174187544622,-162.99985531699176,-157.43974249635318,-151.94880612122816,-146.45786974610141,-140.9669333709729,-135.47599699584273,-129.99238153575263,-124.6478648454209,-119.30334815508778,-113.95883146475303,-108.61431477441683,-103.28584273926303,-98.155256806790092,-93.0246708743156,-87.894084941839566,-82.7634990093619,-77.660426978338236,-72.804982661060038,-67.949538343780375,-63.094094026499263,-58.238649709216787,-53.424208049180585,-48.89678809037234,-44.369368131562581,-39.841948172751508,-35.314528213939028,-30.842850164852443,-26.687046450078913,-22.531242735304062,-18.375439020527836,-14.219635305750282,-10.134740671308039,-6.38413553125667,-2.6335303912039834,1.117074748850001,4.8676798889052746,8.532577309071872,11.854639799084277,15.176702289097959,18.498764779112918,21.8208272691291,25.043467812429896,27.923650807051789,30.803833801674909,33.684016796299311,36.564199790924889,39.332926078621419,41.767278031522565,44.201629984424955,46.635981937328538,49.07033389023335,51.383332308376851,53.376394509248712,55.369456710121852,57.362518910996151,59.355581111871558,61.219825949101264,62.783492879168762,64.347159809237439,65.9108267393072,67.474493669378219,68.904455108755386,70.056716640384877,71.2089781720156,72.36123970364747,73.5135012352806,74.529743606458425,75.29337529202364,76.057006977590035,76.820638663157624,77.584270348726335,78.212019550690457,78.613294521642587,79.014569492595726,79.415844463550229,79.817119434505841,80.0848783685556,80.152360092225223,80.219841815896189,80.287323539568092,80.354805263241431,80.293072140148354,80.056516056481314,79.819959972815639,79.583403889151029,79.346847805487727,78.98698079072696,78.476397825628027,77.965814860530273,77.455231895433784,76.944648930338587,76.317907145031512,75.562776983814558,74.8076468225989,74.052516661384473,73.2973865001714,70.49145391867566,69.520106509584167,68.548759100493982,67.477924694491918,66.3170764524993,65.15622821050799,63.995379968518016,62.834531726529477,61.583089367724583,60.257522992787315,58.931956617851661,57.606390242917307,56.280823867984459,54.873571075227176,53.405940022149736,51.938308969073816,50.4706779159993,49.003046862926318,47.462438299436741,45.873176912684166,44.283915525933168,42.694654139183754,41.105392752435868,39.451494749594346,37.758813799573552,36.066132849554364,34.37345189953686,32.680770949520941,30.93130020167953,29.151249506112279,27.371198810546765,25.591148114982992,23.811097419420861,21.981521138321177,20.128098511413754,18.274675884508166,16.421253257604338,14.567830630702353,12.671510589603487,10.756805363177259,8.84210013675286,6.927394910330392,5.0126896839097368,3.0610523170909705,1.0954057258651262,-0.8702408653587822,-2.8358874565806684,-4.8015340478006463,-6.7988128256853333,-8.80663606444469,-10.814459303201902,-12.822282541957103,-14.830105780710193,-16.864914224080163,-18.907557410810931,-20.950200597539517,-22.992843784265929,-25.035486970990153,-27.10109547912824,-29.172445588956322,-31.243795698782169,-33.3151458086057,-35.386495918426931,-37.477388937110575,-39.572427645213629,-41.667466353314225,-43.762505061412391,-45.857543769508212,-47.969252620458853,-50.083903446697121,-52.198554272932746,-54.313205099165927,-56.427855925396514,-58.55688300609819,-60.687963992734495,-62.819044979368229,-64.9501259659992,-67.081206952627568,-69.224710782949813,-71.369595059704324,-73.514479336455892,-75.659363613204562,-77.804247889950318,-79.960408919836524,-82.11748439628731,-84.27455987273521,-86.431635349180425,-88.588710825622883,-90.755906807598691,-92.923635548452012,-95.0913642893022,-97.259093030149117,-99.426821770992831,-101.60435464519516,-103.78213900247495,-105.95992335975143,-108.13770771702455,-110.31549207429434,0.2113301096081607,0.2113301096081607,0.2113301096081607,0.2113301096081607,0.2113301096081607,0.2113301096081607,0.2113301096081607,0.2113301096081607,0.2113301096081607,0.2113301096081607,0.2113301096081607,0.2113301096081607
DP 100,74.386433185224845,0.0012711537647492816,-65.306074911453138,-63.445543341578514,-61.585011771703229,-59.724480201827127,-57.863948631950322,-56.003915885809512,-54.163337453996263,-52.322759022182332,-50.482180590367676,-48.641602158552281,-46.80309514914466,-45.003945557082673,-43.2047959650201,-41.405646372956888,-39.606496780893067,-37.811914116676135,-36.073657471473645,-34.335400826270558,-32.597144181066824,-30.858887535862394,-29.12853215839678,-27.469288937422839,-25.810045716448343,-24.150802495473279,-22.491559274497579,-20.844213851999505,-19.280153918523169,-17.716093985046264,-16.152034051568776,-14.587974118090724,-13.040297179143856,-11.585458241569517,-10.130619303994614,-8.6757803664191613,-7.2209414288431608,-5.787252672991996,-4.4532730590684775,-3.1192934451444163,-1.7853138312198216,-0.45133421729469608,0.85664794414531653,2.0606390669888803,3.2646301898329697,4.4686213126775787,5.6726124355227023,6.84587655585832,7.9133019322814917,8.9807273087051609,10.048152685129349,11.115578061554038,12.147842104266354,13.074620816444845,14.001399528623844,14.928178240803343,15.854956952983365,16.742588031399922,17.527010366156375,18.311432700913294,19.095855035670716,19.880277370428637,20.622135997056642,21.264677963657704,21.907219930259263,22.5497618968613,23.192303863463806,23.789524236947589,24.292613829692641,24.7957034224382,25.29879301518422,25.801882607930761,26.2576029763115,26.625350648757653,26.993098321204339,27.36084599365153,27.728593666099176,28.047656392472533,28.2855763149203,28.523496237368544,28.761416159817312,28.9993360822666,29.18797415331542,29.3026882827197,29.417402412124439,29.532116541529689,29.64683067093549,29.712351434568845,29.711315373966091,29.710279313363891,29.709243252762192,29.708207192161,29.658693172394962,29.549927295385093,29.441161418375728,29.332395541366928,29.22362966435864,29.067655469243,28.859502719970308,28.651349970698181,28.44319722142658,28.23504447215554,27.383257745745976,27.084173433139849,26.7850891205343,26.442665961109284,26.061030683812405,25.679395406516086,25.297760129220357,24.9161248519252,24.493573656664935,24.037545098084728,23.581516539505117,23.12548798092612,22.669459422347739,22.175147932199987,21.652539732884648,21.129931533569962,20.607323334255909,20.084715134942492,19.526586203181495,18.944776223545915,18.362966243911021,17.781156264276774,17.199346284643195,16.584834749107387,15.950701785472626,15.316568821838564,14.682435858205203,14.048302894572542,13.384279698624388,12.704161327544027,12.024042956464402,11.343924585385496,10.663806214307298,9.9565464627233471,9.23621825898039,8.5158900552382164,7.795561851496811,7.0752336477561881,6.330404599642141,5.57507485881914,4.8197451179969253,4.06441537717555,3.309085636354959,2.5317505413351187,1.7460683009340858,0.96038606053388875,0.17470382013456348,-0.61097842026393345,-1.4163443915020517,-2.2282718544231006,-3.0401993173432267,-3.8521267802624752,-4.6640542431808152,-5.493539068603984,-6.3281214069524507,-7.1627037452999849,-7.9972860836465767,-8.8318684219922226,-9.682093423861188,-10.536229276430358,-11.390365128998553,-12.244500981565755,-13.098636834131954,-13.966724130351578,-14.83777098355206,-15.70881783675145,-16.579864689949847,-17.450911543147146,-18.334445121652042,-19.220182378770144,-20.105919635887108,-20.991656893003,-21.87739415011777,-22.77441382641679,-23.673045398761289,-24.571676971104672,-25.470308543446887,-26.368940115787954,-27.277823974100336,-28.187847082970283,-29.097870191838975,-30.007893300706403,-30.917916409572545,-31.837560659773668,-32.757985100827923,-33.678409541880988,-34.5988339829328,-35.519258423983494,-36.448720249713389,-37.378657817185363,-38.308595384655959,-39.238532952125148,-40.1684705195929,-41.1073052405187,-42.0463681798362,-42.985431119152238,-43.92449405846687,-44.863556997780023,0.0917436548375435,0.0917436548375435,0.0917436548375435,0.0917436548375435,0.0917436548375435,0.0917436548375435,0.0917436548375435,0.0917436548375435,0.0917436548375435,0.0917436548375435,0.0917436548375435,0.0917436548375435
DP 101,52.850555712695353,0.0035441364218859518,-143.67520992706909,-139.83962313329906,-136.00403633952709,-132.16844954575342,-128.33286275197767,-124.49810293432223,-120.69559549809686,-116.89308806186956,-113.0905806256405,-109.28807318940947,-105.48903180696389,-101.75584610170736,-98.02266039644914,-94.289474691189383,-90.5562889859279,-86.830793770766476,-83.200148902743038,-79.569504034717937,-75.938859166691145,-72.308214298662634,-68.691003613085186,-65.194701839396359,-61.698400065705989,-58.20209829201405,-54.705796518320554,-51.2299451041926,-47.8972477534262,-44.564550402658277,-41.231853051888855,-37.899155701117913,-34.59499568998276,-31.45254906837922,-28.310102446774206,-25.167655825167742,-22.02520920355979,-18.920174723244724,-15.991513786881082,-13.062852850516002,-10.134191914149492,-7.2055309777815637,-4.3236673915558361,-1.6289954175725578,1.0656765564121182,3.7603485303981938,6.4550205043856472,9.0932890317786814,11.53727665142379,13.981264271070268,16.425251890718144,18.869239510367365,21.247276944949398,23.427461330852612,25.60764571675719,27.787830102663126,29.968014488570439,32.073029891996363,33.979869939766928,35.886709987538865,37.7935500353121,39.700390083086724,41.523403652344456,43.150819463936848,44.778235275530612,46.405651087125747,48.033066898722204,49.568773933337539,50.914006225478325,52.259238517620389,53.6044708097639,54.949703101908653,56.196281531275616,57.259642979804489,58.323004428334968,59.386365876866741,60.44972732539982,61.408560178388463,62.193176070759947,62.977791963132674,63.762407855506865,64.54702374788242,65.222390241421635,65.733880055112053,66.24536986880392,66.756859682497179,67.268349496191888,67.667069074208712,67.913214648856538,68.159360223505828,68.405505798156625,68.651651372808786,68.782715451954886,68.773121952675339,68.76352845339737,68.7539349541208,68.744341454845809,68.6185332312861,68.364274841991872,68.110016452699242,67.855758063408089,67.601499674118557,66.257598869525893,65.770889786123533,65.2841807027228,64.6822770823022,63.976147759184812,63.270018436069172,62.56388911295516,61.857759789842881,61.038399927512792,60.126394950791358,59.214389974071587,58.302384997353656,57.390380020637508,56.367928008231594,55.2638394147381,54.15975082124644,53.055662227756642,51.9515736342687,50.740509526766573,49.458126724681826,48.175743922599054,46.893361120518293,45.610978318439315,44.225649243238379,42.778550847269955,41.331452451303541,39.8843540553392,38.437255659376888,36.891658308257938,35.293021625866608,33.694384943477466,32.095748261090527,30.4971115787057,28.804713260844846,27.067169138874455,25.329625016906352,23.592080894940498,21.854536772976928,20.028124270658811,18.163624119628182,16.2991239685999,14.434623817574034,12.570123666550488,10.621683221113361,8.64140225929663,6.6611212974823681,4.6808403356706565,2.7005593738613731,0.64118405336539663,-1.4445570501688765,-3.5302981537004432,-5.6160392572294375,-7.701780360755758,-9.8619609517998885,-12.043753914843887,-14.225546877885138,-16.40733984092364,-18.589132803959334,-20.8410020677767,-23.110391234748015,-25.379780401716467,-27.64916956868197,-29.918558735644602,-32.254048541238838,-34.603560451740805,-36.953072362239581,-39.302584272735395,-41.652096183228053,-44.064191534954752,-46.487331719302823,-48.910471903647668,-51.33361208798928,-53.756752272327574,-56.239582556411989,-58.730940642396895,-61.222298728378476,-63.713656814356568,-66.2050149003313,-68.7535877853024,-71.308518471047861,-73.863449156789642,-76.418379842527543,-78.973310528261791,-81.584147024360789,-84.199516995272944,-86.814886966181433,-89.430256937086384,-92.045626907987824,-94.715713718762345,-97.3886809076202,-100.06164809647402,-102.73461528532358,-105.40758247416893,-108.13547762349377,-110.86478171455485,-113.59408580561148,-116.32338989666408,-119.05269398771217,0.27008292008139184,0.27008292008139184,0.27008292008139184,0.27008292008139184,0.27008292008139184,0.27008292008139184,0.27008292008139184,0.27008292008139184,0.27008292008139184,0.27008292008139184,0.27008292008139184,0.27008292008139184
DP 102,177.69275684189276,0.0010503968811937435,-84.491962624338427,-81.5348917695988,-78.577820914858592,-75.6207500601179,-72.66367920537661,-69.708134350327114,-66.812104060237,-63.916073770146376,-61.020043480055179,-58.124013189963478,-55.2341742956695,-52.461973091978855,-49.689771888287829,-46.9175706845963,-44.145369480904264,-41.386430710139635,-38.791063616927012,-36.195696523713934,-33.600329430500359,-31.004962337286273,-28.431616157525308,-26.056460280289844,-23.681304403053922,-21.306148525817576,-18.930992648580784,-16.587362119714058,-14.464411413290703,-12.341460706866929,-10.218510000442715,-8.0955592940180789,-6.0134488058044768,-4.1627687942985494,-2.3120887827922165,-0.46140877128546764,1.3892712402216936,3.1908245441068015,4.7607778586215019,6.3307311731366109,7.9006844876521134,9.4706378021680138,10.984845072690334,12.276065532647369,13.567285992604802,14.858506452562642,16.14972691252084,17.38064926321497,18.40387559335581,19.427101923497066,20.450328253638663,21.473554583780654,22.434150585623062,23.206853234610261,23.9795558835978,24.752258532585707,25.52496118157401,26.234852813512109,26.779149605238143,27.323446396964574,27.867743188691321,28.412039980418434,28.895258621725141,29.235959654325278,29.576660686925717,29.917361719526571,30.258062752127756,30.540981182465785,30.703887912202742,30.866794641940011,31.029701371677664,31.192608101415665,31.302185532974505,31.312721399130364,31.3232572652866,31.333793131443148,31.344328997600062,31.30673697671039,31.188930597649147,31.07112421858826,30.9533178395277,30.835511460467533,30.675151614145737,30.450960561381187,30.226769508617036,30.002578455853197,29.778387403089752,29.517271269780178,29.20619685333174,28.895122436883632,28.584048020435922,28.272973603988547,27.930407391224421,27.54935054370878,27.168293696193473,26.787236848678571,26.406180001164032,25.998690838686464,25.561986486321008,25.125282133955913,24.688577781591214,24.25187342922689,22.832461067244797,22.352036910277363,21.871612753310306,21.373357050528384,20.858967723350723,20.344578396173436,19.830189068996564,19.315799741820058,18.787048959045446,18.246547647606889,17.706046336168694,17.16554502473095,16.625043713293604,16.073111632007997,15.512730532930489,14.952349433853414,14.39196833477677,13.831587235700548,13.262206773690624,12.686826594620122,12.111446415550065,11.536066236480433,10.960686057411266,10.378291365207749,9.7916878590407066,9.2050843528741169,8.6184808467080156,8.031877340542362,7.4398556635161874,6.8449164310835817,6.2499771986514654,5.6550379662198269,5.0600987337886476,4.4610077318879924,3.85991767173492,3.2588276115823716,2.657737551430329,2.0566474912788042,1.4523973306526132,0.84679279858103673,0.24118826650998029,-0.36441626556052603,-0.97002079763051774,-1.578018255658475,-2.1869234064538539,-2.7958285572486892,-3.4047337080429489,-4.0136388588366643,-4.6243505770342965,-5.2356645071340164,-5.8469784372331288,-6.4582923673316746,-7.06960629742962,-7.6822838300456588,-8.2953572638941289,-8.908430697741986,-9.5215041315892286,-10.134577565435853,-10.748684086713805,-11.363048892055152,-11.97741369739586,-12.591778502735917,-13.206143308075312,-13.821298318332374,-14.436620956867278,-15.0519435954015,-15.667266233935045,-16.282588872467905,-16.898522897427121,-17.514564820906724,-18.130606744385613,-18.74664866786377,-19.362690591341202,-19.979230367144051,-20.59584127008501,-21.212452173025238,-21.829063075964712,-22.445673978903464,-23.062666286780988,-23.679700976989963,-24.296735667198107,-24.913770357405436,-25.530805047611942,-26.148223708076074,-26.765673505186733,-27.383123302296578,-28.00057309940566,-28.618022896513942,-29.235758496045595,-29.853509140652775,-30.471259785259104,-31.089010429864533,-31.706761074469,-32.324817416981233,-32.942881600864055,-33.5609457847459,-34.179009968626787,-34.797074152506724,0.059402888637231137,0.059402888637231137,0.059402888637231137,0.059402888637231137,0.059402888637231137,0.059402888637231137,0.059402888637231137,0.059402888637231137,0.059402888637231137,0.059402888637231137,0.059402888637231137,0.059402888637231137
DP 103,236.47951806071612,0.0029706358997304712,-265.27800285672328,-255.20701208588702,-245.13602131504908,-235.06503054420983,-224.99403977336948,-214.92965723239544,-205.12299815474867,-195.31633907710045,-185.50967999945112,-175.70302092180015,-165.92289754309979,-156.64695746086056,-147.37101737862019,-138.09507729637858,-128.81913721413557,-119.59912762852457,-111.06893455021519,-102.53874147190439,-94.008548393592221,-85.478355315278932,-77.038967001456669,-69.416830151040855,-61.794693300623848,-54.172556450205732,-46.550419599786359,-39.054679962123416,-32.443730371531693,-25.83278078093884,-19.221831190344869,-12.610881599749741,-6.1582679418872228,-0.60290121357843651,4.9524655147314443,10.507832243042404,16.06319897135446,21.435320607345346,25.943562624938476,30.451804642532714,34.960046660127972,39.468288677724239,43.777406739949349,47.290019569975222,50.802632400002217,54.315245230030136,57.8278580600591,61.135091819650221,63.73490015321336,66.334708486777544,68.934516820342708,71.534325153908767,73.931506718282833,75.72080031407414,77.510093909866455,79.299387505659652,81.088681101453929,82.685628464419992,83.775474602371645,84.865320740324151,85.9551668782776,87.04501301623209,87.958378716641548,88.459951169068432,88.9615236214964,89.463096073925186,89.964668526354941,90.309154858452573,90.327380833565542,90.345606808679392,90.36383278379418,90.3820587589099,90.264224807518517,89.893704461031376,89.523184114545217,89.152663768059966,88.782143421575611,88.296651180351958,87.619536216623118,86.942421252895272,86.265306289168336,85.588191325442352,84.816086791741782,83.901495658449278,82.98690452515774,82.072313391867027,81.157722258577266,80.1662503940596,79.070761712738516,77.975273031418453,76.8797843500993,75.78429566878107,74.627748600818691,73.396573333334061,72.165398065850383,70.934222798367642,69.7030475308859,68.424216632212207,67.092712771807868,65.761208911404353,64.429705051001918,63.09820119060047,58.920673398844144,57.515962915833335,56.11125243282364,54.678840530476251,53.221364940467737,51.763889350460168,50.306413760453729,48.8489381704482,47.370780414179869,45.875700530078355,44.380620645977842,42.885540761878445,41.390460877780129,39.880128949961211,38.358523521716052,36.8369180934721,35.315312665229186,33.793707236987366,32.260977807857593,30.720832202894137,29.180686597931828,27.640540992970632,26.100395388010607,24.552213634913606,22.999210071401293,21.446206507890164,19.893202944380267,18.340199380871528,16.781434661990478,15.219567698747891,13.657700735506625,12.095833772266584,10.533966809027763,8.96799090026543,7.4000365527876832,5.8320822053112717,4.2641278578361632,2.6961735103623847,1.125293230645,-0.44684105954196213,-2.018975349727588,-3.5911096399118034,-5.1632439300947,-6.737468981077547,-8.3124871065175618,-9.88750523195617,-11.462523357393293,-13.037541482829061,-14.614069713501074,-16.191101331615808,-17.768132949728972,-19.34516456784069,-20.922196185950867,-22.500340913085797,-24.078808814479913,-25.657276715872495,-27.235744617263514,-28.814212518652944,-30.393527828431971,-31.973055000319356,-33.552582172205092,-35.132109344089173,-36.711636515971641,-38.291839044109089,-39.87218483737017,-41.452530630629511,-43.032876423887153,-44.613222217143012,-46.194129044618457,-47.775134884369812,-49.356140724119349,-50.937146563867081,-52.518152403613009,-54.09968574788514,-55.6812944556434,-57.262903163399791,-58.844511871154289,-60.426120578906868,-62.008148028959887,-63.590222010331111,-65.172295991700267,-66.754369973067213,-68.336443954432085,-69.919073866775292,-71.501748860282177,-73.08442385378703,-74.667098847289893,-76.249773840790823,-77.832844045554211,-79.415935054840389,-80.9990260641243,-82.582117073405854,-84.165208082685055,-85.748790302429157,-87.332385122072921,-88.915979941714383,-90.499574761353372,-92.083169580989974,0.15181261866504281,0.15181261866504281,0.15181261866504281,0.15181261866504281,0.15181261866504281,0.15181261866504281,0.15181261866504281,0.15181261866504281,0.15181261866504281,0.15181261866504281,0.15181261866504281,0.15181261866504281
DP 104,59.942752135487929,0.003251446876257121,-144.37064381751119,-140.42598836564278,-136.48133291377255,-132.53667746190061,-128.59202201002688,-124.64828568560425,-120.74039567935391,-116.83250567310159,-112.9246156668477,-109.01672566059202,-105.11267473113305,-101.28156698659436,-97.450459242054208,-93.619351497512483,-89.788243752969237,-85.965636391081333,-82.2478681532487,-78.530099915414482,-74.812331677578669,-71.094563439741179,-67.391593259433861,-63.8218069956408,-60.252020731846258,-56.682234468050254,-53.112448204252793,-49.565110250737376,-46.174912166677288,-42.784714082615736,-39.394515998552755,-36.00431791448834,-32.645303897007267,-29.463001555207725,-26.280699213406816,-23.098396871604546,-19.916094529800894,-16.774467337500504,-13.824596618384925,-10.874725899268002,-7.92485518014975,-4.974984461030151,-2.0756972361014641,0.62125362145485252,3.3182044790124832,6.0151553365714276,8.7121061941316622,11.348485579632074,13.776227350130002,16.203969120629196,18.631710891129696,21.059452661631457,23.416877454589414,25.563348656337133,27.709819858086142,29.856291059836398,32.002762261587947,34.06971188747589,35.92701098918743,37.784310090900206,39.641609192614247,41.498908294329567,43.268274355009936,44.832460549430678,46.396646743852664,47.960832938275935,49.525019132700429,50.993871858845843,52.264721532094676,53.5355712053447,54.806420878595986,56.077270551848564,57.246553501360118,58.227209792437485,59.207866083516095,60.188522374595905,61.169178665677038,62.043314339168234,62.739912965089374,63.436511591011815,64.133110216935592,64.82970884286064,65.416168479803574,65.837417030657974,66.258665581513611,66.679914132370641,67.101162683228978,67.410002379938675,67.5667570092682,67.72351163859895,67.880266267931191,68.03702089726464,68.080410285264918,67.985239774878309,67.89006926449305,67.794898754109155,67.6997282437267,67.491478304554818,67.158243588638243,66.8250088727231,66.491774156809427,66.158539440897115,64.600596819887329,64.044066292548948,63.487535765212051,62.821810060434295,62.057286752972566,61.29276344551235,60.528240138053754,59.763716830596564,58.893332532073067,57.93633287611452,56.979333220157478,56.022333564202029,55.065333908248242,54.006541064497412,52.872508104270324,51.738475144044976,50.604442183821206,49.470409223599148,48.239232267082052,46.943291116009263,45.647349964938286,44.35140881386905,43.055467662801568,41.667462363236474,40.224217182252929,38.780972001271181,37.337726820291351,35.894481639313312,34.364537090849922,32.787907006830892,31.211276922813859,29.634646838798819,28.05801675478568,26.400201717538121,24.703296491891582,23.006391266247093,21.309486040604639,19.61258081496425,17.840025921264932,16.035048719757746,14.230071518252689,12.425094316749817,10.620117115249039,8.74493215056445,6.84311573969255,4.9412993288228657,3.0394829179555,1.1376665070903269,-0.82911257412567119,-2.81754669750254,-4.80598082087696,-6.7944149442490547,-8.7828490676187325,-10.831289116387575,-12.897150972118743,-14.963012827847402,-17.02887468357358,-19.094736539297248,-21.216017662005672,-23.351154256244264,-25.4862908504803,-27.621427444713628,-29.756564038944347,-31.942977068949997,-34.140267506142521,-36.337557943332158,-38.534848380519108,-40.732138817703238,-42.977055707709489,-45.230377795470588,-47.483699883228716,-49.737021970983925,-51.9903440587361,-54.288270311642471,-56.592569069971866,-58.896867828298362,-61.201166586621667,-63.505465344941996,-65.851776247473964,-68.202755607252328,-70.553734967027324,-72.9047143267989,-75.255693686567042,-77.64717395855206,-80.041938502139828,-82.436703045724315,-84.831467589305561,-87.226232132883709,-89.660132597666831,-92.096093237158954,-94.532053876647453,-96.968014516132158,-99.403975155613082,-101.87897214042623,-104.35497043560372,-106.83096873077744,-109.30696702594737,-111.78296532111332,0.24374779884102765,0.24374779884102765,0.24374779884102765,0.24374779884102765,0.24374779884102765,0.24374779884102765,0.24374779884102765,0.24374779884102765,0.24374779884102765,0.24374779884102765,0.24374779884102765,0.24374779884102765
DP 105,193.31551027919659,0.003137653878232454,-260.76836619262747,-251.42671902277615,-242.08507185292308,-232.74342468306875,-223.40177751321258,-214.06529958284261,-204.93042394690644,-195.795548310969,-186.66067267503004,-177.52579703908961,-168.4118353648777,-159.69524291717053,-150.97865046946188,-142.26205802175187,-133.54546557404035,-124.8734817188657,-116.75167612693845,-108.62987053501003,-100.50806494307999,-92.3862593511486,-84.33807636539116,-76.952503794108864,-69.566931222825175,-62.181358651540229,-54.795786080253954,-47.5148258246698,-40.966159689470913,-34.417493554270685,-27.8688274190692,-21.320161283866476,-14.905803299113259,-9.2525332968877709,-3.5992632946610552,2.0540067075668675,7.7072767097959929,13.200652388017547,17.940231902543136,22.679811417069907,27.419390931597835,32.158970446126922,36.719212800147986,40.562098036557337,44.404983272967826,48.24786850937943,52.090753745792142,55.742129683564215,58.733854436381179,61.725579189199188,64.717303942018319,67.70902869483858,70.504582070499538,72.711613897744371,74.918645724990341,77.1256775522373,79.332709379485507,81.345910254697813,82.848095594134662,84.350280933572549,85.852466273011515,87.354651612451548,88.671304390385828,89.555042012556925,90.43877963472903,91.322517256902273,92.2062548790765,92.91735602864857,93.269899483494314,93.6224429383413,93.974986393189184,94.327529848038012,94.523476370589876,94.4285957898128,94.333715209036654,94.238834628261557,94.14395404748754,93.910266953693352,93.445232172825769,92.980197391959308,92.5151626110939,92.050127830229485,91.464619776596962,90.698398966994887,89.932178157393921,89.1659573477939,88.399736538194986,87.530953907534922,86.523408885025447,85.51586386251698,84.508318840009636,83.500773817503188,82.407452590500284,81.209291978521051,80.011131366542827,78.81297075456574,77.61481014258969,76.346079084719321,74.999347708671635,73.652616332625087,72.30588495657959,70.959153580535272,66.633027417817061,65.171923011729234,63.710818605642487,62.204021006660881,60.655881124779981,59.107741242900261,57.559601361021713,56.011461479144351,54.427283594134437,52.813619450861587,51.1999553075898,49.58629116431932,47.972627021049981,46.330879606356127,44.668374529398946,43.005869452443044,41.343364375488257,39.680859298534848,37.996710262339654,36.298131579015283,34.599552895692163,32.900974212370407,31.202395529049944,29.487302154979719,27.762299716702412,26.037297278426422,24.312294840151861,22.587292401878607,20.849800762834317,19.105583987915058,17.361367212997258,15.617150438080852,13.872933663165828,12.119343695084492,10.361240576818011,8.6031374585530269,6.845034340289522,5.0869312220275233,3.3218353455785685,1.5537424783414604,-0.2143503888941323,-1.9824432561281282,-3.7505361233606287,-5.5238257528444361,-7.2990866357609905,-9.0743475186759532,-10.849608401589236,-12.62486928450096,-14.403988718465046,-16.184394384740749,-17.964800051014677,-19.745205717286961,-21.525611383557496,-23.308890771484005,-25.0930045007451,-26.877118230004395,-28.661231959261954,-30.445345688517698,-32.231618066508219,-34.018430132185685,-35.805242197861304,-37.592054263535069,-39.378866329206929,-41.167326785422212,-42.95613691912186,-44.744947052819477,-46.53375718651516,-48.32256732020889,-50.112659541865177,-51.902978028593765,-53.693296515320228,-55.483615002044573,-57.273933488766843,-59.065321783504658,-60.856862919513567,-62.648404055520345,-64.439945191524956,-66.231486327527364,-68.023846980401586,-69.8162986993107,-71.6087504182175,-73.401202137121786,-75.19365385602373,-76.98699511607154,-78.7804085101647,-80.573821904255666,-82.367235298344369,-84.16064869243084,-85.9547093729628,-87.748804127640113,-89.542898882314887,-91.336993636986932,-93.131088391656391,-94.925910451856566,-96.720751167964664,-98.5155918840701,-100.31043260017283,-102.10527331627287,0.1723616977134447,0.1723616977134447,0.1723616977134447,0.1723616977134447,0.1723616977134447,0.1723616977134447,0.1723616977134447,0.1723616977134447,0.1723616977134447,0.1723616977134447,0.1723616977134447,0.1723616977134447
DP 106,189.33184415144447,0.0040230655838968789,-331.71612595020321,-319.90175321251786,-308.08738047482979,-296.27300773714023,-284.45863499944835,-272.65068729113841,-261.0933181580138,-249.53594902488751,-237.9785798917591,-226.4212107586286,-214.8898560398051,-203.8527801106776,-192.81570418154823,-181.77862825241712,-170.74155232328414,-159.76002340465183,-149.46358128270825,-139.16713916076313,-128.8706970388161,-118.57425491686725,-108.3696289225136,-98.991356755104334,-89.613084587693308,-80.234812420280718,-70.856540252866353,-61.608982405470883,-53.276434682433447,-44.9438869593944,-36.611339236353707,-28.278791513311404,-20.114446454793097,-12.903260427725156,-5.6920744006556445,1.5191116264154225,8.7302976534880461,15.740708435279036,21.804596502159541,27.86848456904152,33.932372635925056,39.996260702810055,45.83429267006931,50.768889564733534,55.703486459399194,60.63808335406636,65.57268024873494,70.26530432777156,74.124456321162484,77.9836083145548,81.842760307948538,85.701912301343754,89.312324834976422,92.176509584864633,95.040694334754235,97.9048790846453,100.76906383453775,103.38654765528776,105.35362963795168,107.32071162061713,109.28779360328373,111.25487558595179,112.98487181528824,114.16166048364539,115.33844915200382,116.51523782036371,117.69202648872493,118.64728128712188,119.14242083570592,119.63756038429132,120.1326999328781,120.62783948146607,120.92114419452518,120.83960733369949,120.75807047287518,120.67653361205218,120.59499675123058,120.33374004762975,119.77294574277768,119.21215143792702,118.65135713307758,118.09056282822954,117.37305221116272,116.4204634225173,115.46787463387315,114.51528584523048,113.56269705658907,112.47604594969954,111.20801343065743,109.93998091161679,108.67194839257746,107.40391587353946,106.02320722286505,104.50478093346304,102.98635464406246,101.46792835466312,99.949502065265222,98.337904602226175,96.623326619553708,94.908748636882549,93.194170654212826,91.47959267154458,85.95641029426929,84.0900526529702,82.223695011672675,80.296382576735411,78.313919469169278,76.331456361604651,74.348993254041517,72.366530146479846,70.335737635281731,68.265402054172455,66.195066473064728,64.12473089195862,62.054395310853913,59.946196843306758,57.810012141634189,55.673827439963283,53.537642738293954,51.401458036626309,49.235935330981476,47.0508534938424,44.865771656705078,42.68068981956938,40.495607982435381,38.288020584687807,36.066929510212795,33.845838435739552,31.624747361268081,29.403656286798324,27.165454879908047,24.91803996828639,22.670625056666651,20.423210145048692,18.17579523343251,15.915472160531316,13.648933866257824,11.382395571986264,9.115857277716616,6.84931898344891,4.5731027311094374,2.2927386517731914,0.012374572438898203,-2.2679895068933318,-4.548353586223632,-6.8359430639314915,-9.1262733041884925,-11.416603544443442,-13.706933784696233,-15.997264024947,-18.292980384023444,-20.590492183920585,-22.888003983815459,-25.185515783708198,-27.483027583598698,-29.784562917351657,-32.087266422909295,-34.389969928464616,-36.692673434017621,-38.995376939568388,-41.301107698800251,-43.607595307217949,-45.914082915633273,-48.220570524046096,-50.527058132456617,-52.83585652464,-55.145145109551088,-57.45443369445973,-59.763722279365723,-62.073010864269236,-64.384092632012482,-66.695490863724558,-69.006889095433849,-71.31828732714051,-73.629685558844443,-75.942569004709242,-78.255664640067053,-80.568760275422221,-82.881855910774476,-85.194951546123917,-87.509183938842824,-89.8235426498719,-92.137901360898,-94.452260071921,-96.76661878294091,-99.082186842451932,-101.39785296960116,-103.71351909674735,-106.02918522389068,-108.34485135103112,-110.66140197440373,-112.97799915900661,-115.29459634360622,-117.61119352820232,-119.92779071279509,-122.24536953170906,-124.56297353024692,-126.88057752878113,-129.19818152731179,-131.515785525839,0.22260760072880328,0.22260760072880328,0.22260760072880328,0.22260760072880328,0.22260760072880328,0.22260760072880328,0.22260760072880328,0.22260760072880328,0.22260760072880328,0.22260760072880328,0.22260760072880328,0.22260760072880328
DP 107,192.67629451827821,0.00264535268950548,-219.57810928485554,-211.71933202213413,-203.86055475941146,-196.00177749668731,-188.14300023396197,-180.28855950165629,-172.60324509535258,-164.91793068904755,-157.23261628274125,-149.54730187643352,-141.87953565754748,-134.54518831704917,-127.21084097654983,-119.87649363604915,-112.54214629554748,-105.24523333398881,-98.410015763867563,-91.5747981937451,-84.739580623621364,-77.904363053496525,-71.13094397387728,-64.913717150087038,-58.696490326295645,-52.479263502503258,-46.262036678709762,-40.132647598428257,-34.61812936475846,-29.103611131087622,-23.589092897415675,-18.074574663742702,-12.672869476023191,-7.9104453241913939,-3.1480211723585754,1.6144029794752686,6.3768271313101241,11.004890047482224,14.999528452680121,18.994166857879009,22.988805263078891,26.983443668279751,30.827311372410119,34.068089146746452,37.3088669210838,40.54964469542206,43.790422469761339,46.870112148230376,49.394936062597246,51.919759976965025,54.444583891333785,56.969407805703426,59.32912844962533,61.193533039902924,63.057937630181463,64.922342220460862,66.786746810741235,68.487919713183629,69.7587489190183,71.029578124853828,72.300407330690263,73.571236536527692,74.685722122926208,75.435401004708524,76.18507988649165,76.934758768275771,77.684437650060715,78.288542385936367,78.590296584974709,78.892050784013946,79.19380498305398,79.495559182095022,79.665171359624225,79.589373357142293,79.513575354661214,79.437777352180888,79.361979349701642,79.168966507324953,78.780592643978338,78.392218780632675,78.003844917287864,77.615471053943935,77.125287293012178,76.482386279902315,75.839485266793261,75.196584253685216,74.553683240577968,73.82404196817393,72.977044298183017,72.1300466281931,71.283048958204034,70.436051288215864,69.516452286672859,68.508116799372118,67.499781312072159,66.4914458247732,65.483110337475139,64.414995339108373,63.280807059997322,62.146618780887174,61.012430501777928,59.878242222669542,56.233268441036941,55.002116400906374,53.770964360776752,52.501041935275524,51.196040844034556,49.891039752794555,48.5860386615555,47.281037570317409,45.945432623507919,44.584787632556512,43.224142641606115,41.863497650656733,40.50285265970836,39.118338681542,37.716182016106494,36.314025350672068,34.911868685238673,33.509712019806365,32.089143632315427,30.656300473403103,29.223457314491842,27.790614155581707,26.357770996672677,24.9108673465072,23.455527188946316,22.000187031386535,20.54484687382795,19.08950671627046,17.623524352625132,16.1518114155618,14.680098478499712,13.2083855414388,11.736672604379052,10.256966024527372,8.7734105417664683,7.2898550590068307,5.80629957624845,4.3227440934913348,2.8332203412517418,1.34113867864516,-0.15094298396014411,-1.6430246465640983,-3.1351063091667908,-4.6316266081360364,-6.1298305856634245,-7.6280345631894786,-9.126238540714116,-10.624442518237439,-12.125944196303644,-13.628545149443497,-15.131146102581893,-16.633747055718874,-18.136348008854398,-19.641406113801128,-21.147177615369696,-22.652949116936767,-24.158720618502354,-25.664492120066374,-27.172109804963821,-28.680189057506254,-30.18826831004715,-31.696347562586414,-33.204426815124144,-34.713915683463739,-36.223703577364631,-37.733491471263861,-39.243279365161428,-40.753067259057325,-42.263951074071805,-43.775028299116059,-45.286105524158515,-46.79718274919928,-48.308259974238233,-49.820250545542528,-51.33237160474954,-52.844492663954732,-54.356613723158048,-55.868734782359567,-57.381555422737009,-58.89445380170163,-60.40735218066434,-61.920250559624911,-63.433148938583557,-64.946804081174378,-66.460520590709976,-67.974237100243542,-69.487953609775246,-71.001670119305047,-72.515937841427714,-74.030234580221659,-75.54453131901343,-77.058828057802984,-78.573124796590278,-80.088039662939963,-81.602970384704591,-83.117901106466846,-84.632831828226884,-86.1477625499845,0.14548598329294479,0.14548598329294479,0.14548598329294479,0.14548598329294479,0.14548598329294479,0.14548598329294479,0.14548598329294479,0.14548598329294479,0.14548598329294479,0.14548598329294479,0.14548598329294479,0.14548598329294479
DP 108,70.045697183852511,0.0034094724105298226,-168.42085135513312,-163.67959647996165,-158.938341604788,-154.19708672961238,-149.45583185443522,-144.71579811474422,-140.02338912079193,-135.33098012683783,-130.63857113288176,-125.94616213892402,-121.25883254400183,-116.66801249101663,-112.07719243802977,-107.48637238504132,-102.89555233205112,-98.315946677879353,-93.874653355817571,-89.433360033754141,-84.992066711688977,-80.550773389622151,-76.12891563750766,-71.881979852052368,-67.6350440665956,-63.388108281137193,-59.1411724956772,-54.923569383888449,-50.911297205854027,-46.899025027818091,-42.886752849780649,-38.87448067174163,-34.9027035527806,-31.160400987028673,-27.418098421275243,-23.675795855520388,-19.933493289764037,-16.243631893309768,-12.800995984599732,-9.358360075888239,-5.91572416717533,-2.4730882584609923,0.90486331234849271,4.0240744745156727,7.14328563668425,10.262496798854233,13.381707961025588,16.424169154102334,19.202266118296553,21.98036308249209,24.758460046689034,27.536557010887329,30.226447677515335,32.651716116486078,35.076984555458125,37.502252994431544,39.927521433406334,42.254126820742727,44.320617135305866,46.387107449870349,48.453597764436118,50.520088079003258,52.478764304972344,54.185870927308059,55.892977549645252,57.60008417198366,59.307190794323454,60.898880386478,62.250854328447659,63.602828270418563,64.954802212390859,66.306776154364442,67.537429434765727,68.542769638713438,69.548109842662441,70.5534500466128,71.558790250564456,72.438688615331415,73.1095140862824,73.780339557234754,74.451165028188484,75.12199049914345,75.665035959769185,76.016408385423389,76.367780811079072,76.719153236736062,77.070525662394445,77.293505304542947,77.3427742076298,77.3920431107181,77.441312013807675,77.490580916898779,77.412456799440449,77.178627425459467,76.944798051479921,76.710968677501853,76.477139303525249,76.118371319807466,75.621510807568214,75.124650295330483,74.627789783094173,74.13092927085934,72.03428134246559,71.294993815272477,70.5557062880809,69.700000303265938,68.7389612369823,67.777922170700222,66.816883104419688,65.855844038140745,64.784035659292783,63.62159593924558,62.459156219199947,61.296716499156062,60.134276779113804,58.867362702690158,57.523226732414521,56.179090762140618,54.834954791868348,53.490818821597955,52.048946746381617,50.541915728181337,49.034884709982975,47.527853691786284,46.020822673591468,44.4230486375809,42.770827418540961,41.118606199502921,39.466384980466827,37.814163761432589,36.078277826432036,34.297340443130466,32.516403059830878,30.735465676533281,28.954528293237647,27.096939417103663,25.20244319328102,23.307946969460534,21.413450745642127,19.518954521825854,17.554626033327711,15.560368488450093,13.566110943574648,11.571853398701467,9.577595853830406,7.520022415809926,5.43843177905341,3.3568411422991726,1.2752505055472954,-0.806340131202334,-2.9451223943762783,-5.1029692537985767,-7.2608161132183646,-9.4186629726357829,-11.576509832050723,-13.785886929541691,-16.0102250472068,-18.23456316486935,-20.458901282529375,-22.683239400186803,-24.95396752625625,-27.236293702530716,-29.51861987880255,-31.80094605507162,-34.083272231338078,-36.407415742377658,-38.740430076260111,-41.073444410139672,-43.406458744016462,-45.739473077890366,-48.110321706476846,-50.487847396026432,-52.865373085572919,-55.242898775116494,-57.620424464656971,-60.032496782299077,-62.449504705711256,-64.866512629120322,-67.283520552526255,-69.70052847592909,-72.1492676060408,-74.601532759035678,-77.053797912027179,-79.506063065015141,-81.958328217999735,-84.440607285915945,-86.925320221196515,-89.410033156473645,-91.894746091747578,-94.379459027018328,-96.89261346233998,-99.407265101694449,-101.92191674104512,-104.43656838039186,-106.9512200197349,-109.49398079126448,-112.03746258227248,-114.5809443732764,-117.12442616427664,-119.6679079552729,0.24897676189075874,0.24897676189075874,0.24897676189075874,0.24897676189075874,0.24897676189075874,0.24897676189075874,0.24897676189075874,0.24897676189075874,0.24897676189075874,0.24897676189075874,0.24897676189075874,0.24897676189075874
DP 109,162.62931550971254,0.0039485444270325768,-306.34075138934242,-295.87227929157052,-285.40380719379658,-274.93533509602082,-264.46686299824245,-254.00341592213564,-243.73594659117504,-233.46847726021224,-223.20100792924768,-212.9335385982811,-202.68651463614404,-192.82795654685094,-182.96939845755583,-173.11084036825912,-163.25228227896028,-153.43770243367675,-144.16552647377145,-134.89335051386433,-125.62117455395534,-116.34899859404437,-107.15026903463867,-98.6125640220364,-90.074859009432444,-81.537153996826831,-72.999448984219455,-64.567656756883878,-56.877262035260756,-49.186867313636043,-41.496472592009624,-33.806077870381571,-26.254092988126732,-19.486439250766622,-12.718785513404946,-5.9511317760416764,0.81652196132317278,7.4159975049324887,13.222623908603463,19.029250312276009,24.835876715950061,30.642503119625637,36.256118238995832,41.0976790993171,45.939239959639856,50.780800819964085,55.622361680289778,60.252523415965527,64.154523730426874,68.056524044889656,71.9585243593539,75.8605246738196,79.539950360358745,82.551643747913033,85.563337135468757,88.575030523025987,91.58672391058451,94.371926495023686,96.56000917735841,98.748091859694568,100.93617454203225,103.12425722437111,105.0886680854411,106.53117098297761,107.97367388051562,109.41617677805485,110.8586796755956,112.08610694228913,112.86683241285554,113.64755788342349,114.42828335399287,115.20900882456358,115.78782758782907,115.99167129911316,116.19551501039874,116.3993587216857,116.60320243297386,116.62158109682754,116.33084667352607,116.04011225022593,115.7493778269273,115.45864340362981,115.00089622200657,114.29262595633676,113.5843556906681,112.87608542500092,112.16781515933511,111.31186572162324,110.25611176671944,109.20035781181674,108.14460385691569,107.08884990201601,105.90468661357313,104.56357588693484,103.22246516029796,101.88135443366255,100.54024370702842,99.089200309887374,97.516650194615835,95.944100079345688,94.371549964076991,92.798999848809842,87.617502950482191,85.859413863463317,84.101324776445963,82.265992208023334,80.360771289541049,78.455550371060227,76.550329452581039,74.645108534103244,72.676366680859232,70.655652062067,68.634937443276286,66.614222824487271,64.593508205699692,62.5211584303817,60.410642690565368,58.300126950750808,56.189611210937812,54.079095471126521,51.927054733430644,49.747330009647513,47.567605285866136,45.387880562086487,43.208155838308549,40.995366417686775,38.762737678909666,36.530108940134312,34.297480201360834,32.0648514625891,29.806132505918754,27.533364590984437,25.260596676052057,22.987828761121516,20.715060846192735,18.421873933463683,16.118855365494625,13.81583679752759,11.512818229562521,9.2097996615994528,6.89091439734112,4.5652289061379658,2.239543414936823,-0.086142076262190656,-2.4118275674592136,-4.7497692673023577,-7.0923600336609631,-9.4349508000174627,-11.777541566371726,-14.120132332723896,-16.4721493656657,-18.827308606266676,-21.182467846865322,-23.537627087461733,-25.892786328055859,-28.255178711178313,-30.619671127121325,-32.984163543061996,-35.3486559590003,-37.713148374936175,-40.083194136016324,-42.454628298994045,-44.826062461969315,-47.197496624942076,-49.5689307879123,-51.9446495649303,-54.321277248560875,-56.697904932188685,-59.074532615813965,-61.4511602994365,-63.831116066220304,-66.211659178803842,-68.592202291384439,-70.972745403962378,-73.353288516537347,-75.736512464279841,-78.120119417431624,-80.503726370580722,-82.887333323726779,-85.27094027686995,-87.656617564769462,-90.0425249116047,-92.428432258436715,-94.8143396052655,-97.2002469520912,-99.588119946095972,-101.97615233698231,-104.36418472786563,-106.75221711874595,-109.1402495096232,-111.52978728419076,-113.91940430445325,-116.30902132471232,-118.69863834496788,-121.08825536522001,-123.47941386862834,-125.87061191218632,-128.26180995574074,-130.65300799929142,-133.04420604283857,0.23003983323418156,0.23003983323418156,0.23003983323418156,0.23003983323418156,0.23003983323418156,0.23003983323418156,0.23003983323418156,0.23003983323418156,0.23003983323418156,0.23003983323418156,0.23003983323418156,0.23003983323418156
DP 110,93.633722409534528,0.0032407529498578985,-191.51506588361653,-185.78956179889369,-180.06405771416902,-174.33855362944252,-168.61304954471402,-162.88934612917006,-157.2358694927014,-151.58239285623077,-145.92891621975832,-140.27543958328408,-134.62939754625319,-129.12461430413364,-123.6198310620123,-118.11504781988955,-112.61026457776514,-107.12178448272732,-101.83437858976713,-96.546972696805312,-91.259566803841778,-85.972160910876667,-80.712734095887186,-75.705121627309012,-70.697509158729318,-65.689896690148188,-60.682284221565467,-55.7164029575108,-51.042643280746994,-46.368883603981622,-41.695123927214865,-37.021364250446595,-32.404402285599794,-28.109297600704796,-23.814192915808391,-19.519088230910576,-15.223983546011375,-11.001222076104092,-7.1195110985725449,-3.2378001210396214,0.64391085649465674,4.5256218340302823,8.3197628072551524,11.763619624624656,15.207476441995494,18.651333259367657,22.095190076741137,25.437299510955832,28.428941462163074,31.420583413371617,34.412225364581431,37.403867315792539,40.281243928324038,42.815820204618454,45.350396480914178,47.884972757211131,50.419549033509419,52.829472306824073,54.910760651419594,56.992048996016251,59.073337340614245,61.154625685213468,63.103320254179856,64.7426251690306,66.381930083882608,68.021234998735864,69.660539913590341,71.161916576184453,72.376822857272828,73.591729138362382,74.806635419453173,76.021541700545271,77.095806216658488,77.908875085348186,78.72194395403919,79.535012822731417,80.3480816914249,81.020307446496773,81.457791128825974,81.8952748111564,82.332758493488072,82.770242175821039,83.068980602540876,83.159597867251975,83.250215131964339,83.340832396677911,83.431449661392833,83.387436741561416,83.161274107250435,82.935111472940761,82.7089488386324,82.482786204325279,82.127790876957079,81.615330663089964,81.102870449224042,80.5904102353596,80.0779500214964,79.443785669576044,78.675103795885136,77.906421922195662,77.137740048507453,76.369058174820637,73.495012335680158,72.499129945262766,71.503247554846666,70.402511588567691,69.206906213484388,68.011300838402462,66.815695463322029,65.620090088243,64.328711061318927,62.95897012786191,61.589229194406336,60.21948826095236,58.849747327499777,57.3933794253362,55.872981470112563,54.352583514890554,52.832185559669995,51.311787604451041,49.713750633663416,48.06395309607656,46.414155558491252,44.764358020907608,43.114560483325562,41.395773866466229,39.635592758693491,37.875411650922409,36.115230543153068,34.355049435385453,32.534053236267219,30.68030956514426,28.826565894023176,26.972822222903893,25.119078551786366,23.212120054757893,21.279538859340317,19.346957663924659,17.41437646851087,15.481795273098992,13.502962621003833,11.5043072915118,9.5056519620217017,7.5069966325336237,5.50834130304745,3.4697268689742433,1.4159550122000288,-0.63781684457215226,-2.6915887013422091,-4.7453605581102609,-6.8334794264257051,-8.9330477314577053,-11.032616036487457,-13.132184341515101,-15.231752646540512,-17.360728965228578,-19.498243453001059,-21.635757940771313,-23.773272428539247,-25.910786916304904,-28.073422090834896,-30.242337733858317,-32.411253376879408,-34.580169019898051,-36.749084662914285,-38.939458710341512,-41.134384786371662,-43.329310862399176,-45.524236938424231,-47.719163014446728,-49.932464589659169,-52.149009104358491,-54.365553619055056,-56.582098133748964,-58.798642648440179,-61.031093495216325,-63.265816846971695,-65.500540198724408,-67.7352635504742,-69.969986902221351,-72.2185134876088,-74.468573910586557,-76.718634333561283,-78.968694756532827,-81.218755179501343,-83.481376135262536,-85.745015640948466,-88.008655146631455,-90.272294652311615,-92.535934157988791,-94.810893268601816,-97.086448260517756,-99.3620032524304,-101.6375582443396,-103.91311323624545,-106.19964642418461,-108.48646121075404,-110.77327599732001,-113.06009078388264,-115.34690557044168,0.22201088200245969,0.22201088200245969,0.22201088200245969,0.22201088200245969,0.22201088200245969,0.22201088200245969,0.22201088200245969,0.22201088200245969,0.22201088200245969,0.22201088200245969,0.22201088200245969,0.22201088200245969
DP 111,212.29412447820459,0.0015262177030751184,-131.28869562704318,-126.4588274880449,-121.62895934904587,-116.79909121004627,-111.96922307104573,-107.14224601390274,-102.42802224231205,-97.713798470720775,-92.9995746991286,-88.285350927535816,-83.582785637019015,-79.1017336909095,-74.620681744799427,-70.139629798688617,-65.658577852577167,-61.20226293534553,-57.05104115853851,-52.899819381730858,-48.748597604922494,-44.597375828113528,-40.486685501684761,-36.740782059765962,-32.994878617846545,-29.248975175926532,-25.503071734005914,-21.814240080315972,-18.524915259838149,-15.235590439359756,-11.946265618880746,-8.6569407984011448,-5.440097477468651,-2.6339872213293876,0.17212303481045693,2.9782332909508762,5.784343547091864,8.5052361924266666,10.824384069748577,13.143531947071047,15.462679824394085,17.781827701717631,20.006725055559173,21.854615861137447,23.702506666716271,25.550397472295668,27.398288277875526,29.147069234256605,30.554467657628766,31.961866081001457,33.369264504374627,34.776662927748362,36.084215663470367,37.092227561225272,38.100239458980674,39.1082513567366,40.116263254493035,41.027362082769507,41.682959487750033,42.338556892731035,42.994154297712548,43.649751702694545,44.214314823280354,44.5664617453868,44.918608667493764,45.270755589601194,45.622902511709114,45.89200080797513,45.988611081384732,46.085221354794726,46.181831628205337,46.278441901616318,46.301254646181278,46.187012844195884,46.072771042211038,45.958529240226625,45.844287438242766,45.666013066378746,45.381016130733109,45.096019195087962,44.81102225944332,44.526025323799161,44.1866629648768,43.765751186366963,43.34483940785757,42.923927629348725,42.503015850840342,42.036855766792684,41.509476380681,40.982096994569851,40.454717608459163,39.927338222349036,39.362981607850791,38.753429826405174,38.143878044960104,37.534326263515496,36.924774482071435,36.285510145199673,35.6134050242312,34.941299903263264,34.26919478229582,33.597089661328909,31.46324381332775,30.7441264094493,30.025009005571434,29.287561730265246,28.533529955560276,27.779498180855857,27.025466406152,26.271434631448678,25.50329799902315,24.72362078606016,23.943943573097737,23.164266360135862,22.384589147174538,21.594189985766796,20.795865729689975,19.997541473613779,19.199217217538123,18.400892961463082,17.594508406737873,16.78275019260137,15.970991978465495,15.159233764330232,14.34747555019557,13.529717796430411,12.708360228153923,11.887002659878078,11.065645091602882,10.244287523328316,9.4185023000320278,8.59033289041561,7.762163480799888,6.9339940711848254,6.1058246615704173,5.2744099075613455,4.4414325348806116,3.6084551622005856,2.7754777895212532,1.9425004168426312,1.1071551277775122,0.27079498543035591,-0.56556515691608844,-1.4019252992617794,-2.2382854416067661,-3.0763708042932043,-3.9151105833941626,-4.7538503624943678,-5.59259014159379,-6.4313299206924786,-7.2713304002879644,-8.11175112927024,-8.9521718582517,-9.7925925872323685,-10.633013316212228,-11.474363568559895,-12.315983693866555,-13.157603819172383,-13.999223944477382,-14.840844069781518,-15.683161351948282,-16.525652931567009,-17.368144511184877,-18.210636090801831,-19.053127670417922,-19.89615689407886,-20.739300169605382,-21.582443445130956,-22.425586720655613,-23.268729996179339,-24.112299931741155,-24.9559451649946,-25.799590398247034,-26.64323563149852,-27.486880864748972,-28.330898772325813,-29.174969923116986,-30.019041073907221,-30.863112224696383,-31.707183375484554,-32.551543202124385,-33.395935106889631,-34.240327011653733,-35.084718916416705,-35.929110821178583,-36.7738475157512,-37.618612169776753,-38.46337682380117,-39.308141477824556,-40.152906131846869,-40.997917737221726,-41.842942342492037,-42.687966947761154,-43.532991553028985,-44.378016158295623,-45.223333319715572,-46.068657985410326,-46.913982651103808,-47.759307316796026,-48.6046319824869,0.081109621074175825,0.081109621074175825,0.081109621074175825,0.081109621074175825,0.081109621074175825,0.081109621074175825,0.081109621074175825,0.081109621074175825,0.081109621074175825,0.081109621074175825,0.081109621074175825,0.081109621074175825
DP 112,196.96762922365173,0.0027550862893770648,-230.59060428062779,-222.28650775052108,-213.98241122041247,-205.6783146903029,-197.37421816019159,-189.07478922205479,-180.95739813571123,-172.84000704936648,-164.72261596302027,-156.60522487667268,-148.50670554552906,-140.76675313084897,-133.02680071616774,-125.28684830148519,-117.54689588680149,-109.84715505569416,-102.64336215650769,-95.439569257319818,-88.235776358130764,-81.031983458940473,-73.894464509175137,-67.353417368538231,-60.812370227900232,-54.271323087261194,-47.7302759466209,-41.283233283049526,-35.494229067297077,-29.705224851543569,-23.916220635788921,-18.127216420033186,-12.458650196064809,-7.4725735148556,-2.4864968336453095,2.4995798475660349,7.485656528778434,12.328697892693176,16.497422177992444,20.666146463292726,24.834870748594042,29.003595033896339,33.012324622271542,36.381067861494941,39.749811100719306,43.118554339944666,46.48729757917102,49.685694999647161,52.297338554967411,54.908982110288612,57.520625665610815,60.132269220933892,62.569981379271852,64.48589277057529,66.401804161879568,68.317715553184911,70.233626944491164,71.978274213871217,73.271401093416685,74.564527972963063,75.857654852510308,77.150781732058476,78.280574117963567,79.029247539180162,79.777920960397637,80.526594381616093,81.2752678028354,81.872541825576846,82.155366540573951,82.438191255572065,82.721015970571045,83.00384068557095,83.1498797638783,83.041884680004344,82.9338895961313,82.825894512259126,82.717899428387867,82.48916075643838,82.059179727606391,81.629198698775284,81.199217669945,80.7692366411158,80.2349069437258,79.544051777706642,78.853196611688332,78.162341445670918,77.471486279654442,76.692186345380762,75.793223875253346,74.89426140512694,73.995298935001315,73.096336464876757,72.123736925297649,71.061134976327878,69.998533027359059,68.935931078391178,67.87332912942432,66.750421789777874,65.560859923563171,64.371298057349463,63.18173619113675,61.992174324924918,58.180288999970251,56.893447059333631,55.60660511869802,54.281083003713491,52.920563844109935,51.5600446845074,50.199525524905873,48.839006365305373,47.448126704645553,46.03240611226321,44.6166855198819,43.200964927501687,41.785244335122464,40.345979254147842,38.889311338046191,37.432643421945691,35.975975505846264,34.519307589747953,33.044581921998272,31.557817468675054,30.071053015352948,28.584288562032025,27.097524108712214,25.597048155226968,24.088345094278729,22.579642033331719,21.070938972385914,19.562235911441249,18.043213344782313,16.518633971137625,14.994054597494221,13.469475223852037,11.944895850211052,10.412607859935157,8.87660820555767,7.3406085511814982,5.8046088968066165,4.2686092424330528,2.7268843034714125,1.1827055938071627,-0.36147311585576863,-1.9056518255173056,-3.4498305351775382,-4.9982467417831495,-6.548270330061337,-8.0982939183381486,-9.6483175066135,-11.198341094887484,-12.751500089157023,-14.305704258272403,-15.859908427386243,-17.41411259649864,-18.968316765609529,-20.5248502666289,-22.082060053707146,-23.639269840783847,-25.196479627859013,-26.75368941493257,-28.312646973966665,-29.872041496639767,-31.431436019311253,-32.990830541981062,-34.550225064649254,-36.110955321047527,-37.671968930206035,-39.232982539362787,-40.793996148517827,-42.355009757671162,-43.9170650761212,-45.479304237206073,-47.041543398289086,-48.603782559370352,-50.166021720449734,-51.729136712430382,-53.292376832570675,-54.855616952709013,-56.418857072845519,-57.982097192980142,-59.546009104508833,-61.10999566657928,-62.673982228647617,-64.237968790713907,-65.801955352778165,-67.3666846599205,-68.9314741972247,-70.4962637345269,-72.06105327182712,-73.625842809125388,-75.19117076837837,-76.756527070983751,-78.321883373586857,-79.887239676187733,-81.45259597878632,-83.018563973241157,-84.584547658030345,-86.15053134281716,-87.716515027601616,-89.282498712383756,0.15035791761437303,0.15035791761437303,0.15035791761437303,0.15035791761437303,0.15035791761437303,0.15035791761437303,0.15035791761437303,0.15035791761437303,0.15035791761437303,0.15035791761437303,0.15035791761437303,0.15035791761437303
DP 113,189.73066740967994,0.00231046056037058,-190.65912978507384,-183.8646540432224,-177.07017830136985,-170.27570255951608,-163.48122681766122,-156.69045252710671,-150.04403623677675,-143.39761994644576,-136.75120365611366,-130.10478736578045,-123.47335707846207,-117.12666368143751,-110.77997028441216,-104.43327688738572,-98.086583490358223,-91.77188565249952,-85.8518037434152,-79.931721834329664,-74.011639925243145,-68.091558016155531,-62.224354408658357,-56.833060513604778,-51.4417666185502,-46.050472723494742,-40.659178828438293,-35.343151152753656,-30.553992704078297,-25.764834255402068,-20.975675806724858,-16.186517358046753,-11.494189265076258,-7.350572622798186,-3.2069559805192234,0.93666066176063645,5.0802773040413873,9.1083436730712162,12.59166679851689,16.074989923963432,19.558313049410852,23.041636174859118,26.395012071920323,29.228592914050861,32.06217375618224,34.8957545983145,37.729335440447514,40.423742483045082,42.638767258411171,44.853792033778028,47.068816809145751,49.283841584514263,51.355850568952313,52.99880677339155,54.641762977831661,56.284719182272653,57.927675386714334,59.428842261383053,60.556196029526532,61.683549797670814,62.810903565815842,63.938257333961751,64.9294019877647,65.602721083220374,66.276040178676951,66.94935927413421,67.6226783695923,68.168776897418752,68.45064439246184,68.7325118875057,69.014379382550288,69.2962468775957,69.462257673176737,69.413102898064849,69.3639481229537,69.314793347843391,69.26563857273382,69.113368290530772,68.789236230746852,68.465104170963684,68.14097211118127,67.816840051399737,67.402833090640371,66.854011654645419,66.305190218651262,65.756368782657788,65.2075473466652,64.581880393660427,63.852244267398049,63.122608141136496,62.392972014875767,61.6633358886158,60.86914480853509,59.996051873383351,59.122958938232365,58.249866003082218,57.37677306793281,56.4503271289006,55.464911018632627,54.479494908365318,53.494078798098947,52.50866268783335,49.33524141936644,48.262955969815927,47.190670520266309,46.08351655225934,44.94481424930332,43.806111946348167,42.667409643393896,41.528707340440427,40.362373383488453,39.173431234760727,37.984489086033875,36.795546937307911,35.60660478858285,34.3960267106923,33.169456503409734,31.942886296128162,30.716316088847474,29.489745881567728,28.246420111194965,26.991923701468185,25.737427291742367,24.482930882017502,23.2284344722936,21.961091562883023,20.686040559378441,19.410989555874846,18.1359385523723,16.860887548870704,15.576074967621448,14.286006010250812,12.995937052881267,11.705868095512761,10.41579913814526,9.1183697834138435,7.8173964305873342,6.5164230777619512,5.21544972493766,3.9144763721144811,2.607987320077954,1.2991343224721661,-0.0097186751324994675,-1.3185716727359809,-2.6274246703383555,-3.9403936822954178,-5.2549239947380109,-6.5694543071794245,-7.8839846196196053,-9.1985149320586146,-10.516112252810686,-11.834731948319222,-13.153351643826444,-14.47197133933245,-15.790591034837156,-17.111501123840558,-18.433076193728457,-19.754651263615063,-21.076226333500326,-22.397801403384264,-23.721099427817094,-25.044828211243043,-26.368556994667596,-27.692285778090721,-29.016014561512531,-30.341058530520893,-31.666381493357132,-32.991704456191854,-34.317027419025152,-35.642350381856971,-36.968694136110287,-38.295218041376323,-39.621741946640775,-40.948265851903713,-42.274789757165038,-43.602159735177381,-44.929650589863776,-46.257141444548608,-47.584632299231778,-48.91212315391342,-50.240261654860646,-51.568472123304261,-52.896682591746149,-54.2248930601862,-55.553103528624618,-56.8820043065675,-58.210961062603843,-59.539917818638408,-60.868874574671281,-62.197831330702563,-63.527292750509446,-64.856780736586941,-66.1862687226625,-67.51575670873612,-68.845244694807818,-70.175293403832924,-71.50535649580371,-72.835419587772492,-74.16548267973927,-75.495545771703988,0.12775098111781188,0.12775098111781188,0.12775098111781188,0.12775098111781188,0.12775098111781188,0.12775098111781188,0.12775098111781188,0.12775098111781188,0.12775098111781188,0.12775098111781188,0.12775098111781188,0.12775098111781188
DP 114,81.243946038274274,0.0017057251838894405,-92.640456129732968,-89.953301293607652,-87.266146457481554,-84.578991621354348,-81.891836785226332,-79.2054468507831,-76.548888371285528,-73.892329891787071,-71.235771412287647,-68.579212932787215,-65.925823642336681,-63.332649542961953,-60.739475443586393,-58.146301344210087,-55.553127244832915,-52.966927982749795,-50.466752592997416,-47.966577203244178,-45.466401813490066,-42.966226423735044,-40.478081426101177,-38.09821109469128,-35.718340763280565,-33.338470431869105,-30.958600100456874,-28.596784095314348,-26.361349739277678,-24.125915383240219,-21.890481027202004,-19.655046671163017,-17.444370000028051,-15.373988436769457,-13.303606873510128,-11.233225310250042,-9.1628437469892141,-7.12426940233298,-5.2356450919327369,-3.3470207815317692,-1.4583964711300841,0.43022783927231473,2.2799689705079142,3.9741755474329881,5.6683821243587706,7.3625887012852553,9.0567952782124266,10.705325733022846,12.196525403936379,13.687725074850585,15.1789247457655,16.670124416681062,18.109407057622569,19.392936645737819,20.676466233853741,21.959995821970363,23.243525410087646,24.46967294487364,25.544538548579308,26.61940415228565,27.694269755992639,28.769135359700304,29.782102120931231,30.650636299466175,31.519170478001747,32.387704656538027,33.256238835074925,34.059413154312,34.726838172575867,35.394263190840434,36.061688209105625,36.729113227371521,37.328832115761394,37.802809220192941,38.276786324625178,38.750763429058075,39.224740533491584,39.629778008771019,39.919914364459792,40.210050720149191,40.500187075839314,40.790323431530076,41.011358229942793,41.128739059549339,41.24611988915656,41.363500718764463,41.480881548372992,41.529986230567054,41.486715783073663,41.443445335580961,41.400174888088941,41.356904440597653,41.247062566983992,41.055854218686328,40.8646458703894,40.673437522093145,40.482229173797613,40.22690277312708,39.900707775513816,39.57451277790129,39.24831778028949,38.9221227826784,37.6382676003366,37.189964296089258,36.741660991842693,36.235837133096524,35.677969832297308,35.120102531498873,34.562235230701205,34.004367929904333,33.392845213420991,32.737421689272793,32.081998165125377,31.426574640978764,30.771151116832986,30.066140785637941,29.324478521058996,28.582816256480918,27.841153991903646,27.099491727327219,26.312399350339959,25.49501951606176,24.677639681784431,23.860259847507983,23.042880013232409,22.184214653725313,21.300777354703211,20.41734005568205,19.533902756661821,18.650465457642497,17.729790076619853,16.789062879167489,15.848335681716131,14.907608484265751,13.966881286816296,12.992798395624746,12.002654888511112,11.012511381398527,10.022367874286946,9.03222436717639,8.0123881261996672,6.9798260269111161,5.9472639276236094,4.914701828337205,3.8821397290518385,2.8232899582159621,1.7544686588976539,0.68564735958044909,-0.38317393973560254,-1.4519952390505639,-2.5439853972330586,-3.6436988003633437,-4.7434122034924071,-5.8431256066203217,-6.9428390097470283,-8.0629057991643442,-9.1888818844488487,-10.314857969732092,-11.440834055014115,-12.566810140294878,-13.710637241857279,-14.85892730840119,-16.007217374943838,-17.155507441485128,-18.303797508025145,-19.467753808789087,-20.635033429634504,-21.80231305047851,-22.969592671321163,-24.136872292162408,-25.317944367046909,-26.501450557782277,-27.684956748516111,-28.868462939248563,-30.051969129979536,-31.247739544622863,-32.445262123735496,-33.642784702846654,-34.840307281956257,-36.03782986106436,-37.246311488685329,-38.45601090345744,-39.665710318227887,-40.87540973299663,-42.085109147763745,-43.304971367431541,-44.525657702154689,-45.7463440368761,-46.96703037159606,-48.187716706314433,-49.417813407009191,-50.648405483751212,-51.878997560491392,-53.109589637229732,-54.340181713966189,-55.579984103456113,-56.820022744098772,-58.060061384739527,-59.300100025378335,-60.540138666015267,0.12082957698019968,0.12082957698019968,0.12082957698019968,0.12082957698019968,0.12082957698019968,0.12082957698019968,0.12082957698019968,0.12082957698019968,0.12082957698019968,0.12082957698019968,0.12082957698019968,0.12082957698019968
DP 115,111.20302274317302,0.0059456705657310706,-386.02359823750515,-374.02610149202906,-362.02860474654977,-350.0311080010668,-338.03361125558035,-326.04039418137876,-314.21408590548958,-302.38777762959666,-290.56146935370077,-278.73516107780165,-266.92644795241216,-255.45204601299855,-243.97764407358198,-232.5032421341626,-221.02884019474041,-209.59283395617268,-198.63037953379302,-187.6679251114102,-176.70547068902448,-165.74301626663566,-154.84598675844779,-144.53778766213466,-134.22958856581883,-123.92138946950027,-113.61319037317895,-103.40173310751391,-93.867475971779513,-84.3332188360426,-74.798961700302954,-65.2647045645608,-55.860745983241536,-47.195154087645214,-38.529562192046363,-29.863970296444915,-21.198378400840976,-12.696738581765089,-4.9680245502974243,2.7606894811727294,10.489403512645334,18.218117544120371,25.751091844126844,32.501097967480739,39.251104090836996,46.00111021419567,52.751116337556716,59.277155514868447,65.03174358039945,70.786331645932762,76.54091971146849,82.295507777006463,87.802769515765561,92.568042923157648,97.33331633055181,102.09858973794837,106.86386314534735,111.3641938479208,115.16603013133972,118.96786641476078,122.76970269818412,126.57153898160971,130.09699801936841,132.97756810940538,135.85813819944488,138.73870828948648,141.61927837953013,144.21824974569023,146.23235403392761,148.24645832216731,150.2605626104089,152.27466689865312,154.00784266281011,155.21928643832436,156.43073021384112,157.64217398935989,158.85361776488111,159.79010491768375,160.26832410216639,160.74654328665116,161.22476247113823,161.70298165562761,161.91673973009196,161.73379989022902,161.5508600503683,161.36792021050977,161.18498037065359,160.75171380005244,159.97976432052218,159.20781484099442,158.43586536146867,157.66391588194554,156.65849081063371,155.36770177860879,154.07691274658609,152.78612371456569,151.49533468254793,149.98974823652503,148.24674984809914,146.50375145967556,144.76075307125447,143.01775468283586,136.81317609117639,134.67994359450017,132.54671109782649,130.23833384212509,127.77148912732746,125.30464441253248,122.83779969774005,120.37095498295007,117.74862553457058,114.99907863205704,112.24953172954621,109.49998482703779,106.75043792453214,103.86428527534929,100.87716091564455,97.890036555942771,94.902912196243591,91.915787836547281,88.809804020391681,85.624578694143281,82.439353367897766,79.254128041655079,76.068902715415334,72.7811945449921,69.43199511817356,66.082795691357958,62.73359626454554,59.384396837735956,55.947579379090207,52.463581706110652,48.979584033134209,45.495586360160907,42.011588687190546,38.45326837884533,34.85916205716493,31.265055735487923,27.670949413814238,24.076843092143868,20.420143243333325,16.736616751978154,13.053090260626362,9.3695637692781677,5.6860372779333064,1.9501350762176128,-1.8056344570996825,-5.5614039904134041,-9.3171735237233921,-13.072943057029859,-16.87229533315276,-20.686175739477004,-24.500056145797327,-28.313936552113905,-32.127816958426614,-35.97780390756963,-39.838273841767354,-43.698743775961148,-47.559213710150921,-51.419683644336629,-55.309981575010262,-59.207736857224333,-63.10549213943424,-67.0032474216399,-70.9010027038413,-74.823388053679267,-78.7509982455045,-82.678608437325138,-86.606218629141466,-90.533828820953431,-94.481814238926859,-98.433395511617945,-102.38497678430414,-106.33655805698578,-110.28813932966256,-114.25679417513318,-118.22788828686309,-122.1989823985882,-126.17007651030816,-130.14117062202342,-134.12652106280052,-138.11345568986002,-142.10039031691417,-146.0873249439629,-150.07425957100639,-154.07393637839618,-158.07464646574522,-162.07535655308908,-166.0760666404278,-170.07677672776151,-174.08851154402768,-178.10082671887079,-182.113141893708,-186.12545706853908,-190.13777224336442,-194.16070354097494,-198.18390714977389,-202.2071107585667,-206.23031436735326,-210.25351797613374,0.38918055672145707,0.38918055672145707,0.38918055672145707,0.38918055672145707,0.38918055672145707,0.38918055672145707,0.38918055672145707,0.38918055672145707,0.38918055672145707,0.38918055672145707,0.38918055672145707,0.38918055672145707
DP 116,210.12170089856988,0.0038181182396561193,-327.23304003827349,-315.23023104865814,-303.22742205904063,-291.22461306942125,-279.2218040798,-267.22611765109809,-255.50821379127277,-243.79030993144539,-232.07240607161637,-220.35450221178553,-208.6653315667254,-197.52209743414409,-186.37886330156127,-175.23562916897666,-164.09239503639049,-153.010162500179,-142.68029067387278,-132.35041884756475,-122.02054702125513,-111.69067519494369,-101.46083966447358,-92.131340252140632,-82.801840839806218,-73.472341427470141,-64.142842015132587,-54.954346273549589,-46.752886889523175,-38.551427505495283,-30.34996812146586,-22.148508737434923,-14.126347255421717,-7.1202185164793272,-0.11408977753548254,6.8920389614097965,13.898167700356508,20.69319198807781,26.492998174966321,32.29280436185627,38.092610548747579,43.892416735640275,49.458369088537893,54.088895053386288,58.719421018235977,63.349946983086966,67.980472947939361,72.364657069173631,75.90032004704787,79.435983024923388,82.9716460028002,86.507308980678388,89.79433122376723,92.335421861764644,94.876512499763152,97.4176031377632,99.958693775764274,102.25795612858082,103.91966287213383,105.58136961568798,107.24307635924349,108.90478310280021,110.33884657216888,111.24173522939786,112.1446238866281,113.04751254385953,113.95040120109228,114.64514876134082,114.90759722055044,115.17004567976132,115.43249413897342,115.69494259818671,115.77200375279293,115.50476919226594,115.2375346317403,114.9703000712158,114.70306551069267,114.27458537606636,113.57735855363816,112.88013173121111,112.18290490878528,111.48567808636069,110.65120732200411,109.6108674016364,108.57052748126982,107.53018756090469,106.48984764054065,105.33498772851794,104.02518645729596,102.7153851860752,101.40558391485577,100.09578264363743,98.692149618375737,97.173831367264569,95.65551311615485,94.137194865046339,92.618876613939051,91.024959794785119,89.347485159230075,87.6700105236763,85.992535888123825,84.315061252572676,78.982789965439963,77.18537615096578,75.387962336492862,73.5436559917549,71.656922227761427,69.770188463769259,67.88345469977844,65.996720935788986,64.07380300135469,62.121279214707926,60.168755428062546,58.216231641418624,56.263707854776065,54.283601328308784,52.283107105945049,50.282612883582892,48.282118661222093,46.281624438862821,44.260336637947326,42.225186123756295,40.19003560956677,38.154885095378816,36.119734581192432,34.069063649319411,32.0090802321141,29.949096814910341,27.889113397708261,25.829129980507719,23.757661282825218,21.680008036329905,19.602354789836312,17.524701543344378,15.447048296854044,13.360954615726232,11.270796903433245,9.1806391911420349,7.090481478852567,5.0003237665648879,2.9039927635595317,0.8050159811754618,-1.2939608012068193,-3.3929375835872086,-5.4919143659658332,-7.59539829198378,-9.7005918829699418,-11.805785473954236,-13.910979064936548,-16.016172655917011,-18.124664961654997,-20.234256880550632,-22.343848799444132,-24.45344071833572,-26.563032637225245,-28.67505857424662,-30.787791191377721,-32.900523808506733,-35.013256425633607,-37.1259890427584,-39.240546515640368,-41.355560224020806,-43.4705739323991,-45.585587640775145,-47.700601349149,-49.817019772996204,-51.933736182884338,-54.050452592770156,-56.167169002653687,-58.283885412534893,-60.401713192007712,-62.519737107882747,-64.637761023755289,-66.755784939625357,-68.873808855492982,-70.992797694351,-73.111924389771673,-75.231051085189918,-77.350177780605421,-79.469304476018564,-81.589177413728621,-83.709133275084255,-85.829089136437076,-87.94904499778697,-90.069000859134164,-92.189838275737543,-94.310747178799886,-96.431656081859529,-98.552564984916486,-100.67347388797083,-102.79501515544328,-104.91658971154219,-107.03816426763801,-109.15973882373082,-111.28131337982042,-113.40363291481519,-115.52597155905191,-117.64831020328555,-119.77064884751591,-121.8929874917431,0.20365833185656504,0.20365833185656504,0.20365833185656504,0.20365833185656504,0.20365833185656504,0.20365833185656504,0.20365833185656504,0.20365833185656504,0.20365833185656504,0.20365833185656504,0.20365833185656504,0.20365833185656504
DP 117,87.205483659084123,0.0033414267517955548,-189.43166887372007,-183.85465256318329,-178.27763625264441,-172.70061994210374,-167.1236036315612,-161.5482550266149,-156.03794757052941,-150.527640114442,-145.01733265835276,-139.50702520226173,-134.00361526227326,-128.6312594321912,-123.25890360210767,-117.88654777202237,-112.51419194193544,-107.15698923103066,-101.98667689977955,-96.816364568526922,-91.646052237272485,-86.4757399060164,-81.331501359263655,-76.4219293375804,-71.512357315895557,-66.6027852942093,-61.693213272521348,-56.822655324389032,-52.22519884127977,-47.627742358169,-43.030285875056734,-38.432829391942946,-33.888677718026059,-29.646589988520059,-25.404502259012627,-21.162414529503728,-16.92032679999339,-12.746439697219808,-8.8940735184407842,-5.041707339660352,-1.1893411608785072,2.6630250179047326,6.4324162254772048,9.8699036267580169,13.307391028040211,16.744878429323769,20.182365830608695,23.522895555888034,26.529455879566811,29.536016203246948,32.542576526928386,35.549136850611163,38.446129396662272,41.014414467227517,43.582699537794106,46.150984608361988,48.719269678931205,51.167216797184196,53.297905177700258,55.428593558217642,57.559281938736277,59.68997031925629,61.691724273585393,63.392627171125277,65.093530068666425,66.794432966208916,68.495335863752686,70.061077897104639,71.346097281578182,72.631116666052932,73.916136050529133,75.201155435006541,76.347225337790832,77.235242450670015,78.123259563550477,79.011276676432161,79.8992937893152,80.646965224296068,81.160723658604837,81.674482092914914,82.1882405272263,82.701998961538919,83.0762592373591,83.24126897905991,83.406278720762032,83.571288462465446,83.736298204170225,83.764679828530959,83.6082086084278,83.451737388325981,83.295266168225467,83.1387949481263,82.850310387817743,82.400473416576048,81.950636445335789,81.5007994740968,81.050962502859235,80.475168357650148,79.760155882133176,79.045143406617669,78.330130931103568,77.615118455590888,74.876163575591519,73.923583669598131,72.971003763606248,71.907624947285669,70.74399750298501,69.580370058685745,68.4167426143881,67.253115170091974,65.987184790248378,64.637550250450843,63.2879157106549,61.9382811708605,60.588646631067633,59.145451301237991,57.633100805995717,56.120750310755092,54.608399815516023,53.09604932027873,51.498894176182148,49.84520126354213,48.19150835090376,46.537815438267096,44.884122525632186,43.154200933424306,41.378540980638576,39.602881027854579,37.827221075072437,36.051561122292028,34.207910970566395,32.327649723023704,30.447388475482963,28.56712722794407,26.686865980406992,24.746395317995965,22.776934094193603,20.807472870393219,18.838011646594811,16.868550422798407,14.846115616778544,12.800977131647134,10.755838646517754,8.710700161390486,6.6655616762652246,4.5740831221870542,2.4650266964228824,0.3559702706608413,-1.753086155098974,-3.8621425808566903,-6.0115418774595781,-8.1743893061095587,-10.337236734757196,-12.500084163402605,-14.662931592045693,-16.860774258743906,-19.068777260074079,-21.276780261401878,-23.484783262727266,-25.692786264050259,-27.931085326111614,-30.176958761307535,-32.422832196501,-34.668705631691864,-36.914579066880272,-39.186688473308259,-41.464363386342789,-43.742038299374613,-46.019713212403836,-48.297388125430352,-50.597847330271478,-52.902327545853581,-55.2068077614328,-57.511287977009275,-59.8157681925829,-62.140240861549451,-64.467569811250542,-66.7948987609488,-69.1222277106441,-71.449556660336441,-73.79449708025092,-76.1413945151488,-78.488291950043518,-80.835189384934878,-83.182086819823169,-85.545160230839059,-87.909545372778339,-90.273930514714465,-92.638315656647592,-95.002700798577635,-97.381873078176,-99.7618237753003,-102.14177447242113,-104.52172516953834,-106.90167586665194,-109.29603149215633,-111.69075661444359,-114.08548173672703,-116.48020685900687,-118.87493198128305,0.23289560996178657,0.23289560996178657,0.23289560996178657,0.23289560996178657,0.23289560996178657,0.23289560996178657,0.23289560996178657,0.23289560996178657,0.23289560996178657,0.23289560996178657,0.23289560996178657,0.23289560996178657
DP 118,302.79237138529669,0.0010286562331391256,-99.234324053293207,-95.172164293525043,-91.11000453375631,-87.047844773987265,-82.985685014217751,-78.926829380395048,-74.996835907759674,-71.066842435123831,-67.136848962487647,-63.206855489850938,-59.289981095133811,-55.622371660960859,-51.954762226787487,-48.287152792613725,-44.619543358439607,-40.979088843028769,-37.673548414659457,-34.368007986289712,-31.062467557919593,-27.756927129549037,-24.494386034367647,-21.61884300224105,-18.743299970114066,-15.867756937986735,-12.992213905859018,-10.174683981727922,-7.7632502003487733,-5.351816418969257,-2.94038263758938,-0.52894885620914023,1.8124598675053452,3.7570555185458607,5.7016511695867367,7.6462468206279555,9.5908424716695233,11.45776388655023,12.958502564180385,14.459241241810867,15.959979919441674,17.460718597072859,18.880949000157308,19.979142500187258,21.077336000217549,22.175529500248153,23.273723000279087,24.29305405843045,25.040744503810075,25.788434949189988,26.53612539457027,27.283815839950837,27.957896380218109,28.411144422068329,28.864392463918882,29.317640505769706,29.770888547620874,30.1582549639986,30.371931194235003,30.5856074244717,30.799283654708702,31.012959884946046,31.169815153382235,31.194086387355203,31.218357621328412,31.242628855301977,31.266900089275854,31.243755270461072,31.122129578371695,31.000503886282623,30.87887819419382,30.757252502105342,30.597214086994413,30.365836720323419,30.1344593536527,29.903081986982322,29.6717046203122,29.410030412179225,29.097860704623649,28.785690997068389,28.473521289513428,28.161351581958758,27.825860311378516,27.455386145164827,27.084911978951457,26.714437812738378,26.343963646525566,25.955931023242645,25.54414244988946,25.13235387653657,24.720565303183996,24.30877672983171,23.884034108080865,23.443458488413771,23.002882868746966,22.562307249080462,22.121731629414263,21.671774727727875,21.211448853970925,20.75112298021428,20.290797106457948,19.830471232701935,18.416095776354449,17.942410743312937,17.468725710271762,16.990357589142263,16.507752303999446,16.025147018856966,15.542541733714796,15.059936448572955,14.574092772834568,14.085599449136115,13.597106125437989,13.108612801740211,12.620119478042755,12.129413331126431,11.637071582846925,11.14472983456778,10.652388086288973,10.160046338010531,9.66620689658571,9.1713689694695137,8.6765310423536963,8.1816931152382359,7.6868551881231326,7.19100978378332,6.6945598778723783,6.1981099719618173,5.7016600660516463,5.2052101601418412,4.708083236081662,4.2105917539418352,3.7131002718024204,3.2156087896633996,2.7181173075247624,2.2201678049959406,1.7219977677175939,1.2238277304396687,0.72565769316215589,0.22748765588506303,-0.27099800450291317,-0.76961893620000155,-1.2682398678966673,-1.7668607995928869,-2.2654817312886877,-2.7643277611363253,-3.2632591759759695,-3.7621905908151674,-4.261122005653899,-4.7600534204921976,-5.2591541504687438,-5.7583113209582493,-6.2574684914472636,-6.7566256619358205,-7.2557828324238862,-7.7550764991079868,-8.2544097953843423,-8.7537430916602084,-9.2530763879355789,-9.7524096842104484,-10.251861757484317,-10.751343526410894,-11.250825295336973,-11.750307064262504,-12.249788833187528,-12.749381789625135,-13.248998332566131,-13.748614875506574,-14.248231418446485,-14.747847961385828,-15.247572175764436,-15.747315392182109,-16.247058608599215,-16.746801825015741,-17.24654504143167,-17.746407647894522,-18.246287311367517,-18.74616697483993,-19.246046638311732,-19.745926301782944,-20.245906425101474,-20.745897711679749,-21.24588899825736,-21.745880284834293,-22.245871571410586,-22.746016039699448,-23.246172929691895,-23.746329819683684,-24.246486709674851,-24.746643599665425,-25.246909866453159,-25.747181891001983,-26.247453915550107,-26.747725940097489,-27.247997964644131,-27.748412402125073,-28.2488304925996,-28.749248583073367,-29.249666673546383,-29.750084764018638,0.047888903895327732,0.047888903895327732,0.047888903895327732,0.047888903895327732,0.047888903895327732,0.047888903895327732,0.047888903895327732,0.047888903895327732,0.047888903895327732,0.047888903895327732,0.047888903895327732,0.047888903895327732
DP 119,179.97243490388632,0.003343654360547984,-270.3181238651722,-260.82440813216738,-251.33069239916131,-241.83697666615328,-232.34326093314309,-222.8544957612809,-213.55880434597918,-204.26311293067604,-194.96742151537109,-185.67173010006456,-176.39611799681174,-167.50201661845344,-158.6079152400938,-149.71381386173229,-140.81971248336959,-131.96859517123923,-123.64762009320258,-115.32664501516439,-107.00566993712467,-98.684694859083407,-90.4350272307607,-82.827133389984823,-75.219239549207558,-67.611345708428985,-60.003451867648934,-52.497531325796686,-45.705431587355179,-38.913331848912343,-32.121232110468156,-25.329132372022578,-18.668961614451021,-12.756396728558547,-6.8438318426647466,-0.9312669567696471,4.9812979291267609,10.735405173519521,15.742489263618348,20.749573353718478,25.756657443819869,30.76374153392252,35.591324010674292,39.700891550670427,43.810459090667834,47.92002663066652,52.029594170666371,55.945368244867787,59.193623351280564,62.441878457694536,65.690133564109658,68.938388670526,71.985763009470318,74.4304874510049,76.87521189254069,79.319936334077639,81.764660775615837,84.008365848950476,85.72210386044641,87.435841871943452,89.149579883441689,90.863317894941034,92.382034719781885,93.445695964544456,94.509357209308121,95.573018454072965,96.636679698838989,97.516291471750762,98.013641296483712,98.510991121217728,99.008340945952867,99.505690770689213,99.833607772625754,99.846859242225278,99.86011071182557,99.873362181427211,99.886613651029919,99.7473619993819,99.353934635044709,98.96050727070859,98.567079906373635,98.17365254203979,97.645753444026141,96.916143567887971,96.186533691751,95.456923815615184,94.72731393948041,93.88134660992516,92.877951902627473,91.874557195331121,90.871162488035779,89.867767780741644,88.765422645952214,87.542136021356427,86.318849396761792,85.095562772168279,83.872276147576045,82.566181102817069,81.168559314264854,79.770937525713776,78.3733157371638,76.975693948615131,72.441438633502131,70.907260607022067,69.373082580543326,67.783378666207767,66.1434360441225,64.503493422038389,62.863550799955554,61.22360817787397,59.539083511135594,57.818081859870233,56.097080208606144,54.376078557343362,52.6550769060819,50.898701819491151,49.116180568781473,47.333659318073167,45.551138067366175,43.768616816660632,41.958333997755652,40.129543029375959,38.300752060997723,36.471961092620866,34.643170124245437,32.792808789843193,30.929504909608713,29.066201029375698,27.202897149144221,25.339593268914172,23.459680339593433,21.570823834623649,19.681967329655446,17.79311082468876,15.904254319723533,14.002710250923609,12.095057177427483,10.187404103933003,8.279751030440119,6.3720979569488883,4.4548169201360546,2.5334094833228149,0.6120020465112298,-1.3094053902986102,-3.2308128271068193,-5.1594900363219676,-7.0909248401933676,-9.02235964406303,-10.953794447930873,-12.885229251796996,-14.82213816708941,-16.760871855178557,-18.699605543265768,-20.638339231351186,-22.5770729194347,-24.519929415325585,-26.463982905699993,-28.408036396072475,-30.352089886443029,-32.296143376811578,-34.243315330434861,-36.191266936715223,-38.1392185429936,-40.087170149269866,-42.035121755544125,-43.985456916263253,-45.936297706747261,-47.887138497229074,-49.837979287708791,-51.7888200781863,-53.7415052787844,-55.694515984029728,-57.647526689272645,-59.600537394513417,-61.5535480997518,-63.5080648877053,-65.462796846599574,-67.417528805491571,-69.372260764381167,-71.326992723268447,-73.282877791886321,-75.238890995915682,-77.194904199942513,-79.150917403966531,-81.106930607988232,-83.0641167704295,-85.021398049591141,-86.978679328750331,-88.93596060790702,-90.893241887061265,-92.851392829234811,-94.809589551796165,-96.767786274354648,-98.72598299691029,-100.68417971946312,-102.64331342302188,-104.60247116081523,-106.56162889860559,-108.52078663639303,-110.47994437417751,0.18827257250314497,0.18827257250314497,0.18827257250314497,0.18827257250314497,0.18827257250314497,0.18827257250314497,0.18827257250314497,0.18827257250314497,0.18827257250314497,0.18827257250314497,0.18827257250314497,0.18827257250314497
DP 120,203.41300488567776,0.0011374447761834424,-96.342232477147633,-92.840994277208338,-89.339756077268532,-85.838517877328115,-82.337279677387144,-78.838063224301365,-75.417695662985267,-71.997328101668643,-68.576960540351337,-65.156592979033547,-61.744390623459182,-58.487328720590931,-55.230266817722274,-51.973204914853106,-48.716143011983377,-45.476448478588857,-42.450953690841025,-39.425458903092611,-36.399964115343735,-33.374469327594326,-30.37752768636587,-27.637567062708303,-24.89760643905025,-22.157645815391767,-19.417685191732797,-16.718100645200533,-14.301151691673047,-11.884202738145111,-9.46725378461672,-7.0503048310878835,-4.6848943889445476,-2.6115387589742816,-0.53818312900358012,1.5351725009675534,3.6085281309391157,5.6209346186108133,7.3460061434479034,9.0710776682854064,10.796149193123341,12.521220717961674,14.178440430501057,15.564249687128171,16.950058943755678,18.335868200383597,19.721677457011936,21.035622432478995,22.102031864970094,23.16844129746158,24.234850729953482,25.301260162445772,26.294707578298556,27.069266185650982,27.843824793003822,28.618383400357057,29.392942007710655,30.096091491039555,30.61097810205889,31.125864713078656,31.640751324098776,32.155637935119273,32.602856810241363,32.892182169589908,33.181507528938845,33.470832888288172,33.760158247637847,33.987181224181434,34.084805132160845,34.18242904014069,34.280052948120904,34.37767685610148,34.4194057382542,34.357328062937668,34.295250387621543,34.2331727123058,34.171095036990387,34.060034821497517,33.867335804406174,33.674636787315158,33.48193777022454,33.289238753134335,33.054524662284429,32.756786967967045,32.459049273650066,32.161311579333464,31.863573885017207,31.530497943504447,31.149610646323278,30.768723349142494,30.387836051962068,30.006948754782016,29.596870827984883,29.151114851848867,28.705358875713255,28.259602899578045,27.813846923443165,27.344376817174425,26.848695884655346,26.3530149521367,25.857334019618381,25.361653087100521,23.779756056564636,23.246133359129246,22.712510661694239,22.163926504504666,21.601805519123172,21.039684533742097,20.477563548361438,19.915442562981195,19.341676495593223,18.758382433707023,18.175088371821246,17.591794309935903,17.008500248050993,16.416251649551615,15.81738433331253,15.218517017073891,14.619649700835648,14.020782384597917,13.415105437852949,12.804888630161042,12.19467182246961,11.584455014778632,10.974238207088126,10.358894375576728,9.7404742522351047,9.1220541288939589,8.5036340055533142,7.8852138822131366,7.2629671935802964,6.6386599910683728,6.0143527885569732,5.390045586046079,4.7657383835356661,4.1385958747727924,3.5100881788521523,2.8815804829320526,2.2530727870124743,1.6245650910934333,0.99396765839895318,0.36247459601189608,-0.26901846637462196,-0.9005115287605705,-1.5320045911459861,-2.1650337016509762,-2.7986454711235758,-3.4322572405956122,-4.0658690100670452,-4.6994807795379234,-5.3342226888789783,-5.9693413257526391,-6.6044599626256684,-7.2395785994981123,-7.8746972363699417,-8.5106522746460378,-9.1468501493367853,-9.7830480240269075,-10.419245898716385,-11.055443773405232,-11.692268587470489,-12.329250143786703,-12.96623170010227,-13.603213256417144,-14.240194812731357,-14.877656800911613,-15.515220704385422,-16.152784607858536,-16.790348511330954,-17.42791241480267,-18.065853292526981,-18.703860699310805,-19.341868106093894,-19.979875512876241,-20.617882919657834,-21.256212011788872,-21.89458706244416,-22.532962113098705,-23.171337163752433,-23.809712214405415,-24.448334851925686,-25.086985001697343,-25.725635151468165,-26.364285301238084,-27.002935451007239,-27.641868438943529,-28.280824362593656,-28.919780286242958,-29.558736209891425,-30.19769213353911,-30.836851877874444,-31.47602235164144,-32.115192825407505,-32.754363299172617,-33.39353377293682,-34.032940143363284,-34.672352564708063,-35.311764986051841,-35.951177407394646,-36.590589828736491,0.061375203930703254,0.061375203930703254,0.061375203930703254,0.061375203930703254,0.061375203930703254,0.061375203930703254,0.061375203930703254,0.061375203930703254,0.061375203930703254,0.061375203930703254,0.061375203930703254,0.061375203930703254
DP 121,72.278622928824149,0.0010546558796694879,-53.183334809548448,-51.676845930937247,-50.170357052325471,-48.663868173713034,-47.157379295100029,-45.651286572002775,-44.160644063824449,-42.670001555645563,-41.17935904746605,-39.688716539286006,-38.199720568278373,-36.74200911482373,-35.2842976613685,-33.826586207912804,-32.368874754456591,-30.914795917805385,-29.505519812901369,-28.096243707996788,-26.686967603091706,-25.277691498186069,-23.874705472826765,-22.528330757934608,-21.181956043041982,-19.835581328148852,-18.48920661325522,-17.15231354657654,-15.881792734378303,-14.611271922179617,-13.340751109980463,-12.070230297780812,-10.812782778812418,-9.6294180786252177,-8.4460533784375436,-7.2626886782494164,-6.0793239780608372,-4.9128615965256213,-3.8260824872876293,-2.7393033780491889,-1.6525242688103061,-0.56574515957098193,0.50022300867432024,1.482946429405295,2.4656698501367047,3.4483932708685483,4.4311166916008125,5.3891963168018613,6.2623907221233015,7.13558512744516,8.00877953276745,8.8819739380901517,9.72690928587143,10.487066392596356,11.247223499321697,12.007380606047446,12.767537712773606,13.496160965750509,14.141648429527615,14.787135893305139,15.432623357083067,16.078110820861411,16.689228922391052,17.220150762462996,17.751072602535359,18.281994442608141,18.812916282681329,19.30714649034427,19.725169932805766,20.143193375267696,20.561216817730031,20.979240260192775,21.358808972149049,21.666960717511849,21.975112462875078,22.283264208238709,22.591415953602752,22.859928615495988,23.062375139142922,23.264821662790276,23.467268186438051,23.669714710086232,23.831914932150156,23.933744750806191,24.035574569462685,24.137404388119631,24.239234206776938,24.300761285114888,24.307760230206551,24.314759175298654,24.321758120391127,24.328757065484098,24.2959076653575,24.214353895182597,24.132800125008146,24.051246354834117,23.96969258466055,23.849201215437777,23.685672777702788,23.522144339968222,23.358615902234138,23.195087464500503,22.516333143492346,22.277536960350108,22.038740777208343,21.763940155527383,21.456563441229292,21.149186726931653,20.841810012634536,20.5344332983379,20.192936810259845,19.823523557262856,19.454110304266369,19.084697051270403,18.715283798274942,18.313822499675375,17.888672988374406,17.463523477073956,17.038373965774056,16.613224454474707,16.158221276062957,15.683315182609594,15.208409089156786,14.73350299570453,14.258596902252853,13.75609405711478,13.23703274360911,12.717971430104024,12.198910116599526,11.67984880309559,11.135457401103682,10.577426352352731,10.019395303602392,9.4613642548526578,8.9033332061035129,8.3222023655296411,7.7299490794972154,7.137695793465439,6.54544250743431,5.9531892214038313,5.3399910813851843,4.7178162925534677,4.0956415037224092,3.4734667148920448,2.8512919260623373,2.2102195831478566,1.5619789561027693,0.91373832905838159,0.26549770201472178,-0.382742925028248,-1.0479668644735598,-1.718852122089946,-2.3897373797055632,-3.06062263732045,-3.731507894934575,-4.4176156117108016,-5.1081429377713308,-5.7986702638310756,-6.4891975898900336,-7.1797249159482,-7.8838826023752082,-8.5914480399383013,-9.299013477500587,-10.006578915062015,-10.714144352622641,-11.433928949620624,-12.15630562952499,-12.878682309428472,-13.601058989331102,-14.323435669232827,-15.056805855532454,-15.792116194621295,-16.527426533709193,-17.262736872796207,-17.998047211882259,-18.743341313867973,-19.490061775544309,-20.236782237219742,-20.983502698894171,-21.730223160567668,-22.48606314505707,-23.242916505634753,-23.999769866211377,-24.756623226786939,-25.513476587361435,-26.278920709046066,-27.04506146671255,-27.811202224378025,-28.577342982042477,-29.343483739705967,-30.117728702163394,-30.892400282347594,-31.667071862530623,-32.441743442712514,-33.216415022893159,-33.999080061779935,-34.781950138637448,-35.564820215493796,-36.347690292348965,-37.13056036920289,0.076554336736942841,0.076554336736942841,0.076554336736942841,0.076554336736942841,0.076554336736942841,0.076554336736942841,0.076554336736942841,0.076554336736942841,0.076554336736942841,0.076554336736942841,0.076554336736942841,0.076554336736942841
DP 122,88.320563635414629,0.0057589220072339752,-328.95269833867246,-319.24179031314964,-309.53088228762368,-299.81997426209449,-290.10906623656211,-280.40108831064242,-270.80738537757128,-261.21368244449707,-251.61997951141979,-242.02627657833915,-232.44468769079825,-223.0932679586339,-213.74184822646706,-204.39042849429737,-195.03900876212478,-185.71419475858093,-176.71752142789956,-167.72084809721528,-158.72417476652814,-149.72750143583784,-140.77658566609395,-132.23749226994931,-123.69839887380195,-115.15930547765193,-106.62021208149922,-98.1495501118929,-90.15791330270153,-82.16627649350761,-74.17463968431106,-66.1830028751119,-58.284798751563926,-50.9160524009624,-43.547306050358237,-36.178559699751631,-28.809813349142491,-21.560516431515548,-14.874344721099343,-8.1881730106807211,-1.5020013002596673,5.1841704101637944,11.725144340573348,17.685320288790326,23.645496237009663,29.6056721852314,35.565848133455425,41.356526118196136,46.563370663759024,51.770215209324284,56.9770597548918,62.183904300461606,67.199412177977962,71.640902817185832,76.082393456395948,80.523884095608381,84.965374734823072,89.196970001866774,92.875197527893931,96.553425053923149,100.23165257995466,103.90988010598838,107.36349984223959,110.29302765893507,113.22255547563272,116.15208329233253,119.08161110903464,121.77600045378439,123.98201844123045,126.18803642867884,128.39405441612939,130.60007240358206,132.564706040571,134.08104793643415,135.59738983229951,137.11373172816712,138.63007362403718,139.90296945427176,140.77011570556843,141.63726195686758,142.50440820816877,143.37155445947224,143.99710165449477,144.26024455604269,144.523387457593,144.7865303591453,145.04967326069996,145.07657146597273,144.78383923977833,144.49110701358623,144.19837478739629,143.90564256120882,143.38503062478796,142.58589425598356,141.78675788718149,140.98762151838179,140.18848514958452,139.17229966811865,137.91621347986688,136.66012729161744,135.40404110337064,134.14795491512626,129.35810758709874,127.69338512105293,126.02866265500954,124.17370500257033,122.14662637553658,120.11954774850558,118.09246912147725,116.06539049445125,113.862995766092,111.5171575782658,109.17131939044232,106.82548120262146,104.47964301480341,101.97377999663478,99.349635125473526,96.725490254315233,94.101345383159511,91.477200512006874,88.708293892054854,85.8428771590646,82.9774604260773,80.112043693092858,77.246626960111371,74.251349477202609,71.178153580405848,68.104957683612241,65.0317617868217,61.958565890034187,58.769782417127296,55.518757799316887,52.267733181509747,49.016708563705841,45.765683945905053,42.412514400912833,39.010162534704676,35.6078106684999,32.205458802298473,28.803106936100512,25.311078830820431,21.780616840751104,18.250154850685256,14.719692860623043,11.189230870564275,7.5804936534698317,3.94206481251478,0.30363597156339,-3.3347928693841764,-6.9732217103281293,-10.679642565034897,-14.408728281217117,-18.137813997395291,-21.866899713569637,-25.595985429740004,-29.383914573048465,-33.188928009644776,-36.993941446236931,-40.798954882825043,-44.603968319408985,-48.459803223196168,-52.328344094243086,-56.196884965285868,-60.065425836324188,-63.933966707358252,-67.846411615204076,-71.768170003564691,-75.689928391920716,-79.611686780272223,-83.5334451686191,-87.493236858687922,-91.45974073081527,-95.426244602937771,-99.392748475055527,-103.35925234716832,-107.35904848807846,-111.36360102702039,-115.36815356595757,-119.37270610488957,-123.37725864381662,-127.41106155304857,-131.44811481061785,-135.48516806818176,-139.52222132573985,-143.55927458329282,-147.62314835509554,-151.68919703724944,-155.75524571939806,-159.82129440154131,-163.88734308367941,-167.97784966832293,-172.06964375433319,-176.16143784033724,-180.25323192633536,-184.34502601232722,-188.46062637028106,-192.57683737624805,-196.69304838220839,-200.80925938816256,-204.92547039411036,0.40018586578967541,0.40018586578967541,0.40018586578967541,0.40018586578967541,0.40018586578967541,0.40018586578967541,0.40018586578967541,0.40018586578967541,0.40018586578967541,0.40018586578967541,0.40018586578967541,0.40018586578967541
DP 123,193.92544967362824,0.0038362364869792918,-319.20674417655545,-307.7615367040612,-296.31632923156513,-284.87112175906685,-273.42591428656687,-261.98705641434651,-250.79583535381161,-239.60461429327492,-228.41339323273624,-217.22217217219557,-206.05663975190538,-195.37919635265163,-184.70175295339627,-174.02430955413891,-163.34686615488002,-152.72420429968815,-142.77718839203465,-132.83017248437946,-122.88315657672253,-112.93614066906392,-103.07951759931954,-94.036438614858184,-84.993359630395162,-75.95028064593059,-66.90720166146437,-57.992525523668917,-49.976679022007424,-41.960832520344368,-33.944986018679778,-25.929139517013674,-18.078087859866425,-11.160884039399662,-4.2436802189314022,2.6735236015383319,9.5907274220095378,16.311822361375786,22.108393411847558,27.904964462320827,33.701535512795473,39.498106563271563,45.074821091471215,49.772099140016806,54.469377188563818,59.166655237112266,63.863933285662007,68.32654871080797,71.980871908413519,75.635195106020376,79.2895183036286,82.943841501238111,86.357920061957387,89.05125562872513,91.744591195494266,94.4379267622647,97.131262329036474,99.5873562149729,101.4179866062148,103.24861699745793,105.0792473887024,106.90987777994806,108.5135615221911,109.58769593300849,110.66183034382728,111.73596475464737,112.81009916546857,113.67319789458769,114.09798560868454,114.52277332278261,114.94756103688192,115.37234875098258,115.6058353018651,115.48404309762742,115.36225089339099,115.24045868915594,115.11866648492209,114.82742401352378,114.25376015908334,113.68009630464407,113.1064324502061,112.53276859576944,111.81214052777446,110.87106266663648,109.92998480549961,108.98890694436405,108.04782908322991,106.98172876610218,105.74647763974487,104.51122651338883,103.27597538703418,102.04072426068059,100.70099145023033,99.233556609055839,97.766121767882723,96.298686926710829,94.831252085540285,93.277923183948516,91.629657032669627,89.981390881392,88.333124730115756,86.684858578840888,81.392314441086114,79.604949753288977,77.817585065493262,75.974693162211153,74.081561349966677,72.188429537723522,70.295297725481916,68.402165913241575,66.4652753974439,64.492581553986525,62.519887710530661,60.547193867076182,58.574500023623258,56.567734073660148,54.535783832705988,52.503833591753406,50.4718833508023,48.43993310985276,46.381744687323419,44.306063730397874,42.23038277347392,40.15470181655153,38.079020859630774,35.983336126129984,33.875648824157366,31.76796152218634,29.660274220217055,27.552586918249354,25.429783944579587,23.298841543263325,21.167899141948855,19.036956740636121,16.906014339325026,14.7637365129442,12.616000730577115,10.468264948211878,8.3205291658484324,6.17279338348683,4.016607315566719,1.8567995825898544,-0.30300815038516143,-2.4628158833582252,-4.6226236163294621,-6.7887069773906088,-8.9571708309231273,-11.125634684453699,-13.294098537982245,-15.462562391508863,-17.6356830820208,-19.810356110215753,-21.985029138408571,-24.159702166599331,-26.334375194787995,-28.512514960034423,-30.691661239609516,-32.87080751918247,-35.049953798753229,-37.229100078321814,-39.410849964847429,-41.593250783872406,-43.775651602895167,-45.95805242191561,-48.140453240933759,-50.324842371252096,-52.509653287351952,-54.694464203449321,-56.879275119544339,-59.0640860356369,-61.250444068728285,-63.437075139668679,-65.623706210606372,-67.810337281541678,-69.996968352474369,-72.184891955818117,-74.373000220609214,-76.561108485397867,-78.74921675018372,-80.937325014967,-83.126423701792348,-85.315632445910339,-87.504841190025473,-89.694049934137638,-91.883258678247,-94.073545568398373,-96.26391988681101,-98.454294205220819,-100.64466852362779,-102.83504284203211,-105.02620125219373,-107.21740093814098,-109.408600624085,-111.59980031002581,-113.79099999596329,-115.98308238891532,-118.17518742393491,-120.36729245895101,-122.55939749396383,-124.75150252897336,0.21050545047652966,0.21050545047652966,0.21050545047652966,0.21050545047652966,0.21050545047652966,0.21050545047652966,0.21050545047652966,0.21050545047652966,0.21050545047652966,0.21050545047652966,0.21050545047652966,0.21050545047652966
DP 124,99.043459510138476,0.0023449911366506919,-143.04326503710539,-138.71347199784523,-134.38367895858372,-130.05388591932098,-125.72409288005673,-121.39571775177326,-117.12264168787837,-112.84956562398223,-108.57648956008475,-104.30341349618598,-100.03618446639457,-95.880050190003544,-91.723915913611364,-87.567781637218033,-83.41164736082365,-79.268314779356231,-75.282871382044661,-71.297427984731854,-67.311984587417925,-63.32654119010278,-59.363018879664992,-55.596788423140829,-51.830557966615558,-48.064327510089157,-44.2980970535617,-40.564476444493309,-37.059127233501457,-33.553778022508588,-30.048428811514654,-26.543079600519654,-23.081968615441411,-19.871543698195172,-16.661118780947881,-13.450693863699597,-10.240268946450307,-7.0859800158168644,-4.1963351969698293,-1.3066903781217987,1.5829544407272083,4.472599259577188,7.2945835231346372,9.8459223678426859,12.397261212551692,14.948600057261659,17.499938901972559,19.973034467111766,22.176622115659672,24.380209764208526,26.583797412758308,28.787385061309024,30.903560040071351,32.757493704528756,34.611427368987137,36.465361033446406,38.319294697906621,40.078405970301326,41.587527677169696,43.096649384038926,44.605771090909,46.11489279778008,47.523760093201524,48.698697269852879,49.873634446505186,51.048571623158381,52.223508799812457,53.294827569571893,54.150935865279173,55.007044160987434,55.86315245669654,56.719260752406463,57.470427956747329,58.026701728787991,58.582975500829519,59.139249272871936,59.695523044915312,60.147452320208473,60.42547147084862,60.703490621489912,60.981509772131858,61.259528922774869,61.435520735859086,61.458469131670768,61.481417527483373,61.504365923296923,61.527314319111291,61.452024350949735,61.243821470208488,61.035618589468307,60.827415708728992,60.619212827990573,60.317752357088963,59.902308428252006,59.4868644994159,59.071420570580834,58.6559766417467,58.153159936950061,57.55377158323256,56.954383229516,56.354994875800436,55.755606522085863,53.553122089118084,52.792005680944186,52.03088927277112,51.19578274226668,50.2937314356286,49.391680128991524,48.489628822355485,47.587577515720511,46.618544055888322,45.594705865035721,44.570867674184157,43.547029483333667,42.523191292484249,41.439317287019328,40.311067996899524,39.182818706780857,38.054569416663291,36.926320126546869,35.7447625702136,34.527665329943595,33.310568089674746,32.093470849407048,30.87637360914054,29.612353578740876,28.32017916463089,27.028004750522083,25.735830336414583,24.443655922308235,23.110514969295664,21.755314514995394,20.400114060696467,19.044913606398797,17.689713152102389,16.299015751273394,14.891226730972447,13.483437710672861,12.075648690374624,10.66785967007773,9.2295246993500886,7.7780981945478667,6.326671689747017,4.8752451849476195,3.4238186801495836,1.9462684434639226,0.45880886444345209,-1.028650714575567,-2.5161102935930697,-4.0035698726091411,-5.5132532507649685,-7.0303448420486863,-8.5474364333308053,-10.0645280246114,-11.581619615890416,-13.117539620100118,-14.658926167376459,-16.200312714651176,-17.741699261924264,-19.283085809195725,-20.840383541197049,-22.401659257372248,-23.962934973545806,-25.524210689717595,-27.085486405887661,-28.660205164414933,-30.23777563139847,-31.815346098380164,-33.392916565360075,-34.970487032338141,-36.559440511976327,-38.150402885133509,-39.741365258288788,-41.332327631442148,-42.923290004593589,-44.524000345568396,-46.1261033586749,-47.728206371779486,-49.33030938488205,-50.932412397982645,-52.54287128799988,-54.154258696539856,-55.765646105077678,-57.377033513613256,-58.9884209221467,-60.607360008673545,-62.226911470581079,-63.84646293248646,-65.466014394389816,-67.085565856291,-68.7118400223122,-70.3384680817517,-71.965096141188923,-73.591724200623673,-75.218352260056065,-76.8514799063292,-78.484774271682923,-80.118068637034085,-81.7513630023828,-83.384657367729019,0.15836357841442833,0.15836357841442833,0.15836357841442833,0.15836357841442833,0.15836357841442833,0.15836357841442833,0.15836357841442833,0.15836357841442833,0.15836357841442833,0.15836357841442833,0.15836357841442833,0.15836357841442833
DP 125,85.6506907260378,0.0028682287699070496,-160.86636666691163,-156.14836684338803,-151.43036701986281,-146.71236719633603,-141.99436737280766,-137.27776071655731,-132.61548811096409,-127.95321550536924,-123.29094289977272,-118.62867029417467,-113.97216236799065,-109.42518444047116,-104.87820651295033,-100.33122858542808,-95.784250657904352,-91.249942300219942,-86.871893567293156,-82.49384483436495,-78.115796101435222,-73.7377473685041,-69.381514012695078,-65.221621113012375,-61.061728213328216,-56.901835313642891,-52.741942413956188,-48.614715127938631,-44.716149607686845,-40.817584087433772,-36.919018567179371,-33.020453046923706,-29.166562712317294,-25.565834578229325,-21.965106444140122,-18.364378310049663,-14.763650175957968,-11.220140819167739,-7.946380217309418,-4.6726196154498787,-1.3988590135891292,1.8749015882728202,5.0789596197818723,8.00420407569258,10.929448531604468,13.854692987517543,16.779937443431766,19.623620739370118,22.186367724609095,24.74911470984927,27.31186169509056,29.874608680332965,32.345049833183744,34.538569998916387,36.732090164650167,38.925610330385119,41.1191304961212,43.2111034143478,45.035357371553246,46.859611328759769,48.683865285967485,50.50811924317626,52.223379422061178,53.684317350784454,55.145255279508767,56.6061932082343,58.06713113696091,59.41359686590377,60.522309312205486,61.631021758508318,62.739734204812251,63.848446651117293,64.839245612344243,65.611059202621234,66.3828727928993,67.154686383178515,67.92649997345886,68.57896502544402,69.032512838681569,69.4860606519203,69.9396084651601,70.393156278401051,70.727817547908884,70.884146192494754,71.040474837081689,71.1968034816698,71.353132126259084,71.392754516655373,71.274477614624274,71.156200712594369,71.037923810565744,70.919646908538141,70.688340176946582,70.318883501731065,69.949426826516827,69.579970151303726,69.21051347609189,68.7329490504006,68.135894959766048,67.5388408691327,66.941786778500557,66.34473268786968,64.042536950720759,63.24106908756476,62.43960122441,61.542550529082519,60.559018407580972,59.575486286080668,58.591954164581686,57.608422043083955,56.536402460090308,55.391982524249016,54.247562588409075,53.103142652570547,51.958722716733263,50.733157164763206,49.4476130843521,48.162069003942463,46.876524923534227,45.590980843127433,44.231681898374426,42.823211882159349,41.4147418659458,40.006271849733679,38.59780183352305,37.122847337320643,35.608001147654051,34.093154957988972,32.578308768325492,31.0634625786635,29.489145874057723,27.882805719680139,26.276465565304221,24.670125410929892,23.063785256557132,21.404624813303602,19.72003163945946,18.035438465617027,16.350845291776306,14.666252117937294,12.935046198764642,11.183862759323482,9.43267931988407,7.6814958804464792,5.9303124410106243,4.1382270931958693,2.3306266951569,0.52302629711976856,-1.2845741009154474,-3.09217449894885,-4.9354958719782855,-6.7907246868564251,-8.6459535017325368,-10.50118231660673,-12.356411131478943,-14.242726807769882,-16.138068081034195,-18.033409354296463,-19.928750627556688,-21.824091900814821,-23.746435558999131,-25.675530132450032,-27.604624705898804,-29.5337192793454,-31.462813852789811,-33.415372153392561,-35.372907877065437,-37.330443600735912,-39.2879793244042,-41.245515048070175,-43.223499175694329,-45.205092072580278,-47.186684969463819,-49.168277866344951,-51.149870763223646,-53.149467518926585,-55.151636448944345,-57.153805378959731,-59.155974308972418,-61.158143238982767,-63.17623057771884,-65.196086795713725,-67.215943013705854,-69.235799231695083,-71.255655449681655,-73.290168146321619,-75.325869355860476,-77.361570565396477,-79.397271774930061,-81.432972984460918,-83.482117597130056,-85.531969891086,-87.581822185039044,-89.631674478989,-91.681526772935669,-93.7444905922199,-95.8077907315677,-97.871090870912212,-99.934391010253634,-101.99769114959179,0.20075780366435692,0.20075780366435692,0.20075780366435692,0.20075780366435692,0.20075780366435692,0.20075780366435692,0.20075780366435692,0.20075780366435692,0.20075780366435692,0.20075780366435692,0.20075780366435692,0.20075780366435692
DP 126,162.86361754277479,0.001561001101406534,-121.18045230745879,-117.03781349714365,-112.89517468682772,-108.75253587651096,-104.60989706619334,-100.46924901616151,-96.406241369987086,-92.3432337238119,-88.280226077635888,-84.21721843145906,-80.162310591619843,-76.261300603418221,-72.3602906152158,-68.4592806270128,-64.558270638808978,-60.67468277506871,-57.005969975400617,-53.337257175731821,-49.668544376062272,-45.999831576392054,-42.3602110470693,-38.982423700717035,-35.604636354364047,-32.226849008010419,-28.849061661656126,-25.513222750381257,-22.471026056678227,-19.428829362974543,-16.386632669270245,-13.344435975565258,-10.357051086148415,-7.680269874950894,-5.0034886637527336,-2.3267074525539506,0.35007375864545587,2.960265580196924,5.2565323967734177,7.5527992133505215,9.8490660299282453,12.145332846506561,14.365190225221216,16.279406241326047,18.193622257431436,20.10783827353746,22.022054289644029,23.852599089096277,25.394939516204811,26.937279943313918,28.479620370423586,30.021960797533833,31.47622442821875,32.666254339579176,33.856284250940085,35.046314162301634,36.236344073663716,37.336768376679906,38.200956632375025,39.0651448880707,39.929333143766925,40.793521399463664,41.56924057051296,42.138529089985028,42.707817609457685,43.277106128930875,43.846394648404583,44.330636105238639,44.638238881591825,44.94584165794555,45.253444434299773,45.561047210654571,45.788831535990695,45.868379439569146,45.947927343148137,46.027475246727654,46.107023150307732,46.113272522107508,45.99735582673744,45.881439131367905,45.765522435998953,45.649605740630527,45.467702549571996,45.186818055698922,44.905933561826387,44.625049067954407,44.344164574082924,44.004949274159955,43.586814527580643,43.168679781001856,42.750545034423681,42.332410287846,41.863571476515517,41.332759965463872,40.801948454412788,40.271136943362279,39.740325432312375,39.166119133525065,38.543949311086294,37.9217794886481,37.299609666210486,36.677439843773463,34.627890459995577,33.932504532564742,33.237118605134519,32.511261170270657,31.757833727690695,31.004406285111315,30.250978842532575,29.497551399954393,28.719074115131519,27.920101074337893,27.121128033544853,26.322154992752477,25.523181951960726,24.703853031919405,23.869478127378997,23.035103222839265,22.200728318300172,21.366353413761736,20.515613835097806,19.65396421588266,18.792314596668191,17.930664977454402,17.069015358241305,16.194339586746608,15.311847926883937,14.429356267021936,13.546864607160673,12.6643729473001,11.771606291030414,10.873306794970919,9.9750072989121747,9.076707802854175,8.1784083067968716,7.27206999035683,6.3618610182013695,5.4516520460466982,4.5414430738928049,3.6312341017397034,2.7147805889730088,1.7956507601952003,0.87652093141818943,-0.04260889735798265,-0.96173872613336719,-1.8856905854864068,-2.8114715537867849,-3.7372525220863269,-4.66303349038499,-5.5888144586828323,-6.5183029237289416,-7.4490272677487788,-8.3797516117676878,-9.3104759557857211,-10.24120029980284,-11.174768749644192,-12.109162942314828,-13.043557134984544,-13.977951327653305,-14.91234552032113,-15.848922794591038,-16.786045865054074,-17.723168935516149,-18.660292005977212,-19.597415076437308,-20.536222188633374,-21.47538654109718,-22.414550893559923,-23.353715246021647,-24.292879598482326,-25.233351841008506,-26.17405490220694,-27.114757963404237,-28.055461024600458,-28.996164085795577,-29.937920784991974,-30.879828015283689,-31.821735245574281,-32.763642475863691,-33.70554970615202,-34.648270479487742,-35.591081655038366,-36.533892830587767,-37.476704006135868,-38.419515181682776,-39.363099336331629,-40.306746172859363,-41.25039300938591,-42.194039845911192,-43.13768668243538,-44.08192523943562,-45.026194945504869,-45.970464651572755,-46.914734357639283,-47.859004063704354,-48.803879992325825,-49.748771470991031,-50.693662949654815,-51.638554428317178,-52.583445906978106,0.090899689798137118,0.090899689798137118,0.090899689798137118,0.090899689798137118,0.090899689798137118,0.090899689798137118,0.090899689798137118,0.090899689798137118,0.090899689798137118,0.090899689798137118,0.090899689798137118,0.090899689798137118
DP 127,126.21158521524016,0.003797030338926824,-262.7395518563028,-254.32318749050648,-245.90682312470827,-237.490458758908,-229.07409439310553,-220.66103563076965,-212.37689665351391,-204.0927576762563,-195.80861869899636,-187.52447972173468,-179.25388634493387,-171.24066193762295,-163.22743753031014,-155.2142131229956,-147.2009887156793,-139.21719881263789,-131.59643817192287,-123.97567753120585,-116.35491689048712,-108.73415624976633,-101.16325406574697,-94.0410827047365,-86.91891134372429,-79.796739982710434,-72.674568621694789,-65.625582310307038,-59.088896880352841,-52.55221145039706,-46.01552602043953,-39.4788405904804,-33.039852162804038,-27.1544862376938,-21.269120312581933,-15.383754387468491,-9.4983884623534358,-3.7346939425822869,1.4554002374057602,6.6454944173953683,11.835588597386517,17.025682777379192,22.072197821100502,26.544389534100052,31.016581247101144,35.488772960103681,39.960964673107725,44.270985059228821,48.022408506696316,51.77383195416531,55.525255401635746,59.276678849107711,62.851531110174669,65.896663136140575,68.941795162107866,71.9869271880767,75.032059214046953,77.8909113930282,80.2586557545344,82.626400116042049,84.9941444775511,87.361888839061592,89.5384610081146,91.268958704828449,92.999456401543668,94.7299540982603,96.460451794978411,97.99950607802765,99.140941549472643,100.28237702091894,101.42381249236679,102.56524796381599,103.51914285575181,104.12474303529207,104.73034321483377,105.33594339437687,105.94154357392132,106.36705250228496,106.49240480603282,106.61775710978223,106.74310941353303,106.86846171728517,106.82399711695693,106.52480314768719,106.22560917841896,105.92641520915221,105.62722123988672,105.1705525737692,104.50082640374958,103.83110023373143,103.1613740637147,102.49164789369932,101.67812676566906,100.68885322414059,99.699579682613575,98.710306141088068,97.721032599564026,96.602318648766584,95.340536406698462,94.078754164631732,92.816971922566609,91.555189680502949,87.194928176914914,85.703179589165515,84.211431001417651,82.6187998244497,80.934892107609642,79.250984390771137,77.567076673934352,75.883168957098974,74.111765323082537,72.268772616788951,70.42577991049707,68.582787204206767,66.739794497918169,64.821731350170623,62.848180120346669,60.874628890524541,58.901077660704026,56.92752643088528,54.890211689606808,52.810386936189687,50.730562182774364,48.650737429360838,46.570912675949096,44.437436081043629,42.271767569845935,40.106099058650059,37.940430547456096,35.774762036263944,33.564343297101964,31.329827630596988,29.09531196409397,26.860796297592856,24.626280631093589,22.354740579666124,20.065373454076564,17.776006328489089,15.486639202903635,13.197272077320269,10.877497732783672,8.5446913123937769,6.2118848920059762,3.8790784716203786,1.5462720512368513,-0.811342776448324,-3.17836801309717,-5.5453932497438165,-7.9124184863881561,-10.279443723030321,-12.666595720796929,-15.060456892590565,-17.454318064381763,-19.848179236170647,-22.242040407957159,-24.652158588024442,-27.066996742962331,-29.481834897897762,-31.896673052830756,-34.311511207761214,-36.739444910591921,-39.170652655121266,-41.601860399648039,-44.033068144172184,-46.464275888693784,-48.906030996810237,-51.35002354531715,-53.794016093821234,-56.238008642322654,-58.68200119082136,-61.134505132946579,-63.588511180357287,-66.042517227765117,-68.496523275170034,-70.950529322572081,-73.411516595447978,-75.873501261660252,-78.335485927869641,-80.797470594075833,-83.259455260279182,-85.727102029008435,-88.195377979702968,-90.6636539303942,-93.13192988108203,-95.600205831766644,-98.073527116037312,-100.54725753296243,-103.02098794988429,-105.49471836680307,-107.96844878371869,-110.44638885192279,-112.92455052260192,-115.40271219327731,-117.88087386394909,-120.35903553461723,-122.84126221157189,-125.3235931588614,-127.80592410614716,-130.2882550534292,-132.77058600070743,0.23960994226456944,0.23960994226456944,0.23960994226456944,0.23960994226456944,0.23960994226456944,0.23960994226456944,0.23960994226456944,0.23960994226456944,0.23960994226456944,0.23960994226456944,0.23960994226456944,0.23960994226456944
DP 128,237.75421321037697,0.0051177065384254471,-457.83574586013026,-440.426838641078,-423.01793142202393,-405.60902420296736,-388.20011698390783,-370.80268563839007,-353.85281769992793,-336.90294976146288,-319.95308182299596,-303.00321388452682,-286.09941768906674,-270.070993320344,-254.04256895161919,-238.0141445828919,-221.98572021416274,-206.05436948713037,-191.32027257508142,-176.5861756630303,-161.852078750977,-147.11798183892128,-132.54141136874708,-119.38259376511328,-106.22377616147767,-93.064958557840157,-79.906140954200467,-66.966461474405563,-55.560765432088935,-44.155069389770325,-32.749373347449811,-21.343677305127358,-10.21229496604048,-0.63537423093020517,8.9415465041819484,18.518467239295983,28.095387974411853,37.355102673667119,45.11940035661052,52.883698039555739,60.647995722502827,68.412293405451663,75.832215318561211,81.874617876914172,87.917020435268952,93.959422993625452,100.00182555198361,105.68939576004882,110.15475074414096,114.62010572823462,119.08546071233026,123.55081569642731,127.66647284787355,130.73302327982947,133.79957371178705,136.86612414374619,139.93267457570721,142.66765574677584,144.52848837901792,146.38932101126187,148.25015364350733,150.11098627575444,151.66797099011507,152.51596765605743,153.36396432200138,154.21196098794695,155.05995765389417,155.63784423889913,155.65472510775902,155.67160597662058,155.68848684548365,155.70536771434823,155.48860355021964,154.83792087213368,154.18723819404909,153.53655551596623,152.88587283788488,152.03802941041866,150.86157976441575,149.68513011841441,148.50868047241454,147.33223082641646,145.99311708017274,144.41000333976211,142.82688959935305,141.24377585894572,139.66066211853996,137.94608539336974,136.05364405915856,134.16120272494885,132.26876139074091,130.37632005653438,128.37962554028965,126.25550827841417,124.13139101654041,122.00727375466822,119.88315649279761,117.67779250146052,115.3826278766014,113.08746325174397,110.7922986268883,108.4971340020342,101.30009810230233,98.880316431806577,96.460534761312545,93.99367057581378,91.484207076684172,88.974743577556239,86.4652800784302,83.955816579305846,81.411255580617123,78.837977842748188,76.264700104880959,73.69142236701569,71.118144629152155,68.519024543742759,65.900803167948155,63.282581792155618,60.664360416364786,58.046139040576016,55.409098928714634,52.759512696344331,50.109926463976009,47.460340231609607,44.810753999245243,42.147593471699288,39.476288161756187,36.80498285181509,34.133677541876089,31.462372231939092,28.781349640157192,26.095094524538474,23.408839408922006,20.722584293307669,18.036329177695393,15.343152827760958,12.646643934753611,9.9501350417485614,7.2536261487457541,4.5571172557452329,1.8556854730778292,-0.84785618591916656,-3.5513978449138639,-6.2549395039061384,-8.9584811628961365,-11.665537694701566,-14.373927499949895,-17.082317305195819,-19.79070711043919,-22.499096915680166,-25.210024699065581,-27.921798507149784,-30.633572315231326,-33.345346123310357,-36.057119931386715,-38.770765276202376,-41.484953993217687,-44.199142710230262,-46.913331427240188,-49.62752014424742,-52.343135595845354,-55.059107747945809,-57.77507990004343,-60.491052052138208,-63.207024204230166,-65.924136143084723,-68.641489867945154,-71.3588435928026,-74.076197317657147,-76.793551042508582,-79.511854348926491,-82.230325239118955,-84.94879612930815,-87.66726701949429,-90.3857379096772,-93.105105143481964,-95.824600436055235,-98.54409572862555,-101.26359102119235,-103.98308631375605,-106.70329426412779,-109.42358140618185,-112.14386854823238,-114.86415569027908,-117.58444283232242,-120.3056805631429,-123.02699537843972,-125.74831019373293,-128.46962500902265,-131.19093982430908,-133.91293009662118,-136.63495592601979,-139.35698175541432,-142.07900758480491,-144.80103341419155,-147.5239007464005,-150.2467896637587,-152.96967858111296,-155.69256749846278,-158.41545641580873,0.2610210051044386,0.2610210051044386,0.2610210051044386,0.2610210051044386,0.2610210051044386,0.2610210051044386,0.2610210051044386,0.2610210051044386,0.2610210051044386,0.2610210051044386,0.2610210051044386,0.2610210051044386
DP 129,65.21509587911244,0.005273594093142174,-248.28329529728688,-241.39013910326378,-234.49698290923743,-227.60382671520844,-220.7106705211767,-213.81920918316638,-206.99384787090614,-200.16848655864308,-193.34312524637718,-186.51776393410864,-179.69946478503363,-173.01534807174232,-166.33123135844826,-159.64711464515167,-152.96299793185264,-146.29449365378343,-139.8185447111855,-133.34259576858483,-126.8666468259815,-120.39069788337545,-113.94186704687371,-107.73710172856663,-101.53233641025714,-95.327571091945231,-89.122805773630915,-82.959063713566181,-77.082487563315837,-71.205911413063163,-65.329335262808129,-59.452759112550737,-53.632989943108733,-48.13513057793925,-42.637271212767644,-37.1394118475937,-31.64155248241746,-26.217508220563058,-21.141453432714,-16.06539864486269,-10.989343857009201,-5.9132890691535156,-0.9286381061371497,3.6903932377185975,8.3094245815764971,12.928455925436541,17.547487269298717,22.057588109489309,26.192479305367669,30.327370501248168,34.462261697130792,38.597152893015483,42.606254804500871,46.23798410688601,49.869713409273309,53.501442711662555,57.133172014053969,60.623460065342343,63.740852684015763,66.85824530269123,69.9756379213687,73.093030540048247,76.054991482211975,78.654273615310728,81.253555748411543,83.8528378815143,86.452120014619169,88.884001423791474,90.968199537747054,93.052397651704524,95.136595765664111,97.220793879625731,99.127902707309516,100.70612664942509,102.28435059154262,103.86257453366233,105.440798475784,106.83467609897887,107.9213052107292,109.00793432248179,110.09456343423633,111.18119254599289,112.07870335776533,112.69253225064244,113.30636114352191,113.92019003640343,114.53401892928692,114.95640949386357,115.11979100367975,115.28317251349824,115.44655402331891,115.60993553314172,115.58189932208897,115.31990409818486,115.05790887428292,114.79591365038311,114.53391842648568,114.08268206938,113.42228069403755,112.76187931869747,112.10147794335958,111.44107656802409,108.5342385592575,107.50358293089175,106.47292730252826,105.26293722516907,103.89068894140632,102.51844065764612,101.14619237388841,99.773944090133043,98.22954848101827,96.544302101782,94.859055722548291,93.173809343317018,91.488562964088487,89.639467017888734,87.669262176582038,85.699057335278241,83.728852493976916,81.758647652678448,79.63371576662739,77.405630079913919,75.177544393203291,72.9494587064955,70.721373019790491,68.348239318051611,65.888074613678114,63.427909909307623,60.967745204940066,58.507580500575529,55.912346310531234,53.244380433289344,50.576414556050693,47.908448678815233,45.2404828015828,42.44749601384742,39.59431222222566,36.741128430607226,33.887944638992,31.034760847380138,28.066469148837196,25.048843935879891,22.031218722925928,19.013593509975539,15.995968297028465,12.872832297393137,9.7096735892931587,6.5465148811967477,3.3833561731040285,0.2201974650148322,-3.0393459741134907,-6.3310188716374238,-9.622691769157445,-12.914364666673743,-16.206037564186175,-19.585570802829352,-22.990612954011166,-26.395655105189007,-29.800697256362849,-33.205739407532654,-36.6908306405902,-40.195935089906982,-43.701039539219636,-47.206143988527941,-50.711248437832126,-54.289400835616945,-57.883049089690495,-61.476697343759561,-65.070345597824314,-68.66399385188447,-72.32455504998714,-75.996925158762139,-79.669295267532277,-83.341665376297826,-87.014035485058542,-90.748241593698481,-94.4912820845801,-98.234322575457185,-101.97736306632916,-105.72040355719625,-109.52092653479005,-113.32783705904913,-117.1347475833028,-120.94165810755096,-124.74856863179396,-128.61034293682312,-132.47656621713128,-136.34278949743438,-140.20901277773217,-144.075236058025,-147.99394573798875,-151.91541838225262,-155.83689102651061,-159.75836367076258,-163.67983631500857,-167.6534101934642,-171.62832050608972,-175.60323081870919,-179.57814113132233,-183.55305144392943,0.39006745718068853,0.39006745718068853,0.39006745718068853,0.39006745718068853,0.39006745718068853,0.39006745718068853,0.39006745718068853,0.39006745718068853,0.39006745718068853,0.39006745718068853,0.39006745718068853,0.39006745718068853
DP 130,173.31986764217956,0.0050965553374827267,-405.88830997093476,-391.7789371303607,-377.66956428978352,-363.560191449204,-349.45081860862138,-335.34857915123513,-321.52454433562571,-307.70050952001338,-293.8764747043985,-280.05243988878135,-266.25737093911459,-253.01265891833552,-239.76794689755408,-226.52323487677046,-213.27852285598433,-200.0959359900294,-187.67956719654987,-175.26319840306823,-162.84682960958392,-150.43046081609734,-138.1174130538916,-126.73426433926207,-115.35111562463024,-103.96796690999641,-92.584818195360313,-81.349901253030922,-71.15261792569332,-60.955334598353623,-50.758051271011745,-40.560767943667848,-30.555997662503941,-21.64214677407395,-12.728295885641929,-3.8144449972078847,5.0994058912281606,13.781004591362208,21.367687573638012,28.954370555915798,36.541053538195527,44.127736520477178,51.45000967538077,57.714631024607755,63.979252373836651,70.243873723067409,76.508495072300008,82.486080658946022,87.474975449589778,92.46387024023548,97.452765030882858,102.44165982153224,107.13124282478736,110.92287914934094,114.71451547389617,118.50615179845336,122.29778812301221,125.78798562597567,128.48347042024429,131.17895521451487,133.87444000878696,136.56992480306099,138.9709775526718,140.68501292138453,142.39904829009885,144.113083658815,145.82711902753292,147.2612965368231,148.11422266038369,148.9671487839461,149.82007490751016,150.6730010310761,151.26636774402206,151.37768854185978,151.48900933969921,151.60033013754037,151.71165093538335,151.58753181161609,151.0710068840861,150.55448195655759,150.03795702903108,149.52143210150624,148.79563682423915,147.75593107724177,146.71622533024626,145.67651958325243,144.63681383626036,143.41452935802852,141.94522253575514,140.47591571348377,139.00660889121414,137.53730206894616,135.91141265012232,134.09414121320535,132.2768697762902,130.459598339377,128.64232690246538,126.69287981722751,124.59734122733666,122.5018026374476,120.40626404756037,118.31072545767508,111.47437426975813,109.158941096882,106.84350792400757,104.43785810672574,101.95058208214641,99.463306057569056,96.976030032993648,94.488754008420159,91.928381878123588,89.308202586940425,86.688023295759265,84.067844004580181,81.447664713403015,78.768952878946266,76.0469768981423,73.325000917340617,70.603024936540848,67.881048955743211,65.112709119046826,62.313459314691805,59.514209510338894,56.714959705988129,53.91570990163958,51.080100338755187,48.222674370868042,45.365248402983106,42.507822435100536,39.650396467220212,36.764713728476075,33.863815394519989,30.962917060566408,28.062018726615104,25.161120392666071,22.238438937763057,19.305269008481414,16.372099079202314,13.438929149925682,10.505759220651576,7.55591156498308,4.5989160870905419,1.6419206092005492,-1.3150748686867513,-4.2720703465715317,-7.2417656879512728,-10.216278384503918,-13.19079108105389,-16.165303777601046,-19.139816474145558,-22.123966575288176,-25.11132926608667,-28.098691956882202,-31.086054647674931,-34.073417338464786,-37.068086839433768,-40.064877761503851,-43.061668683570907,-46.058459605635015,-49.055250527696039,-52.0575960360955,-55.06133025670524,-58.0650644773119,-61.068798697915383,-64.072532918515677,-67.080523634670655,-70.08941729258666,-73.098310950499112,-76.107204608408466,-79.116098266314339,-82.128286112521621,-85.141055322705114,-88.153824532885068,-91.1665937430615,-94.179362953234445,-97.194802969168762,-100.21062455763118,-103.22644614609013,-106.24226773454531,-109.25808932299687,-112.27595989515764,-115.29405815369043,-118.31215641221935,-121.33025467074403,-124.34835292926485,-127.36847590531312,-130.38876306833379,-133.40905023135019,-136.429337394363,-139.449624557372,-142.47143015405064,-145.49331568339448,-148.51520121273387,-151.53708674206877,-154.55897227139931,-157.58246050242343,-160.60598984389563,-163.62951918536345,-166.65304852682652,-169.67657786828522,0.29067018508750753,0.29067018508750753,0.29067018508750753,0.29067018508750753,0.29067018508750753,0.29067018508750753,0.29067018508750753,0.29067018508750753,0.29067018508750753,0.29067018508750753,0.29067018508750753,0.29067018508750753
DP 131,75.8121409336338,0.0037729184625603781,-196.20791035692986,-190.59665895418092,-184.9854075514302,-179.37415614867729,-173.76290474592207,-168.15317697960123,-162.60287161036277,-157.05256624112221,-151.50226087187954,-145.95195550263495,-140.40797450078878,-134.98415767512827,-129.56034084946603,-124.13652402380187,-118.71270719813596,-113.30282882439853,-108.0648597811073,-102.82689073781404,-97.5889216945189,-92.350952651221931,-87.137083089274256,-82.140111137397852,-77.143139185519772,-72.146167233639886,-67.1491952817583,-62.18848753845635,-57.481631997411576,-52.774776456365167,-48.067920915316961,-43.361065374267092,-38.704101569683843,-34.32986074896921,-29.955619928252947,-25.581379107535039,-21.207138286815514,-16.897240981553125,-12.890680867351374,-8.8841207531480233,-4.8775606389430841,-0.87100052473657319,3.0565598770792772,6.6681176957563766,10.279675514435029,13.891233333115233,17.502791151796963,21.021094638546725,24.218184842190833,27.41527504583652,30.612365249483716,33.809455453132415,36.89998475687652,39.670827332001075,42.441669907127164,45.212512482254688,47.983355057383747,50.635736947638343,52.97580932429922,55.315881700961604,57.655954077625488,59.996026454290849,62.207511276317994,64.118954419440968,66.03039756256544,67.941840705691348,69.8532838488187,71.628048641760529,73.118939040010574,74.609829438262167,76.10071983651514,77.591610234769632,78.9399133633667,80.023407711882427,81.106902060399548,82.190396408918161,83.273890757438338,84.211121212263109,84.904574824254539,85.598028436247532,86.291482048241946,86.9849356602378,87.5306390701944,87.85471368571325,88.178788301233581,88.502862916755348,88.826937532278791,89.003841517620813,88.98162902430964,88.959416530999988,88.937204037691956,88.91499154438533,88.748070243298926,88.404279582028792,88.060488920760179,87.716698259493171,87.372907598227812,86.888524592685016,86.2487472510582,85.608969909432957,84.969192567809344,84.329415226187379,81.734674435504445,80.82473307683928,79.914791718175763,78.876404294065892,77.721801450578369,76.567198607092649,75.412595763608664,74.257992920126441,72.9824309407876,71.607900316986616,70.233369693187285,68.858839069389873,67.484308445594209,65.996895750439634,64.426046625196349,62.855197499955004,61.284348374715464,59.713499249477856,58.038191373468756,56.293242684686625,54.548293995906505,52.803345307128318,51.058396618352162,49.217542379510114,47.319143360213772,45.420744340919519,43.522345321627377,41.623946302337245,39.63813207877709,37.6052468586755,35.572361638576091,33.539476418478841,31.506591198383695,29.394557719706061,27.244414711908025,25.09427170411227,22.944128696318817,20.793985688527673,18.57260578201128,16.32069481413021,14.068783846251494,11.816872878375236,9.5649619105012924,7.2492642086359922,4.9093707070941184,2.5694772055547164,0.22958370401790298,-2.1103097975164662,-4.507081580091385,-6.92281350650423,-9.3385454329143478,-11.75427735932187,-14.170009285726703,-16.636311333947262,-19.117295647201516,-21.598279960453031,-24.079264273701749,-26.560248586947683,-29.08613805361108,-31.623254339186911,-34.1603706247599,-36.697486910329864,-39.234603195896931,-41.811632722267213,-44.397129150943876,-46.982625579617384,-49.568122008287865,-52.153618436955206,-54.774713406972182,-57.40209086837897,-60.029468329782496,-62.656845791182825,-65.284223252579721,-67.943657005361317,-70.607670574622716,-73.2716841438809,-75.9356977131355,-78.599711282386849,-81.292752058893569,-83.989018385501026,-86.685284712104789,-89.381551038704671,-92.077817365301016,-94.801255134724144,-97.526896271754183,-100.25253740878055,-102.97817854580356,-105.70381968282288,-108.45490863445944,-111.2073371979513,-113.95976576143917,-116.71219432492262,-119.4646228884022,-122.2420731755987,-125.02016528802284,-127.79825740044257,-130.5763495128582,-133.35444162526949,0.27125121153468351,0.27125121153468351,0.27125121153468351,0.27125121153468351,0.27125121153468351,0.27125121153468351,0.27125121153468351,0.27125121153468351,0.27125121153468351,0.27125121153468351,0.27125121153468351,0.27125121153468351
DP 132,231.82774984882198,0.0033586179047933851,-297.91948754500544,-286.6753817077784,-275.43127587054971,-264.18717003331994,-252.94306419608802,-241.70621202414293,-230.75225554093254,-219.79829905772121,-208.84434257450778,-197.89038609129321,-186.96558033539566,-176.5946439092813,-166.2237074831655,-155.85277105704813,-145.48183463092948,-135.17241839914706,-125.62175898414823,-116.07109956914798,-106.5204401541462,-96.969780739143076,-87.5191778685993,-78.9690933556678,-70.41900884273501,-61.868924329800912,-53.318839816865427,-44.908338899362008,-37.47493370477369,-30.041528510184108,-22.6081233155932,-15.174718121001058,-7.9166274084071535,-1.6519964744278635,4.6126344595526643,10.877265393534429,17.141896327517422,23.203017634522354,28.30472542235945,33.4064332101978,38.508140998037284,43.609848785877972,48.489665244273496,52.481905898174652,56.474146552076917,60.466387205980396,64.458627859884928,68.22115868201908,71.1924571003028,74.163755518587635,77.1350539368736,80.1063523551607,82.850113983008612,84.911256636722868,86.972399290438133,89.033541944154621,91.094684597872217,92.938915334627993,94.211279925662126,95.483644516697368,96.7560091077336,98.028373698770949,99.10082517418563,99.706806414475537,100.31278765476642,100.91876889505836,101.52475013535141,101.95195215862546,102.00783830088604,102.0637244431479,102.11961058541073,102.17549672767461,102.07577733051058,101.68707201497722,101.29836669944476,100.9096613839134,100.52095606838313,100.00009958430523,99.258987821693992,98.517876059083775,97.7767642964746,97.035652533866539,96.184790758974444,95.16930137223288,94.153811985492425,93.138322598752907,92.12283321201447,91.018044245437011,89.792436214207484,88.566828182978952,87.3412201517515,86.115612120525142,84.818697437864017,83.434628683452871,82.05055992904272,80.666491174633649,79.282422420225714,77.842391440340265,76.340506360798443,74.838621281257687,73.336736201718111,71.834851122179543,67.113073071651115,65.524738703925166,63.9364043362004,62.31517170456452,60.664173384708221,59.013175064853044,57.362176744999147,55.711178425146365,54.035477288396471,52.33956433146961,50.643651374543971,48.947738417619505,47.251825460696281,45.537590804243521,43.809813720871453,42.082036637500742,40.354259554131183,38.626482470762937,36.885266296850112,35.13509051752844,33.384914738208067,31.634738958888995,29.884563179571295,28.124624222620803,26.358827211439085,24.5930302002587,22.827233189079724,21.061436177902088,19.288602107674834,17.511978749475258,15.735355391277169,13.958732033080478,12.182108674885173,10.400441279276379,8.6163452024295868,6.8322491255843056,5.048153048740506,3.2640569718982269,1.4763536473304544,-0.31289568925596706,-2.1021450258408669,-3.8913943624241596,-5.6806436990059472,-7.4724787699998583,-9.2652946705154928,-11.058110571029523,-12.85092647154187,-14.643742372052653,-16.438428439024161,-18.233737918384175,-20.029047397742417,-21.824356877098978,-23.619666356453809,-25.416352714703059,-27.213438828777608,-29.01052494285036,-30.80761105692137,-32.604697170990541,-34.402826784319942,-36.201217284791966,-37.999607785262157,-39.797998285730429,-41.596388786196826,-43.395604297557348,-45.194994820679476,-46.994385343799543,-48.793775866917692,-50.593166390033787,-52.393235343531515,-54.193424027580242,-55.993612711626845,-57.793801395671487,-59.59399007971389,-61.3948072433429,-63.195714196557191,-64.996621149769467,-66.797528102979385,-68.598435056187327,-70.399838374468359,-72.201296849635241,-74.002755324799622,-75.8042137999616,-77.605672275121208,-79.407777948611738,-81.20993610425387,-83.012094259893615,-84.814252415531257,-86.616410571166512,-88.419029208570009,-90.221672086434964,-92.024314964297361,-93.826957842157071,-95.629600720014153,-97.43281148512493,-99.236036816949962,-101.03926214877239,-102.84248748059201,-104.64571281240902,0.17289484192605034,0.17289484192605034,0.17289484192605034,0.17289484192605034,0.17289484192605034,0.17289484192605034,0.17289484192605034,0.17289484192605034,0.17289484192605034,0.17289484192605034,0.17289484192605034,0.17289484192605034
DP 133,91.76752469122124,0.0028006424141556654,-163.59791838207312,-158.72841035992408,-153.85890233777349,-148.98939431562124,-144.1198862934674,-139.25188800114367,-134.44276974306385,-129.63365148498241,-124.82453322689949,-120.01541496881497,-115.21253251580266,-110.52813153802214,-105.84373056024012,-101.15932958245681,-96.474928604672158,-91.804209363612713,-87.302233266466516,-82.800257169318954,-78.298281072169914,-73.796304975019439,-69.31782717226595,-65.0508362401843,-60.7838453081013,-56.516854376016965,-52.249863443931332,-48.017952803604963,-44.031606858265341,-40.045260912924512,-36.058914967582346,-32.072569022238973,-28.134022185036073,-24.46633997265344,-20.798657760269581,-17.130975547884479,-13.463293335498177,-9.8565721176631964,-6.53724173820569,-3.2179113587469939,0.10141902071287683,3.4207494001739138,6.6661792250819234,9.61600333919203,12.565827453303294,15.515651567415714,18.465475681529252,21.329293557019319,23.896864108622161,26.464434660226114,29.032005211831205,31.599575763437425,34.070383522742738,36.250899246691837,38.431414970642081,40.611930694593383,42.792446418545822,44.867196711555337,46.663107233143748,48.459017754733267,50.254928276323845,52.050838797915553,53.734010047490749,55.154119443611819,56.574228839733955,57.994338235857143,59.414447631981467,60.717019321867966,61.7754708188607,62.833922315854579,63.892373812849492,64.950825309845527,65.88914525338555,66.6043604962299,67.319575739075276,68.034790981921745,68.7500062247693,69.344617908834408,69.738220621706191,70.131823334579039,70.525426047452953,70.919028760327976,71.1935177438905,71.289333318793467,71.38514889369759,71.480964468602792,71.576780043509075,71.556702285339924,71.379825087276174,71.202947889213547,71.026070691152114,70.8491934930917,70.561104433550824,70.137087429563039,69.7130704255764,69.289053421590893,68.865036417606589,68.335658057975067,67.689825577076434,67.0439930961789,66.398160615282649,65.752328134387483,63.321647791135952,62.478541777089617,61.635435763044491,60.701010407652674,59.683961146927594,58.666911886203721,57.6498626254811,56.632813364759649,55.532092500064664,54.3629116123493,53.193730724635223,52.024549836922496,50.855368949211091,49.610265909472467,48.309045248454062,47.007824587437064,45.706603926421387,44.405383265407117,43.035896711673985,41.6208984873676,40.205900263062667,38.790902038759079,37.375903814456905,35.900043924986754,34.387666115982604,32.875288306979918,31.362910497978771,29.850532688979058,28.284323034434649,26.689126218713731,25.093929402994473,23.498732587276692,21.903535771560456,20.261072407887998,18.595850414802708,16.930628421719078,15.265406428637073,13.600184435556715,11.893736779401081,10.169620425258003,8.4455040711166038,6.7213877169769622,4.9972713628389833,3.2374106105430451,1.4639911722436609,-0.30942826605395624,-2.0828477043497298,-3.8562671426437629,-5.660523105834895,-7.4750582992840142,-9.2895934927311856,-11.104128686176518,-12.918663879619917,-14.759700024699757,-16.608430317659437,-18.457160610617159,-20.305890903572884,-22.154621196526627,-24.026075521480525,-25.903211122920286,-27.78034672435804,-29.657482325793669,-31.53461792722722,-33.431240510399277,-35.3319969190208,-37.232753327640111,-39.13350973625726,-41.034266144872163,-42.951776781321811,-44.872244232520138,-46.792711683716078,-48.713179134909772,-50.633646586101065,-52.568673053699882,-54.505779538055769,-56.442886022409326,-58.379992506760381,-60.3170989911091,-62.266894139464839,-64.218099272635243,-66.1693044058029,-68.120509538967966,-70.071714672130312,-72.034495918798925,-73.998215887553471,-75.961935856305388,-77.925655825054889,-79.889375793801833,-81.8635718534743,-83.83831939058318,-85.8130669276892,-87.787814464792191,-89.762562001892377,-91.747482118727078,-93.732663169554471,-95.717844220378865,-97.703025271200161,-99.688206322018374,0.19281991712211852,0.19281991712211852,0.19281991712211852,0.19281991712211852,0.19281991712211852,0.19281991712211852,0.19281991712211852,0.19281991712211852,0.19281991712211852,0.19281991712211852,0.19281991712211852,0.19281991712211852
DP 134,61.098270970216333,0.0019735076302831319,-88.813338986946874,-86.377961444058727,-83.9425839011696,-81.507206358279376,-79.071828815388031,-76.637025822779535,-74.224630508472686,-71.81223519416487,-69.399839879855861,-66.987444565545871,-64.577446577313381,-62.212998237769185,-59.848549898224114,-57.484101558678034,-55.119653219131045,-52.760512150024049,-50.466828085220754,-48.173144020416444,-45.879459955611196,-43.585775890804939,-41.301325721337491,-39.099981482726037,-36.8986372441137,-34.697293005500512,-32.495948766886379,-30.308603411135191,-28.219251293982239,-26.129899176828424,-24.040547059673703,-21.951194942518129,-19.881276943032692,-17.921486834972065,-15.961696726910603,-14.001906618848304,-12.042116510785165,-10.107653332123691,-8.2925899028908674,-6.4775264736572273,-4.6624630444227675,-2.8473996151875,-1.0638026848198998,0.593926762949936,2.2516562107205718,3.9093856584920075,5.5671151062642243,7.187202953980047,8.6776348201987012,10.168066686418149,11.658498552638378,13.148930418859377,14.595717036419497,15.911566257836103,17.227415479253494,18.543264700671642,19.859113922090575,21.125665051697162,22.262246790265976,23.39882852883558,24.535410267405936,25.671992005977049,26.754137491434641,27.709263337834511,28.66438918423512,29.619515030636535,30.574640877038668,31.470833434242493,32.244624369128871,33.018415304016081,33.792206238904015,34.565997173792731,35.277100440957042,35.871782060830284,36.466463680704308,37.061145300579071,37.655826920454636,38.184871060179951,38.60451774522037,39.024164430261635,39.443811115303667,39.863457800346445,40.215354896074651,40.465626006888982,40.715897117704138,40.966168228520068,41.216439339336787,41.397689247578072,41.4855559937557,41.573422739934159,41.661289486113375,41.749156232293466,41.767546359242132,41.701019158906405,41.63449195857153,41.567964758237451,41.501437557904254,41.365746005833245,41.153608267632983,40.94147052943358,40.729332791235031,40.517195053037355,39.540030649754407,39.191592178418759,38.843153707083964,38.428203796781851,37.953075672798114,37.477947548815273,37.002819424833355,36.527691300852347,35.9882234992751,35.396113037581706,34.804002575889221,34.211892114197738,33.619781652507221,32.965944155365932,32.266481312977405,31.567018470589939,30.867555628203423,30.168092785817972,29.409859653918179,28.612445403170504,27.81503115242386,27.017616901678284,26.220202650933757,25.367226090922234,24.4809113050613,23.594596519201474,22.7082817333428,21.821966947485205,20.883458309387645,19.916844530327563,18.950230751268702,17.983616972211014,17.017003193154505,16.001641134929876,14.962807000404286,13.923972865879948,12.885138731356852,11.846304596835,10.76216739911259,9.6586139911487727,8.5550605831862274,7.4515071752250108,6.34795376726506,5.2024720351122928,4.0410859092169016,2.8796997833228577,1.7183136574302114,0.55692753153889452,-0.643143383259227,-1.8561097152290293,-3.0690760471973522,-4.2820423791642632,-5.4950087111297137,-6.7436032329888516,-8.0025418574114457,-9.2614804818325229,-10.520419106252081,-11.779357730670119,-13.071101854717554,-14.371047741272442,-15.670993627825743,-16.970939514377431,-18.270885400927547,-19.601091180797678,-20.937716072606808,-22.274340964414225,-23.61096585621998,-24.947590748024059,-26.312235477955063,-27.681825196785308,-29.051414915613709,-30.421004634440393,-31.790594353265263,-33.186348672783794,-34.585841075040477,-35.985333477295406,-37.3848258795484,-38.784318281799578,-40.208383985144529,-41.635180313352947,-43.061976641559326,-44.488772969763687,-45.915569297966023,-47.366003037692835,-48.818353565837072,-50.270704093979269,-51.723054622119584,-53.175405150257966,-54.650547066476861,-56.126888756199477,-57.603230445919891,-59.079572135638038,-60.555913825353862,-62.054965036842454,-63.5545987639156,-65.054232490986379,-66.553866218054893,-68.0534999451211,0.1475210484825894,0.1475210484825894,0.1475210484825894,0.1475210484825894,0.1475210484825894,0.1475210484825894,0.1475210484825894,0.1475210484825894,0.1475210484825894,0.1475210484825894,0.1475210484825894,0.1475210484825894
DP 135,186.48096475380908,0.0021993549616651661,-180.28979873210946,-173.8956093150702,-167.50141989802978,-161.10723048098828,-154.71304106394555,-148.32228560770582,-142.06545592115589,-135.80862623460493,-129.55179654805281,-123.29496686149957,-117.05204748151392,-111.07342655597158,-105.09480563042816,-99.116184704883707,-93.137563779338322,-87.188668128963585,-81.606387951931737,-76.024107774898866,-70.441827597865,-64.85954742083014,-59.326456186221648,-54.236070082856934,-49.145683979491338,-44.055297876124868,-38.964911772757432,-33.944647635992261,-29.415242567856314,-24.885837499719468,-20.35643243158173,-15.827027363443118,-11.38800535409619,-7.4611597066471846,-3.5343140591973152,0.39253158825341056,4.3193772357049856,8.1381347714140784,11.447328227983069,14.756521684552887,18.06571514112353,21.374908597694979,24.562252241898062,27.262190877933808,29.962129513970325,32.662068150007649,35.362006786045804,37.931095904009595,40.049475629472738,42.16785535493667,44.2862350804014,46.404614805866913,48.388144409128309,49.967118547301567,51.546092685475593,53.12506682365035,54.704040961825854,56.1489077837804,57.240214344433177,58.331520905086762,59.422827465741015,60.514134026396142,61.476189156229026,62.136653541812635,62.797117927396982,63.457582312982069,64.118046698567881,64.657372952958113,64.945101104060939,65.2328292551645,65.520557406268722,65.80828555737375,65.985299343921071,65.956697749190425,65.928096154460547,65.899494559731423,65.870892965002966,65.743385285297251,65.451031637638764,65.158677989981015,64.866324342324,64.57397069466775,64.195078860066914,63.686377700127785,63.177676540189424,62.668975380251766,62.16027422031479,61.577287291937019,60.893794436474735,60.210301581013219,59.5268087255525,58.843315870092439,58.097164969491821,57.274430697606249,56.451696425721522,55.628962153837527,54.806227881954293,53.931493586545521,52.999284546166521,52.0670755057883,51.134866465410845,50.202657425034232,47.193470260157127,46.176237041552923,45.159003822949437,44.107496366143366,43.024978267222977,41.94246016830337,40.85994206938458,39.777423970466572,38.667627083082934,37.535510718150896,36.403394353219667,35.271277988289327,34.139161623359833,32.985591863397211,31.816164893575738,30.646737923755207,29.477310953935522,28.307883984116735,27.121769527896191,25.924529817854886,24.727290107814515,23.530050397775042,22.332810687736522,21.12272023587639,19.904919144577143,18.687118053278841,17.469316961981555,16.251515870685171,15.023907188457958,13.79101735311081,12.558127517764706,11.325237682419568,10.092347847075366,8.8520312027621735,7.6081385834659025,6.364245964170717,5.1203533448765688,3.8764607255834931,2.6269796279278128,1.3751033926561451,0.12322715738555273,-1.128649077883906,-2.3805253131523059,-3.6365878500381883,-4.8942383490118866,-6.1518888479844547,-7.40953934695584,-8.6671898459261136,-9.92797026789905,-11.1897940369846,-12.451617806068908,-13.713441575152029,-14.975265344233918,-16.239432674176587,-17.504280421337995,-18.769128168498167,-20.033975915657059,-21.298823662814677,-22.565437126765087,-23.832492040774806,-25.099546954783243,-26.366601868790323,-27.633656782796063,-28.902059682080854,-30.170748533079848,-31.439437384077394,-32.708126235073564,-33.976815086068378,-35.24654866122782,-36.516466611091396,-37.786384560953465,-39.056302510814113,-40.326220460673213,-41.596999457661148,-42.867901470681822,-44.138803483700961,-45.409705496718544,-46.680607509734621,-47.9521685625201,-49.223802848866526,-50.495437135211318,-51.767071421554355,-53.038705707895765,-54.3110311813872,-55.583412704141494,-56.8557942268941,-58.128175749645159,-59.400557272394586,-60.673446303671639,-61.94636205097148,-63.219277798269488,-64.492193545565669,-65.765109292859933,-67.038583148885209,-68.31207132079949,-69.585559492711781,-70.859047664622224,-72.132535836530664,0.12233745900043494,0.12233745900043494,0.12233745900043494,0.12233745900043494,0.12233745900043494,0.12233745900043494,0.12233745900043494,0.12233745900043494,0.12233745900043494,0.12233745900043494,0.12233745900043494,0.12233745900043494
DP 136,91.848891755491,0.0032934134661421659,-192.48156748047725,-186.75124330530704,-181.02091913013518,-175.29059495496134,-169.56027077978584,-163.83172397403365,-158.17249524786425,-152.5132665216932,-146.85403779552033,-141.19480906934555,-135.54292334214961,-130.0305559837193,-124.51818862528751,-119.00582126685401,-113.49345390841907,-107.99719613982573,-102.6996253428955,-97.402054545963665,-92.104483749030152,-86.806912952094834,-81.537009621847545,-76.516116106966876,-71.495222592084772,-66.474329077201233,-61.453435562316024,-56.473844581688446,-51.783374464044229,-47.092904346398541,-42.402434228751325,-37.711964111102624,-33.077769770365322,-28.7624750449674,-24.447180319567998,-20.131885594167162,-15.816590868764896,-11.573063069899725,-7.6678689438538106,-3.7626748178064955,0.14251930824219838,4.0477134342922634,7.865913602963122,11.336133830729132,14.806354058496487,18.276574286265195,21.746794514035226,25.115776490724919,28.136044682954495,31.156312875185336,34.176581067417537,37.196849259651032,40.103227149950435,42.667929828428868,45.232632506908594,47.797335185389578,50.362037863871862,52.802264260528425,54.914321635773739,57.026379011020438,59.138436386268339,61.250493761517525,63.229880463465854,64.899698080983384,66.5695156985023,68.23933331602241,69.909150933543785,71.440664028409216,72.684925246157675,73.929186463907456,75.173447681658473,76.417708899410769,77.520627162289742,78.361047549005079,79.201467935721681,80.04188832243949,80.882308709158664,81.580847260075515,82.042912508433517,82.504977756792968,82.9670430051536,83.429108253515437,83.751059848738834,83.862837653329478,83.974615457921374,84.086393262514548,84.198171067109,84.173639769166329,83.964687242122707,83.755734715080408,83.546782188039344,83.3378296609997,82.9980893088932,82.498494423436014,81.998899537980265,81.49930465252578,80.99970976707263,80.376223915742088,79.615803478902379,78.855383042064219,78.0949626052272,77.334542168391764,74.473434103538452,73.4810745265078,72.488714949478577,71.389003609222542,70.192162550426758,68.99532149163241,67.7984804328396,66.601639374048275,65.3064504207231,63.930793318061504,62.555136215401305,61.179479112742705,59.803822010085625,58.338938355454907,56.808103173923691,55.277267992394165,53.746432810866104,52.21559762933979,50.604544875053811,48.940012475219937,47.275480075387648,45.610947675557078,43.946415275728185,42.210376327570117,40.431432368994933,38.652488410421512,36.8735444518499,35.094600493279941,33.252418676497122,31.376184785706453,29.499950894917646,27.623717004130679,25.747483113345467,23.815732188867486,21.857250063348882,19.898767937832265,17.940285812317537,15.981803686804751,13.974907247970247,11.947261163974483,9.9196150799806837,7.8919689959889618,5.8643229119991824,3.7947061690116923,1.7091689737006626,-0.37636822160829364,-2.4619054169150818,-4.5474426122198226,-6.66918190203193,-8.8029890129264778,-10.936796123818736,-13.070603234708823,-15.204410345596658,-17.369324574762384,-19.543270282171978,-21.717215989579248,-23.891161696984192,-26.065107404386808,-28.265722331364454,-30.473004878334311,-32.680287425301778,-34.887569972266746,-37.094852519229256,-39.325001229789976,-41.560000600667536,-43.794999971542467,-46.029999342414825,-48.264998713284555,-50.519654317437904,-52.777778887218872,-55.035903456996991,-57.2940280267725,-59.552152596545227,-61.827354974545564,-64.1049972239146,-66.382639473280776,-68.6602817226441,-70.9379239720046,-73.230447218962823,-75.524624066380952,-77.818800913795982,-80.112977761207816,-82.407154608616665,-84.714906232039908,-87.023758651688965,-89.3326110713349,-91.641463490977912,-93.950315910618016,-96.271450931110621,-98.59323252648305,-100.91501412185201,-103.23679571721755,-105.55857731257967,-107.89228491352524,-110.22629842509851,-112.56031193666836,-114.89432544823464,-117.22833895979723,0.2266970352842185,0.2266970352842185,0.2266970352842185,0.2266970352842185,0.2266970352842185,0.2266970352842185,0.2266970352842185,0.2266970352842185,0.2266970352842185,0.2266970352842185,0.2266970352842185,0.2266970352842185
DP 137,61.79958518791549,0.0039208591473567558,-177.86431617912052,-172.97654218909065,-168.08876819905896,-163.20099420902491,-158.31322021898865,-153.42660751540024,-148.58528542241686,-143.74396332943144,-138.90264123644386,-134.06131914345417,-129.22484197030892,-124.48041919014226,-119.73599640997391,-114.99157362980347,-110.24715084963123,-105.51345087764791,-100.91200022472667,-96.31054957180335,-91.709098918878155,-87.107648265951013,-82.5248499286485,-78.109924195023083,-73.694998461395841,-69.2800727277668,-64.865146994136055,-60.478486697250261,-56.289686594936377,-52.100886492620752,-47.912086390303358,-43.723286287984259,-39.573708574402083,-35.6463935352346,-31.719078496065453,-27.7917634568946,-23.8644484177221,-19.988225168278269,-16.352865972850459,-12.717506777421024,-9.0821475819899522,-5.4467883865572659,-1.8748696082892911,1.4432845030847576,4.7614386144603982,8.0795927258376317,11.397746837216422,14.640061065256875,17.621145842473545,20.602230619691767,23.583315396911555,26.56440017413286,29.457607703161628,32.087180165106666,34.716752627053253,37.346325089001404,39.975897550951061,42.506290483596459,44.77520670277891,47.044122921963,49.313039141148522,51.581955360335591,53.741443069087019,55.645594139051433,57.549745209017388,59.453896278984843,61.358047348953853,63.143836383243851,64.683793131826178,66.223749880410054,67.76370662899545,69.303663377582311,70.71783525115724,71.898403245615384,73.078971240075063,74.2595392345363,75.44010722899904,76.489101604031688,77.318803296950719,78.148504989871228,78.978206682793385,79.807908375717048,80.501946513354639,80.992486112295154,81.483025711237246,81.973565310180888,82.464104909126192,82.816585609569444,82.9822776709846,83.147969732401322,83.313661793819591,83.4793538552396,83.50623484102131,83.363454929783671,83.220675018547666,83.077895107313381,82.935115196080673,82.654313003018615,82.220957120351628,81.7876012376863,81.354245355022755,80.920889472360912,78.941663656924263,78.236643993730482,77.531624330538477,76.694210055438575,75.737007795453792,74.779805535470871,73.822603275489769,72.865401015510486,71.7802962808065,70.590541868695141,69.400787456585633,68.211033044478029,67.021278632372429,65.708983087696211,64.306111648038339,62.903240208382549,61.500368768728741,60.097497329076838,58.578119462912738,56.981068810355374,55.384018157800043,53.786967505246864,52.1899168526957,50.482879075690775,48.709847360637845,46.936815645587146,45.163783930538706,43.390752215492427,41.5145577087842,39.582812506403663,37.651067304025588,35.719322101649858,33.787576899276438,31.759628859849986,29.685359588777771,27.611090317708015,25.536821046640743,23.4625517755759,21.299021854525265,19.097236163909162,16.895450473295607,14.693664782684662,12.491879092076237,10.207619941493554,7.8920766791320593,5.5765334167732252,3.26099015441716,0.94544689206373478,-1.446058888216478,-3.862886465144884,-6.2797140420703563,-8.6965416189930345,-11.11336919591281,-13.600033216486947,-16.106973185347588,-18.613913154205228,-21.120853123059902,-23.627793091911517,-26.198919546882969,-28.786093381753744,-31.373267216621432,-33.960441051485894,-36.547614886347233,-39.193884559714569,-41.852690391041357,-44.511496222364748,-47.170302053684885,-49.829107885001648,-52.542533982071404,-55.265599556949482,-57.988665131823993,-60.711730706695086,-63.434796281562519,-66.208774260117025,-68.990025989171656,-71.771277718222692,-74.552529447269933,-77.333781176313622,-80.1627655982036,-82.997054153933391,-85.831342709659211,-88.665631265380725,-91.499919821098459,-94.380062118464451,-97.26392275532767,-100.14778339218691,-103.03164402904241,-105.91550466589408,-108.84351931864799,-111.7738583062854,-114.70419729391844,-117.63453628154706,-120.56487526917113,-123.53918161878507,-126.51461576289101,-129.49004990699231,-132.46548405108911,-135.44091819518107,0.29256983191132058,0.29256983191132058,0.29256983191132058,0.29256983191132058,0.29256983191132058,0.29256983191132058,0.29256983191132058,0.29256983191132058,0.29256983191132058,0.29256983191132058,0.29256983191132058,0.29256983191132058
DP 138,159.03833370729069,0.00112747130480979,-86.6535853782573,-83.709865948047209,-80.766146517836532,-77.822427087625286,-74.878707657413429,-71.936375913293389,-69.0481644514412,-66.159952989588348,-63.2717415277349,-60.383530065880912,-57.500968724191452,-54.725760733751805,-51.950552743311604,-49.175344752870878,-46.400136762429661,-43.63709437618531,-41.024095974918978,-38.411097573652157,-35.798099172384745,-33.185100771116829,-30.592447486146735,-28.182902170906512,-25.773356855665835,-23.363811540424678,-20.954266225183012,-18.574111201163696,-16.399690438107303,-14.225269675050427,-12.050848911993077,-9.876428148935263,-7.7404950183029673,-5.8226608966812039,-3.9048267750589822,-1.9869926534363078,-0.069158531813179935,1.8017971899905838,3.4517522092151252,5.1017072284401133,6.7516622476655339,8.4016172668914013,9.997625355302878,11.377843170892934,12.758060986483413,14.138278802074307,15.518496617665635,16.839451084569895,17.956273749711261,19.073096414853048,20.189919079995224,21.306741745137849,22.360963575372089,23.227380534039739,24.093797492707797,24.960214451376238,25.826631410045117,26.629123489201877,27.263084143371216,27.897044797540939,28.531005451711078,29.164966105881582,29.735561566974141,30.158302914434646,30.581044261895585,31.003785609356864,31.42652695681857,31.78809916137411,32.02262598242406,32.25715280347444,32.49167962452519,32.72620644557631,32.903073176873164,32.972855327170052,33.042637477467345,33.11241962776505,33.182201778063124,33.198792201572275,33.126728406368557,33.054664611165279,32.982600815962364,32.910537020759847,32.790361679527692,32.598017882361745,32.405674085196246,32.2133302880311,32.020986490866342,31.785905786982344,31.493003611762649,31.200101436543413,30.907199261324561,30.614297086106092,30.284060179482807,29.908191150271279,29.532322121060144,29.156453091849432,28.780584062639168,28.372598618157916,27.929115444023761,27.485632269889994,27.042149095756677,26.598665921623766,25.132040694011195,24.634087134822419,24.136133575634052,23.615389559499466,23.074025195808066,22.532660832117084,21.991296468426558,21.449932104736451,20.889731035748675,20.314117793250837,19.73850455075344,19.162891308256498,18.587278065760021,17.996274067601988,17.393894040520056,16.791514013438661,16.189133986357692,15.586753959277225,14.971932437590178,14.348816390168306,13.725700342746928,13.102584295326041,12.479468247905659,11.846393805572337,11.207344175686943,10.568294545802063,9.92924491591773,9.2901952860338746,8.6432467404148046,7.99204481761327,7.34084289481228,6.6896409720118228,6.038439049211882,5.3810230008154551,4.7206148790038567,4.0602067571928364,3.3997986353823766,2.7393905135724905,2.0741288725637412,1.4067870863615852,0.73944530016001,0.072103513959046392,-0.59523827224134462,-1.2663478938452537,-1.9388867435176766,-2.61142559318949,-3.2839644428606629,-3.956503292531238,-4.6319537788993346,-5.3083748475276549,-5.9847959161552948,-6.6612169847823077,-7.3376380534086447,-8.01630313072591,-8.69561972180534,-9.3749363128840848,-10.05425290396215,-10.733569495039525,-11.414615532728043,-12.096093952502434,-12.777572372276122,-13.459050792049082,-14.140529211821303,-14.823345918980387,-15.506446520614427,-16.189547122247667,-16.872647723880181,-17.555748325511939,-18.239890615167045,-18.92421674370345,-19.608542872239028,-20.292869000773841,-20.977195129307816,-21.662359667058556,-22.347643986610677,-23.032928306161981,-23.718212625712397,-24.403496945262042,-25.089430741759276,-25.775436709181996,-26.461442676603784,-27.147448644024706,-27.833454611444662,-28.520070300852947,-29.20673543340882,-29.893400565963859,-30.580065698518045,-31.266730831071325,-31.953866469131246,-32.641026875319248,-33.328187281506253,-34.015347687692227,-34.702508093877213,-35.390145910870849,-36.077795973794458,-36.765446036717059,-37.453096099638579,-38.140746162559083,0.066170721410427888,0.066170721410427888,0.066170721410427888,0.066170721410427888,0.066170721410427888,0.066170721410427888,0.066170721410427888,0.066170721410427888,0.066170721410427888,0.066170721410427888,0.066170721410427888,0.066170721410427888
DP 139,142.77315989944898,0.0048210912812373056,-353.43409789303195,-341.75886289253469,-330.08362789203437,-318.40839289153195,-306.73315789102651,-295.06297202790097,-283.58970443168687,-272.11643683546964,-260.64316923925031,-249.16990164302828,-237.71725535506391,-226.65641782234124,-215.59558028961652,-204.53474275688919,-193.47390522415992,-182.45767098560322,-171.99154966314853,-161.52542834069141,-151.05930701823186,-140.59318569577007,-130.20212981450263,-120.48666999927964,-110.77121018405441,-101.05575036882713,-91.340290553597725,-81.734126838205029,-72.893044086317786,-64.051961334428455,-55.210878582537056,-46.369795830643632,-37.673205525358583,-29.795414855926342,-21.917624186492105,-14.039833517055873,-6.1620428476176716,1.5378133832216641,8.3988262214758915,15.259839059732059,22.120851897990143,28.981864736250124,35.635561729327286,41.459985543802816,47.284409358280264,53.108833172759518,58.933256987240618,64.526798572981662,69.325069449390156,74.123340325800527,78.921611202212759,83.719882078626753,88.270609000332954,92.07869469865831,95.886780396985515,99.694866095314424,103.50295179364515,107.05417456338502,109.9282044199384,112.80223427649342,115.67626413305024,118.55029398960883,121.1653356495882,123.17606335759605,125.18679106560549,127.19751877361674,129.20824648162966,130.96442319920584,132.19190968727528,133.41939617534644,134.64688266341909,135.87436915149368,136.8573420499342,137.38621167856812,137.91508130720388,138.44395093584134,138.97282056448051,139.27165342105616,139.18708585930315,139.10251829755202,139.01795073580243,138.93338317405471,138.63646967854396,138.0210322645946,137.40559485064716,136.79015743670124,136.17472002275736,135.36665545679807,134.29797340109272,133.22929134538913,132.16060928968722,131.09192723398706,129.85129398709321,128.40049456140326,126.94969513571488,125.49889571002845,124.04809628434373,122.44606972008513,120.6768943617909,118.90771900349831,117.1385436452077,115.36936828691883,109.4059650244013,107.37443829510494,105.34291156581055,103.19905856660186,100.95357501514678,98.708091463693677,96.46260791224249,94.2171243607933,91.876601143993611,89.458316567679574,87.040031991367627,84.6217474150576,82.203462838749559,79.705659110736718,77.1490790503793,74.5924989900242,72.035918929671013,69.479338869320031,66.8569156982492,64.190596082772174,61.524276467297376,58.857956851824653,56.191637236354225,53.471324373413154,50.718614745430628,47.965905117450291,45.213195489472369,42.460485861496636,39.663895417811929,36.843676204490706,34.023456991171884,31.203237777855428,28.383018564541214,25.527429266026129,22.654809431198011,19.782189596372486,16.909569761549424,14.036949926728926,11.136030243033572,8.2229816705461047,5.3099330980611938,2.3968845255789852,-0.51616404690069184,-3.4517089757434247,-6.3957872985676394,-9.3398656213891638,-12.283943944207847,-15.228022267023894,-18.1898885580365,-21.157684395957784,-24.125480233876083,-27.0932760717916,-30.061071909704154,-33.042878500154252,-36.02875289931449,-39.014627298471773,-42.000501697625943,-44.986376096777114,-47.983265724795196,-50.982909290173851,-53.982552855549436,-56.982196420921753,-59.981839986290957,-62.990154557785637,-66.000308532951991,-69.010462508114884,-72.02061648327448,-75.03077045843068,-78.047771453166533,-81.0659808216122,-84.084190190054244,-87.102399558492849,-90.120608926927758,-93.144350429360927,-96.168882296408029,-99.1934141634517,-102.21794603049156,-105.24247789752768,-108.27137823561486,-111.30076400524995,-114.33014977488106,-117.35953554450791,-120.38892131413091,-123.42225821332315,-126.45591551474364,-129.48957281616012,-132.52323011757292,-135.55688741898186,-138.59371082314189,-141.63070089578588,-144.66769096842566,-147.70468104106098,-150.74167111369172,-153.78177043639013,-156.82194951358741,-159.86212859077986,-162.90230766796793,-165.94248674515134,0.29293882321872411,0.29293882321872411,0.29293882321872411,0.29293882321872411,0.29293882321872411,0.29293882321872411,0.29293882321872411,0.29293882321872411,0.29293882321872411,0.29293882321872411,0.29293882321872411,0.29293882321872411
DP 140,115.32549588297326,0.0016791711251381276,-111.088170228078,-107.60595207860274,-104.1237339291264,-100.64151577964928,-97.159297630171224,-93.678356139023663,-90.247204805487115,-86.816053471949672,-83.384902138411221,-79.953750804871973,-76.527843366421223,-73.201570925989088,-69.875298485556129,-66.549026045122432,-63.2227536046879,-59.907910533308026,-56.734031120702362,-53.56015170809593,-50.386272295488681,-47.212392882880522,-44.057957591450432,-41.078521228511057,-38.099084865570909,-35.119648502630049,-32.14021213968838,-29.189468683623062,-26.439577745366204,-23.689686807108636,-20.939795868850297,-18.189904930591236,-15.478564694285453,-12.98568086495642,-10.492797035626673,-7.9999132062962017,-5.5070293769650185,-3.0625161448289826,-0.846038340641397,1.3704394635468911,3.5869172677358669,5.8033950719255349,7.9623090696708321,9.8909651211383753,11.819621172606594,13.748277224075501,15.676933275545043,17.539959502920759,19.176924690235605,20.8138898775511,22.45085506486728,24.087820252184066,25.6525926669089,27.000784034359512,28.348975401810758,29.697166769262644,31.045358136715187,32.3165405135902,33.384696541132143,34.452852568674743,35.521008596217939,36.589164623761789,37.577349863399604,38.378934078279634,39.180518293160269,39.982102508041578,40.783686722923456,41.504178673747568,42.0562458715491,42.608313069351254,43.160380267154025,43.712447464957421,44.184021883994532,44.506107540103208,44.828193196212531,45.150278852322415,45.472364508433017,45.716083625593157,45.829189869224294,45.942296112856155,46.055402356488663,46.168508600121662,46.206652804695231,46.132352179305478,46.058051553916393,45.983750928527947,45.90945030314014,45.764597315297159,45.524289562088185,45.283981808879844,45.043674055672149,44.803366302465093,44.497641570202894,44.111961378365379,43.72628118652851,43.340600994692309,42.954920802856726,42.509420172822274,41.997801025979591,41.486181879137625,40.97456273229632,40.462943585455733,38.658072372111562,38.038447511968663,37.418822651826446,36.75102993266114,36.039655902402764,35.328281872145091,34.616907841888121,33.905533811631884,33.151675295287461,32.363056014747357,31.574436734207946,30.785817453669313,29.997198173131416,29.171498715244489,28.318391560211268,27.465284405178824,26.612177250147116,25.759070095116229,24.873916001545417,23.967396777429681,23.060877553314725,22.154358329200583,21.247839105087266,20.313876026090252,19.363446219119684,18.413016412149961,17.462586605181091,16.512156798213059,15.538425425498222,14.552146716998585,13.565868008499859,12.579589300001984,11.593310591504951,10.587403695602209,9.5720459160931544,8.55668813658504,7.5413303570778405,6.5259725775715864,5.4942004487197043,4.4553933770771881,3.4165863054356191,2.3777792337950507,1.3389721621554183,0.28652765277535491,-0.771089855612544,-1.8287073639994422,-2.8863248723852988,-3.9439423807701659,-5.01282684019373,-6.0854670919580727,-7.158107343721313,-8.23074759548351,-9.3033878472446148,-10.385295308845876,-11.469893363747845,-12.554491418648706,-13.639089473548438,-14.72368752844703,-15.815886173494865,-16.909985055881037,-18.004083938266106,-19.098182820649949,-20.192281703032613,-21.292611540144303,-22.394263166313468,-23.495914792481376,-24.597566418648064,-25.699218044813492,-26.805986847584883,-27.91365873842458,-29.021330629262955,-30.129002520100034,-31.236674410935795,-32.348606483547307,-33.461147199574349,-34.57368791560009,-35.68622863162441,-36.798769347647415,-37.914837588601834,-39.031297813816778,-40.147758039030251,-41.264218264242153,-42.380678489452606,-43.500284730767419,-44.620146086615392,-45.740007442461867,-46.859868798306969,-47.97973015415058,-49.102286789003365,-50.224985307461345,-51.347683825917663,-52.470382344372346,-53.59308086282531,-54.718374188163814,-55.843734072165766,-56.969093956166013,-58.094453840164533,-59.219813724161362,0.10878899337311003,0.10878899337311003,0.10878899337311003,0.10878899337311003,0.10878899337311003,0.10878899337311003,0.10878899337311003,0.10878899337311003,0.10878899337311003,0.10878899337311003,0.10878899337311003,0.10878899337311003
DP 141,182.96583261594765,0.0031814855358486016,-258.87832871961285,-249.7450613380264,-240.61179395643811,-231.47852657484822,-222.34525919325662,-213.21681994855791,-204.27667986818986,-195.33653978782036,-186.39639970744935,-177.45625962707672,-168.535690430215,-159.98697171981914,-151.438253009422,-142.88953429902358,-134.34081558862351,-125.8339591210399,-117.84340892403614,-109.85285872703099,-101.86230853002434,-93.871758333016174,-85.950573664527113,-78.653685309235343,-71.356796953942208,-64.059908598647738,-56.763020243351946,-49.565186129432547,-43.060739195333838,-36.556292261233864,-30.051845327132558,-23.54739839302999,-17.170882608127911,-11.519318063501595,-5.8677535188740269,-0.21618897424522351,5.43537557038482,10.933589165134578,15.708854284781113,20.48411940442886,25.259384524077806,30.034649643727938,34.636587376425958,38.545207369761393,42.453827363097929,46.36244735643568,50.27106734977454,53.99301823425035,57.071989901893865,60.150961569538573,63.229933237184284,66.308904904831209,69.194898654127726,71.501951352174359,73.809004050222029,76.116056748270893,78.423109446320808,80.5376022763575,82.144430654003088,83.751259031649752,85.3580874092975,86.964915786946349,88.385496462264,89.371493297360431,90.357490132457968,91.3434869675565,92.329483802656171,93.140271062349171,93.587156415887208,94.034041769426437,94.480927122966634,94.9278124765079,95.213939393718093,95.20151058772197,95.189081781726927,95.176652975733077,95.164224169740109,95.0076000792368,94.610646880015921,94.213693680796,93.816740481577256,93.419787282359522,92.896141893323289,92.182455225787663,91.4687685582531,90.755081890719524,90.041395223187109,89.218484976069348,88.247799221527927,87.277113466987615,86.306427712448269,85.335741957910059,84.272522360076223,83.0962038990138,81.9198854379525,80.743566976892353,79.567248515833271,78.313789497513113,76.975068328238962,75.636347158965918,74.297625989693984,72.9589048204233,68.625964516034216,67.160532388599677,65.695100261166317,64.178350780537784,62.615170389766618,61.051989998996625,59.488809608227882,57.925629217460276,56.321412295847296,54.683619325576011,53.045826355305962,51.408033385037044,49.770240414769425,48.100020002725046,46.405830948484585,44.711641894245496,43.017452840007579,41.323263785771083,39.603729695425876,37.86729851506864,36.130867334712725,34.394436154358132,32.658004974004939,30.901962138621432,29.134152013625979,27.366341888631869,25.598531763639237,23.830721638647912,22.047872429462888,20.256925033172497,18.465977636883572,16.675030240596097,14.884082844309996,13.081693520158964,11.273794959406587,9.4658963986557758,7.65799783790648,5.8500992771587494,4.0335519203025578,2.2132978197589743,0.39304371921695419,-1.4272103813234163,-3.247464481862242,-5.07422494026886,-6.9034534123467548,-8.7326818844230072,-10.561910356497545,-12.391138828570462,-14.225250259088298,-16.060989403958985,-17.896728548827856,-19.732467693695014,-21.568206838560364,-23.407613367265917,-25.248084665039183,-27.088555962810592,-28.92902726058017,-30.7694985583479,-32.612738556728772,-34.456670762973907,-36.300602969217181,-38.144535175458444,-39.988467381697788,-41.834514223298413,-43.681009648141043,-45.527505072981576,-47.374000497820077,-49.22049592265661,-51.068628519452524,-52.917050047150965,-54.765471574847268,-56.613893102541439,-58.4623146302334,-60.312078380989888,-62.162033892395748,-64.011989403799419,-65.861944915200766,-67.711900426599954,-69.562883147878878,-71.4139800143748,-73.265076880868293,-75.116173747359255,-76.967270613847887,-78.819427090915312,-80.6716694931795,-82.52391189544133,-84.376154297700865,-86.228396699958068,-88.081420927179323,-89.934486310859057,-91.787551694536063,-93.640617078210411,-95.493682461881974,-97.347598216080812,-99.20153578289316,-101.05547334970299,-102.90941091650976,-104.76334848331378,0.17813160340907544,0.17813160340907544,0.17813160340907544,0.17813160340907544,0.17813160340907544,0.17813160340907544,0.17813160340907544,0.17813160340907544,0.17813160340907544,0.17813160340907544,0.17813160340907544,0.17813160340907544
DP 142,124.14918650370461,0.0017625242103755285,-120.9839380383345,-117.1239603539762,-113.26398266961694,-109.4040049852569,-105.54402730089571,-101.68554645694452,-97.885442954954229,-94.085339452963,-90.285235950970872,-86.485132448977723,-82.691165850474377,-79.013801578428911,-75.336437306382578,-71.659073034335464,-67.98170876228744,-64.317687321048908,-60.818229141377707,-57.318770961705674,-53.819312782032682,-50.31985460235893,-46.843016101939895,-43.569756852859946,-40.296497603779237,-37.023238354697753,-33.749979105615445,-30.509955417721855,-27.50258317132533,-24.495210924927992,-21.487838678529904,-18.480466432131035,-15.517515553373258,-12.806288557091374,-10.095061560808741,-7.3838345645253671,-4.67260756824124,-2.0167811010487213,0.37786845098207461,2.7725180030135954,5.1671675550458342,7.56181710707878,9.8909870627279233,11.958235538236742,14.025484013746256,16.09273248925648,18.159980964767378,20.153139259647059,21.891094930978003,23.629050602309654,25.367006273642005,27.104961944974985,28.762092990499127,30.176747102741238,31.591401214983989,33.006055327227436,34.420709439471551,35.749917057234043,36.853853707180889,37.957790357128381,39.061727007076534,40.165663657025341,41.181714079051169,41.992693866887507,42.803673654724555,43.614653442562208,44.425633230400507,45.148394529627417,45.687930248349964,46.2274659670732,46.7670016857971,47.306537404521649,47.759438537634075,48.051444529238566,48.343450520843682,48.635456512449508,48.927462504055939,49.136059499946604,49.205639400600866,49.275219301255866,49.344799201911478,49.414379102567715,49.40509644126864,49.277518073492153,49.149939705716356,49.022361337941227,48.894782970166744,48.693869650672163,48.393736824332258,48.093603997993,47.793471171654446,47.493338345316559,47.12604838243697,46.676676064280485,46.227303746124655,45.777931427969548,45.328559109815153,44.818555069389063,44.241535813614945,43.66451655784148,43.087497302068741,42.510478046296711,40.509305960200471,39.824240772667068,39.139175585134339,38.406565624032119,37.630938107036684,36.855310590041974,36.079683073048038,35.304055556054792,34.487062193440991,33.63622333714769,32.785384480855186,31.93454562456342,31.083706768272432,30.197262554573008,29.284500752274887,28.371738949977594,27.458977147681075,26.54621534538537,25.603112618602879,24.639782130853263,23.676451643104464,22.7131211553565,21.749790667609371,20.76084650690683,19.75653375506624,18.752221003226502,17.747908251387663,16.743595499549688,15.717847625904849,14.680557451891911,13.643267277879891,12.605977103868764,11.568686929858487,10.513602693682452,9.4499506969213556,8.38629870016123,7.3226467034020546,6.2589947066438478,5.1806796347752062,4.0960801898642112,3.0114807449541954,1.9268813000452045,0.84228185513717935,-0.2543212593285914,-1.3554776463293656,-2.4566340333291143,-3.5577904203277875,-4.6589468073254476,-5.7698744213536841,-6.8840592342029892,-7.998244047051152,-9.1124288598982588,-10.226613672744238,-11.34871742275641,-12.473120315623257,-13.59752320848896,-14.721926101353507,-15.846328994216883,-16.977131829566762,-18.109534726153434,-19.241937622738934,-20.3743405193232,-21.506743415906286,-22.644317461891085,-23.78298847760038,-24.921659493308407,-26.060330509015159,-27.199001524720636,-28.341858595065172,-29.48545442748264,-30.629050259898737,-31.772646092313487,-32.916241924726876,-34.063279986359738,-35.210809832207104,-36.358339678053113,-37.505869523897665,-38.653399369740853,-39.803731553723466,-40.954375138040177,-42.105018722355396,-43.255662306668995,-44.406305890981116,-45.55944546301933,-46.712787437944662,-47.866129412868524,-49.019471387790922,-50.172813362711842,-51.328248471121078,-52.483793765274974,-53.639339059427158,-54.794884353577672,-55.950429647726374,-57.107994078649689,-58.265610301883626,-59.423226525115751,-60.580842748346143,-61.738458971574794,0.11176922541638186,0.11176922541638186,0.11176922541638186,0.11176922541638186,0.11176922541638186,0.11176922541638186,0.11176922541638186,0.11176922541638186,0.11176922541638186,0.11176922541638186,0.11176922541638186,0.11176922541638186
DP 143,88.841444886712523,0.0033846159091934958,-194.00301908863028,-188.26870628636951,-182.53439348410672,-176.80008068184191,-171.06576787957528,-165.33319232128932,-159.66836993515051,-154.00354754900985,-148.33872516286735,-142.67390277672303,-137.01626288146974,-131.49509167097534,-125.97392046047941,-120.45274924998171,-114.93157803948245,-109.42617814985826,-104.11529320534608,-98.804408260832247,-93.493523316316654,-88.182638371799356,-82.898871956997766,-77.859174872928563,-72.8194777888578,-67.779780704785438,-62.74008362071153,-57.74093192458767,-53.0256010100418,-48.310270095494388,-43.594939180945453,-38.879608266394989,-34.2196198556753,-29.873242454029157,-25.526865052381531,-21.18048765073241,-16.834110249081835,-12.558458534443277,-8.61623173576643,-4.6740049370881511,-0.73177813840845241,3.2104486602726614,7.0667392177170916,10.579280748814885,14.091822279914071,17.604363811014657,21.116905342116617,24.529172690802959,27.596046976485415,30.662921262169235,33.7297955478544,36.796669833540925,39.750412153030744,42.364754296583087,44.979096440136729,47.593438583691707,50.207780727248057,52.698081192830294,54.861358425730032,57.024635658631077,59.1879128915335,61.351190124437217,63.381811235944383,65.102897217922958,66.823983199902827,68.545069181883974,70.266155163866486,71.848452168791411,73.14249110798356,74.436530047176888,75.73056898637158,77.024607925567622,78.176265945351361,79.063498412510484,79.950730879670871,80.837963346832566,81.725195813995654,82.468930588754915,82.973498925890723,83.478067263027739,83.982635600166162,84.487203937305935,84.8494678475774,84.998271754852908,85.147075662129836,85.295879569408058,85.444683476687587,85.454441617799986,85.276075924036363,85.097710230274117,84.919344536513165,84.740978842753549,84.428596506837366,83.952413237751756,83.476229968667511,83.000046699584573,82.523863430503013,81.920136704189147,81.175438355555428,80.430740006923244,79.686041658292368,78.94134330966294,76.1074333144153,75.12280853248653,74.138183750559278,73.041961126028326,71.844767015646411,70.6475729052661,69.450378794887257,68.253184684509932,66.953235367780437,65.5692118435749,64.185188319371,62.80116479516866,61.417141270967946,59.93940887980564,58.392411872634867,56.845414865465777,55.298417858298237,53.751420851132451,52.119730884488881,50.431577610648787,48.743424336810435,47.05527106297383,45.36711778913898,43.603061056043813,41.793461099476744,39.983861142911493,38.174261186348069,36.364661229786449,34.487565029415052,32.57412371625167,30.660682403090249,28.747241089930732,26.833799776773009,24.860770245988569,22.859049257482319,20.857328268978112,18.855607280475851,16.85388629197562,14.799903020326,12.723520921629856,10.647138822935739,8.5707567242437683,6.4943746255538182,4.3724213322185559,2.2331818192001744,0.093942306183940186,-2.0452972068300492,-4.18453671984192,-6.3633194256303263,-8.5552836940314148,-10.74724796243013,-12.939212230826598,-15.131176499220715,-17.357326639386123,-19.593402127003994,-21.829477614619449,-24.065553102232538,-26.301628589843151,-28.56719706649455,-30.840139138867716,-33.113081211238452,-35.386023283606555,-37.658965355972143,-39.957357336421673,-42.26114807380241,-44.56493881118039,-46.86872954855572,-49.172520285928336,-51.4983324136584,-53.828030913976853,-56.157729414292469,-58.487427914605306,-60.817126414915236,-63.16607970099242,-65.517783878746073,-67.86948805649692,-70.221192234244739,-72.572896411989646,-74.941496910909819,-77.311974956297391,-79.6824530016818,-82.052931047062856,-84.423409092440849,-86.8093678936571,-89.196582049479986,-91.58379620529972,-93.9710103611165,-96.358224516930022,-98.7595394121309,-101.16159659180317,-103.56365377147183,-105.96571095113686,-108.36776813079832,-110.78354515939959,-113.19967411200246,-115.61580306460148,-118.03193201719698,-120.44806096978867,0.23486567280747137,0.23486567280747137,0.23486567280747137,0.23486567280747137,0.23486567280747137,0.23486567280747137,0.23486567280747137,0.23486567280747137,0.23486567280747137,0.23486567280747137,0.23486567280747137,0.23486567280747137
DP 144,184.85956714527492,0.0020833666596701862,-170.20524655045625,-164.18328921701467,-158.16133188357202,-152.13937455012831,-146.11741721668341,-140.09867052465239,-134.20514006170185,-128.31160959875027,-122.41807913579764,-116.52454867284406,-110.64402818397581,-105.01069966218869,-99.377371140400655,-93.744042618611772,-88.1107140968218,-82.5051994511709,-77.2427261165815,-71.980252781991183,-66.7177794473998,-61.455306112807527,-56.238886298160722,-51.436952516065389,-46.63501873396914,-41.833084951872095,-37.031151169774155,-32.29492232639678,-28.018633022474393,-23.742343718551155,-19.466054414627077,-15.189765110702163,-10.998243047831179,-7.2870740258015614,-3.5759050037711377,0.135264018260105,3.8464330402921543,7.4561198392294505,10.587384962306849,13.718650085385041,16.849915208464022,19.981180331543776,22.997904217779013,25.556457743349934,28.115011268921645,30.673564794494077,33.2321183200673,35.66750733280314,37.678657849474959,39.689808366147531,41.700958882820849,43.712109399494878,45.596146385985818,47.098837975960166,48.60152956593523,50.104221155911027,51.606912745887577,52.982995389737106,54.025286460262024,55.067577530787709,56.109868601313984,57.152159671841083,58.072226196917043,58.707098265006067,59.341970333095666,59.976842401186133,60.611714469277267,61.131837384376489,61.413631798271041,61.695426212166268,61.977220626062213,62.259015039958932,62.4357457298434,62.4173552377789,62.398964745715062,62.380574253651965,62.362183761589506,62.24975966749755,61.980610533179785,61.7114613988628,61.44231226454643,61.17316313023084,60.821580744942338,60.346346535273753,59.871112325605793,59.3958781159386,58.92064390627214,58.374507276859596,57.732442267372768,57.090377257886665,56.448312248401187,55.806247238916434,55.104256463011424,54.329021824981446,53.5537871869522,52.778552548923678,52.003317910895881,51.178247455875535,50.29809431669775,49.417941177520696,48.53778803834436,47.657634899168848,44.813032061758243,43.851221400264571,42.889410738771694,41.894612127185084,40.869966681121859,39.845321235059345,38.820675788997704,37.79603034293681,36.745072795435647,35.672586712747361,34.600100630059906,33.527614547373247,32.455128464687405,31.361903752624496,30.253350147502566,29.144796542381549,28.036242937261317,26.927689332141959,25.802968540442038,24.667469369665369,23.531970198889592,22.396471028114664,21.260971857340635,20.112995073471261,18.957531533041482,17.802067992612585,16.646604452184626,15.491140911757556,14.326133637563117,13.155987291019846,11.985840944477552,10.815694597936188,9.6455482513957218,8.4681592851772525,7.28728303028764,6.10640677539904,4.9255305205114324,3.7446542656248365,2.5583167934973194,1.3696387259529068,0.18096065840951159,-1.0077174091328052,-2.1963954766741143,-3.3891724835591228,-4.5835043139788052,-5.7778361443974138,-6.9721679748149,-8.1664998052313234,-9.3639015479309986,-10.562326633413871,-11.760751718895557,-12.959176804376117,-14.157601889855528,-15.358328779009662,-16.559723961819309,-17.761119144627749,-18.962514327435017,-20.163909510241066,-21.367040500896774,-22.570605464022712,-23.774170427147428,-24.977735390270848,-26.181300353393024,-27.38619068790258,-28.591362176981214,-29.796533666058487,-31.001705155134434,-32.206876644209082,-33.413074764283607,-34.619454065949718,-35.825833367614379,-37.032212669277683,-38.238591970939552,-39.445815267438753,-40.653159143744922,-41.860503020049691,-43.067846896352968,-44.275190772654788,-45.483180586199751,-46.691242177331929,-47.899303768462524,-49.107365359591448,-50.315426950718823,-51.524160723086212,-52.732949003502505,-53.941737283917284,-55.150525564330593,-56.359313844742275,-57.5685968493334,-58.77790589695973,-59.987214944584352,-61.196523992207247,-62.405833039828295,-63.615683350439646,-64.825547544834734,-66.035411739227939,-67.245275933619411,-68.455140128009,0.11623536305801828,0.11623536305801828,0.11623536305801828,0.11623536305801828,0.11623536305801828,0.11623536305801828,0.11623536305801828,0.11623536305801828,0.11623536305801828,0.11623536305801828,0.11623536305801828,0.11623536305801828
DP 145,147.94347400466049,0.0037992632654436859,-282.99011836872387,-273.55629285920696,-264.12246734968778,-254.68864184016678,-245.25481633064345,-235.82518731891722,-226.55922330798549,-217.29325929705149,-208.0272952861157,-198.76133127517795,-189.51248981168496,-180.58897998657071,-171.66547016145483,-162.741960336337,-153.81845051121746,-144.93192360623851,-136.50152404390874,-128.07112448157721,-119.64072491924382,-111.21032535690867,-102.84203877045449,-95.032774837938746,-87.223510905421449,-79.4142469729025,-71.604983040381867,-63.88593201149898,-56.79837812971374,-49.710824247926887,-42.623270366138449,-35.535716484348349,-28.567065014397016,-22.272201370734958,-15.977337727071379,-9.6824740834062446,-3.3876104397395643,2.76134083162279,8.2224116096547615,13.683482387688278,19.144553165723256,24.605623943759742,29.8973618572153,34.511760309575372,39.126158761936836,43.7405572142998,48.354955666664196,52.781590978866362,56.561478698245253,60.341366417625679,64.121254137007455,67.901141856390652,71.480672560461912,74.459124643405431,77.437576726350429,80.41602880929679,83.39448089224453,86.166095578873453,88.392404565931272,90.618713552990585,92.8450225400512,95.071331527113173,97.0902252123091,98.625143324773774,100.16006143723966,101.69497954970706,103.22989766217572,104.56212459008883,105.47337162435525,106.38461865862322,107.29586569289236,108.20711272716288,108.92483242228005,109.28313897542,109.64144552856128,109.9997520817039,110.35805863484791,110.53543740109875,110.41126529546166,110.28709318982584,110.16292108419141,110.03874897855836,109.74865095500741,109.20966013370364,108.67066931240134,108.13167849110043,107.59268766980077,106.90418945085131,106.01341319235038,105.12263693385083,104.23186067535258,103.34108441685576,102.31777037148349,101.13246291379238,99.947155456102735,98.761847998414481,97.576540540727677,96.27549471315227,94.84652522628538,93.41755573942001,91.988586252556075,90.559616765693548,85.774381875123211,84.146081439453866,82.517781003785956,80.804766771845365,79.015105199040761,77.225443626237649,75.435782053436043,73.646120480635958,71.785320056491017,69.866313895042012,67.94730773359457,66.028301572148777,64.1092954107044,62.131221117233409,60.109486798667454,58.087752480103106,56.066018161540448,54.044283842979425,51.974017034534022,49.8713944682757,47.768771902019068,45.666149335764146,43.563526769510929,41.42141562835608,39.255610745060558,37.089805861766763,34.92400097847483,32.75819609518463,30.560549380377203,28.345756600949834,26.130963821524372,23.916171042100732,21.701378262678869,19.461120354464871,17.208601101723641,14.956081848984379,12.703562596247078,10.451043343511751,8.178308103873519,5.8969085968729287,3.6155090898743389,1.3341095828778564,-0.94728992411665025,-3.2446359321012532,-5.5480308207746161,-7.8514257094458708,-10.154820598114931,-12.458215486781913,-14.774124559163402,-17.094205183828809,-19.41428580849189,-21.734366433152786,-24.054447057811352,-26.384313349898161,-28.717020761552892,-31.049728173205271,-33.382435584855294,-35.715142996502976,-38.055491899399136,-40.397751265390689,-42.740010631379874,-45.082269997366517,-47.424529363350686,-49.772767599783577,-52.122274149961619,-54.471780700136989,-56.82128725030983,-59.17079380047997,-61.524996215737296,-63.880027365285237,-66.235058514830271,-68.590089664372712,-70.94512081391224,-73.303936543425323,-75.663292968100265,-78.022649392772522,-80.382005817441751,-82.741362242108281,-85.103686445450435,-87.466340433144538,-89.828994420835485,-92.191648408523236,-94.5543023962079,-96.919665731489687,-99.285248771286447,-101.65083181108012,-104.01641485087089,-106.38199789065868,-108.74972548432392,-111.11756597057978,-113.48540645683238,-115.85324694308133,-118.22108742932684,-120.59105205576435,-122.96107116792399,-125.33109028008006,-127.70110939223247,-130.07112850438136,0.2282601304209784,0.2282601304209784,0.2282601304209784,0.2282601304209784,0.2282601304209784,0.2282601304209784,0.2282601304209784,0.2282601304209784,0.2282601304209784,0.2282601304209784,0.2282601304209784,0.2282601304209784
DP 146,214.27211605027111,0.0053359348123791783,-460.5305331858105,-443.54318559134077,-426.55583799686838,-409.56849040239382,-392.58114280791642,-375.60404389380767,-359.02664738905384,-342.44925088429795,-325.87185437953906,-309.29445787477761,-292.75837388372906,-277.00723546309632,-261.25609704246108,-245.50495862182376,-229.75382020118411,-214.090292517117,-199.50730829223892,-184.92432406735878,-170.34133984247632,-155.75835561759152,-141.31881352596781,-128.170264192039,-115.021714858108,-101.87316552417488,-88.724616190239644,-75.777852890022118,-64.243607084282473,-52.709361278540676,-41.175115472796826,-29.640869667050943,-18.362606198674737,-8.5349254392345415,1.2927553202076763,11.120436079651892,20.948116839098116,30.475224274428989,38.585326947185578,46.6954296199441,54.80553229270464,62.915634965466985,70.693787260299672,77.144122355244221,83.594457450190674,90.044792545139089,96.49512764008918,102.59695407228229,107.49834713655788,112.39974020083527,117.30113326511459,122.2025263293955,126.75342773349639,130.25284090550542,133.75225407751643,137.25166724952919,140.75108042154386,143.91091956420689,146.17550641242465,148.44009326064426,150.7046801088654,152.96926695708856,154.91549894654165,156.11889290177638,157.3222868570129,158.5256808122511,159.72907476749126,160.64263050566589,160.95420613275505,161.26578175984602,161.5773573869387,161.88893301403297,161.94350190699342,161.52076563868602,161.09802937037995,160.6752931020759,160.2525568337735,159.60731044948903,158.59120826339262,157.5751060772981,156.55900389120515,155.54290170511385,154.33830875417198,152.85097520186434,151.36364164955833,149.87630809725394,148.38897454495157,146.74512407616967,144.88951194529091,143.03389981441413,141.1782876835388,139.32267555266526,137.3394598434999,135.20028152503713,133.06110320657621,130.92192488811696,128.78274656965948,126.54128198534379,124.18676212440327,121.83224226346441,119.47772240252742,117.12320254159226,109.6560353339449,107.14007211788295,104.62410890182267,102.04535638974448,99.409793384142887,96.774230378543166,94.138667372945463,91.503104367349636,88.81934642579175,86.096155435640142,83.372964445490467,80.649773455342824,77.926582465197114,75.16684836983282,72.380103552508416,69.593358735186087,66.806613917865747,64.019869100547581,61.205722297099285,58.373307071221,55.540891845344795,52.7084766194707,49.876061393598768,47.023301308333352,44.158333999749949,41.293366691168714,38.428399382589795,35.563432074013065,32.683487144003145,29.795477123114775,26.907467102228765,24.019457081345081,21.131447060463646,18.232484778619835,15.328249032577718,12.424013286538047,9.5197775405008009,6.6155417944660293,3.7033321744026697,0.78770507208591933,-2.127922030228345,-5.0435491325399866,-7.9591762348491715,-10.880602181803287,-13.804227766119402,-16.72785335043293,-19.6514789347437,-22.575104519051916,-25.502961877140446,-28.432229879819587,-31.361497882495833,-34.290765885169357,-37.220033887840046,-40.152420194686947,-43.085711853679044,-46.019003512668228,-48.952295171654477,-51.885586830637834,-54.821218335318981,-57.757434829067826,-60.693651322813587,-63.629867816556335,-66.566084310295949,-69.50410852663488,-72.442516219991646,-75.38092391334493,-78.319331606695158,-81.257739300042047,-84.19758600226514,-87.137686663230326,-90.077787324192045,-93.017887985150381,-95.9579886461053,-98.899352998815985,-101.84089789256808,-104.78244278631669,-107.72398768006175,-110.66553257380329,-113.60805829493411,-116.55069300718343,-119.49332771942889,-122.43596243167025,-125.378597143908,-128.32241433200477,-131.26632740860239,-134.21024048519629,-137.15415356178647,-140.0980666383729,-143.04282575988236,-145.98762941848562,-148.93243307708448,-151.87723673567902,-154.82204039426932,-157.76785134643129,-160.713688136394,-163.65952492635242,-166.60536171630645,-169.55119850625593,0.282633053350113,0.282633053350113,0.282633053350113,0.282633053350113,0.282633053350113,0.282633053350113,0.282633053350113,0.282633053350113,0.282633053350113,0.282633053350113,0.282633053350113,0.282633053350113
DP 147,305.216365266516,0.0038778666979116918,-374.96220763155617,-359.5746475788884,-344.187087526219,-328.79952747354764,-313.411967420875,-298.03701155527824,-283.15362375119338,-268.27023594710653,-253.38684814301837,-238.50346033892825,-223.67009780385288,-209.78722483699386,-195.90435187013318,-182.02147890327086,-168.1386059364072,-154.35921004975867,-141.85604452682676,-129.35287900389335,-116.84971348095836,-104.34654795802186,-92.00708942606569,-81.1410092867289,-70.274929147390566,-59.408849008051071,-48.542768868710027,-37.897304651211435,-28.796168568917544,-19.69503248662237,-10.593896404325784,-1.4927603220278436,7.34243671484729,14.670629069742553,21.99882142463915,29.32701377953704,36.655206134436249,43.688860993633668,49.333966035930942,54.979071078229481,60.624176120529313,66.269281162830353,71.609619408468646,75.730876064000469,79.852132719533515,83.973389375067754,88.0946460306032,91.91791820352401,94.714786862620869,97.511655521719035,100.30852418081822,103.10539283991865,105.6246733518891,107.3111789272899,108.99768450269168,110.68419007809462,112.37069565349859,113.809277079699,114.59423177288132,115.37918646606478,116.16414115924933,116.94909585243508,117.5206920098875,117.59444486166529,117.66819771344433,117.74195056522439,117.81570341700566,117.71181891193919,117.23899011480913,116.76616131768024,116.29333252055253,115.82050372342601,115.20410622606671,114.32107726533904,113.43804830461261,112.55501934388718,111.67199038316303,110.67600088760474,109.49174098674787,108.30748108589208,107.12322118503749,105.93896128418383,104.66796365445236,103.26685738176691,101.86575110908254,100.46464483639937,99.063538563717188,97.597294276697113,96.0429206392388,94.488547001781612,92.934173364325574,91.379799726870687,89.777493111667965,88.116600739067238,86.455708366467491,84.794815993869079,83.1339236212717,81.438409000128331,79.704626994269219,77.970844988411272,76.237062982554491,74.503280976698889,69.179003215251726,67.396048418889478,65.61309362252841,63.812946782512142,61.997244926806005,60.18154307110099,58.365841215397332,56.550139359694832,54.7225804996507,52.885320250466087,51.048060001282664,49.210799752100584,47.3735395029197,45.52819829700389,43.676884077185022,41.825569857367448,39.97425563755116,38.12294141773625,36.266171389893771,34.405764070751964,32.545356751611592,30.684949432472472,28.824542113334832,26.960473074203765,25.094206947699771,23.22794082119718,21.36167469469606,19.495408568196311,17.626686326575648,15.75664152571289,13.886596724851669,12.016551923991942,10.14650712313362,8.2748025269573784,6.4022987468309438,4.5297949667061026,2.6572911865828064,0.78478740646109046,-1.0888602563013361,-2.9629981699260473,-4.837136083549173,-6.7112739971706219,-8.5854119107905031,-10.46036711650374,-12.335632340217034,-14.210897563928674,-16.08616278763855,-17.961428011346786,-19.837310344787532,-21.713398389248614,-23.589486433707826,-25.465574478165344,-27.341662522621025,-29.218250835611869,-31.094984393954917,-32.971717952296089,-34.848451510635385,-36.725185068972827,-38.602356676957257,-40.479637802527549,-42.356918928095922,-44.23420005366232,-46.1114811792267,-47.989174780915619,-49.866955882264222,-51.744736983610743,-53.622518084955189,-55.500299186297568,-57.378481450147987,-59.256734511841394,-61.134987573532491,-63.013240635221642,-64.891493696908412,-66.770193264002131,-68.648956622403915,-70.52771998080344,-72.406483339200634,-74.285246697595639,-76.164386166796049,-78.0435674300337,-79.922748693268957,-81.801929956501581,-83.681111219731847,-85.560867242657253,-87.440669873591077,-89.3204725045226,-91.200275135451776,-93.080077766378537,-94.960291012909622,-96.840525874871034,-98.720760736829831,-100.60099559878577,-102.48123046073897,-104.36199992513923,-106.24278310247443,-108.12356627980691,-110.00434945713646,-111.88513263446312,0.17997761287492819,0.17997761287492819,0.17997761287492819,0.17997761287492819,0.17997761287492819,0.17997761287492819,0.17997761287492819,0.17997761287492819,0.17997761287492819,0.17997761287492819,0.17997761287492819,0.17997761287492819
DP 148,70.749878276154618,0.003060901802482416,-152.20431515040838,-147.91112351332038,-143.61793187623078,-139.32474023913917,-135.03154860204603,-130.73947022984225,-126.49080960929851,-122.24214898875329,-117.99348836820619,-113.74482774765742,-109.50079589810292,-105.34471157250191,-101.18862724689949,-97.032542921295388,-92.876458595690039,-88.730590687053351,-84.71072654194046,-80.690862396825892,-76.670998251709833,-72.651134106592323,-68.648972798636208,-64.806138698440051,-60.963304598242487,-57.120470498043488,-53.277636397843068,-49.461507310927892,-45.83231533636895,-42.203123361808665,-38.573931387246965,-34.94473941268388,-31.352402181685548,-27.968910819928769,-24.585419458170691,-21.201928096411272,-17.818436734650529,-14.482647243779159,-11.371740577869184,-8.2608339119579082,-5.1499272460453449,-2.0390205801315053,1.0130819294752094,3.8299650347316883,6.6468481399894292,9.46373124524843,12.280614350508655,15.02776635022844,17.534730501499613,20.041694652772005,22.548658804045619,25.055622955320469,27.482505795922162,29.669141676751398,31.855777557581852,34.042413438413526,36.229049319246414,38.326176545845,40.187323334748264,42.048470123652713,43.909616912558377,45.770763701465228,47.534180895660796,49.069559289691711,50.6049376837238,52.140316077757056,53.675694471791509,55.106541854759243,56.320283328467696,57.534024802177349,58.747766275888182,59.961507749600258,61.065474390202979,61.965570519018883,62.865666647836093,63.765762776654491,64.665858905474,65.45256065156525,66.050268901598329,66.647977151632617,67.245685401668126,67.843393651704844,68.325713734971046,68.634948841426834,68.9441839478839,69.253419054342089,69.562654160801586,69.756070643682833,69.792788765886257,69.829506888090876,69.866225010296731,69.902943132503893,69.824873703855758,69.606505968640775,69.388138233427114,69.169770498214689,68.951402763003514,68.620588146741,68.165487898031486,67.710387649323209,67.255287400616339,66.8001871519107,64.890072472023462,64.2170462378437,63.544020003665253,62.76646986532846,61.894348598522107,61.022227331717026,60.150106064913437,59.277984798111255,58.306538807129513,57.253825425767943,56.20111204440785,55.148398663049278,54.095685281692155,52.949413762096192,51.733989037155688,50.518564312216682,49.3031395872793,48.087714862343425,46.784883842552667,45.423780582569449,44.062677322587817,42.70157406260784,41.340470802629461,39.898327713715162,38.40755950184429,36.916791289975144,35.42602307810769,33.935254866241955,32.369874548562336,30.764317396611812,29.158760244663096,27.553203092716142,25.947645940770904,24.273830928084021,22.567150063662353,20.86046919924258,19.153788334824682,17.44710747040866,15.678335191152165,13.882951467115682,12.087567743081152,10.29218401904863,8.496800295018021,6.6452064034333418,4.7722906809784,2.899374958525498,1.0264592360747167,-0.846456486374053,-2.7700635257102646,-4.7105683095272068,-6.6510730933419078,-8.5915778771544744,-10.53208266096483,-12.51818545116053,-14.517526928366035,-16.516868405569276,-18.51620988277023,-20.515551359968875,-22.55587217888699,-24.60643831740941,-26.65700445592951,-28.707570594447173,-30.758136732962406,-32.845578332222956,-34.940842421398095,-37.036106510570647,-39.131370599740684,-41.226634688908192,-43.35520254139886,-45.489647898933512,-47.624093256465393,-49.758538613994659,-51.892983971521204,-54.057786979480234,-56.226927122577209,-58.396067265671441,-60.565207408762852,-62.734347551851471,-64.931322458147264,-67.1313904082378,-69.331458358325378,-71.531526308409752,-73.731594258491086,-75.957956565172026,-78.186451115398441,-80.414945665621843,-82.643440215842347,-84.871934766059951,-87.1253109535396,-89.379996948433686,-91.6346829433244,-93.889368938211788,-96.144054933095774,-98.423316199697169,-100.7032078397116,-102.98309947972257,-105.26299111973009,-107.54288275973407,0.22309983825429303,0.22309983825429303,0.22309983825429303,0.22309983825429303,0.22309983825429303,0.22309983825429303,0.22309983825429303,0.22309983825429303,0.22309983825429303,0.22309983825429303,0.22309983825429303,0.22309983825429303
DP 54,54.947732211719554,0.0034467471740720719,-143.77441359616202,-139.90882737732184,-136.04324115847982,-132.17765493963574,-128.31206872079,-124.44733615120741,-120.61589622571809,-116.78445630022684,-112.95301637473386,-109.12157644923902,-105.29370899289556,-101.53371912581083,-97.773729258724586,-94.013739391636676,-90.253749524547175,-86.501683480264248,-82.847345582572444,-79.193007684879063,-75.538669787183935,-71.8843318894871,-68.243819158126087,-64.727734230571642,-61.211649303015712,-57.695564375458225,-54.17947944789919,-50.684419039963949,-47.336531859213686,-43.988644678461988,-40.640757497708762,-37.292870316954065,-33.9742834456592,-30.821733507643103,-27.669183569625542,-24.516633631606556,-21.364083693586135,-18.249886045503143,-15.316494121475195,-12.383102197445828,-9.4497102734150911,-6.516318349382944,-3.6308193735092393,-0.93689445372142266,1.7570304660677663,4.4509553858583235,7.1448803056502346,9.781193963967457,12.219066412543043,14.65693886111996,17.094811309698223,19.532683758277841,21.903337463869249,24.072332399056574,26.241327334245266,28.410322269435248,30.5793172046266,32.671874476033139,34.562911642923417,36.453948809815081,38.344985976707996,40.236023143602239,42.042035158635947,43.649652473769045,45.257269788903486,46.864887104039255,48.472504419176275,49.987349908346623,51.309512753154991,52.631675597964652,53.9538384427757,55.276001287588052,56.4986550712176,57.536503625304626,58.574352179393038,59.612200733482752,60.650049287573715,61.582783849331932,62.34032577440329,63.097867699476055,63.855409624550205,64.612951549625677,65.260985128460931,65.744753600222751,66.228522071985921,66.7122905437505,67.19605901551644,67.567170286755328,67.785860487049092,68.004550687344363,68.223240887640983,68.441931087939,68.546061850203174,68.5101731152513,68.474284380300759,68.438395645351818,68.402506910404256,68.251356115125816,67.97280811743984,67.694260119755356,67.4157121220724,67.137164124390978,65.727378455273239,65.219173353020224,64.71096825076873,64.089404744038134,63.365276830443491,62.641148916850511,61.917021003259123,61.192893089669411,60.357802702863772,59.431922931010035,58.506043159158025,57.580163387307735,56.654283615459121,55.6206327219973,54.50732314097057,53.394013559945641,52.2807039789225,51.167394397901141,49.9501660610871,48.6636569166595,47.37714777223372,46.090638627809845,44.804129483387847,43.4180767264281,41.972296296511189,40.526515866596213,39.080735436683234,37.634955006772174,36.094388231212619,34.502781275795719,32.911174320380987,31.3195673649683,29.727960409557713,28.046571202138466,26.321952245780729,24.597333289425208,22.872714333071869,21.148095376720725,19.338817627938194,17.493256396395111,15.647695164854285,13.802133933315819,11.956572701779578,10.031471282407534,8.0761984099650146,6.1209255375248759,4.1656526650872108,2.2103797926519011,0.18056929348440703,-1.8740880206423092,-3.928745334766405,-5.98340264888801,-8.0380599630070222,-10.162473446649949,-12.307139572207852,-14.45180569776309,-16.596471823315639,-18.7411379488655,-20.951094927365546,-23.177375390521,-25.403655853673754,-27.629936316823603,-29.856216779970612,-32.143729194214863,-34.4442309056845,-36.744732617151129,-39.045234328614853,-41.345736040075558,-43.7038814473351,-46.072199912502953,-48.440518377667594,-50.808836842829166,-53.17715530798754,-55.600155652284208,-58.030968284293664,-60.461780916299986,-62.892593548302926,-65.323406180302626,-67.806364297697655,-70.295116905560675,-72.783869513420129,-75.272622121275916,-77.761374729128107,-80.300877484077134,-82.8444956344049,-85.388113784729057,-87.931731935049825,-90.475350085367182,-93.0684557307921,-95.66416647359884,-98.259877216401648,-100.85558795920039,-103.45129870199507,-106.09659510921331,-108.74316342442694,-111.38973173963643,-114.03630005484176,-116.68286837004295,0.26146113143906485,0.26146113143906485,0.26146113143906485,0.26146113143906485,0.26146113143906485,0.26146113143906485,0.26146113143906485,0.26146113143906485,0.26146113143906485,0.26146113143906485,0.26146113143906485,0.26146113143906485
DP 55,262.72772023159462,0.0019073171532061534,-176.26023728412611,-169.35428545096508,-162.44833361780329,-155.5423817846403,-148.63642995147654,-141.73544008804714,-135.02796892034351,-128.3204977526392,-121.61302658493376,-114.90555541722766,-108.21791983797917,-101.90716418921342,-95.59640854044703,-89.28565289167976,-82.974897242911666,-76.7056505038593,-70.948352215940233,-65.191053928020509,-59.433755640099889,-53.676457352178538,-47.985884746082753,-42.895849583416634,-37.805814420749833,-32.715779258082271,-27.625744095413964,-22.627442498316817,-18.271282796832875,-13.915123095348234,-9.5589633938628857,-5.202803692376837,-0.95987160946352623,2.6414301665972766,6.2427319426587635,9.8440337187209135,13.445335494783746,16.917796940791611,19.782861300458993,22.64792566012704,25.512990019795737,28.378054379465066,31.10573525200466,33.283875683201686,35.462016114399333,37.640156545597634,39.818296976796582,41.857636498157248,43.41887816579797,44.980119833439254,46.541361501081177,48.102603168723739,49.529917016551693,50.555442341331094,51.5809676661111,52.606492990891738,53.632018315672944,54.533383888111793,55.107414936840364,55.681445985569525,56.255477034299282,56.829508083029566,57.292424682501462,57.496070732815582,57.699716783130263,57.90336283344552,58.107008883761431,58.21429292337293,58.121437676676656,58.028582429980922,57.935727183285778,57.842871936591195,57.668777753746873,57.343809066968412,57.018840380190461,56.6938716934132,56.3689030066364,55.977175134409514,55.474180270391187,54.971185406373557,54.468190542356481,53.965195678339981,53.408602952549863,52.771612167566929,52.134621382584506,51.49763059760263,50.860639812621358,50.1815233621615,49.445412427403241,48.709301492645679,47.973190557888593,47.237079623132182,46.468499252315347,45.660233333191876,44.851967414069037,44.04370149494676,43.235435575825115,42.402587259487653,41.542568436005368,40.682549612523658,39.822530789042517,38.962511965562037,36.290919140022851,35.394285705287835,34.497652270553466,33.58758921917368,32.6653753204706,31.743161421768107,30.820947523066323,29.898733624365118,28.966802766749364,28.026921503029516,27.087040239310305,26.147158975591772,25.207277711873882,24.260451945808452,23.308493172546797,22.356534399285845,21.404575626025565,20.452616852765992,19.49574798175292,18.535605634886505,17.575463288020767,16.615320941155755,15.655178594291465,14.691594658148521,13.725945716390282,12.760296774632781,11.794647832876038,10.828998891119998,9.8609520080588826,8.891613890963658,7.9222757738692362,6.9529376567755818,5.9835995396826753,5.0125940787311922,4.0407857992409273,3.0689775197514853,2.0971692402628497,1.1253609607750343,0.15238895784150289,-0.8210817994248607,-1.7945525566903993,-2.7680233139550667,-3.7414940712189164,-4.7157869728400241,-5.6903917330388589,-6.6649964932368126,-7.6396012534338738,-8.6142060136300618,-9.5894055892867609,-10.564803444259381,-11.540201299231036,-12.515599154201784,-13.490997009171585,-14.466841826533537,-15.442816412621168,-16.418790998707848,-17.394765584793554,-18.370740170878268,-19.347068678063042,-20.323485669703647,-21.299902661343239,-22.276319652981826,-23.252736644619358,-24.229452530837698,-25.206231822360415,-26.183011113882024,-27.15979040540261,-28.13656969692207,-29.113613597325237,-30.090704196355262,-31.067794795384167,-32.044885394411935,-33.021975993438545,-33.999335938940526,-34.976734365418864,-35.954132791896093,-36.931531218372122,-37.908929644847,-38.8865479148306,-39.86419061417844,-40.841833313525029,-41.819476012870233,-42.797118712214228,-43.77507720998269,-44.753061316254779,-45.731045422525575,-46.709029528795185,-47.687013635063536,-48.66522224103349,-49.643442665009438,-50.621663088984086,-51.599883512957192,-52.578103936928912,-53.556611601294449,-54.53512663358147,-55.513641665867041,-56.492156698151085,-57.470671730433708,0.0937320561559852,0.0937320561559852,0.0937320561559852,0.0937320561559852,0.0937320561559852,0.0937320561559852,0.0937320561559852,0.0937320561559852,0.0937320561559852,0.0937320561559852,0.0937320561559852,0.0937320561559852
DP 56,131.2760850411625,0.003713878162556947,-261.88308015590087,-253.41262155147112,-244.94216294703926,-236.4717043426057,-228.00124573816979,-219.53421670163837,-211.20094211012676,-202.86766751861327,-194.53439292709763,-186.20111833558033,-177.88188364055844,-169.82940963312302,-161.77693562568584,-153.72446161824712,-145.67198761080644,-137.64997875377654,-130.0037105913045,-122.35744242883045,-114.71117426635473,-107.06490610387725,-99.4701389343536,-92.338885569366965,-85.2076322043787,-78.076378839388823,-70.945125474397187,-63.889281740325409,-57.361311124947242,-50.8333405095675,-44.305369894186128,-37.777399278803188,-31.349795631740868,-25.490944463037874,-19.632093294333345,-13.773242125627243,-7.9143909569196209,-2.1801053602772704,2.9669358114327169,8.11397698314423,13.261018154857227,18.4080593265717,23.408679491853167,27.82360871145799,32.238537931064251,36.653467150671979,41.068396370281135,45.318659223535882,49.001731008475844,52.684802793417255,56.367874578360059,60.050946363304185,63.555576543657359,66.524875163633553,69.49417378361106,72.46347240359,75.432771023570325,78.214773899243909,80.502990647777935,82.791207396313382,85.079424144850151,87.36764089338827,89.464686198893347,91.115658780739679,92.766631362587376,94.417603944436308,96.068576526286677,97.5292062755569,98.594503067492454,99.659799859429384,100.72509665136761,101.79039344330727,102.67035310480537,103.20611023311913,103.74186736143429,104.27762448975066,104.81338161806856,105.17228552027905,105.23642958794628,105.30057365561466,105.36471772328453,105.42886179095576,105.32733466871915,104.97729684676425,104.62725902481066,104.27722120285834,103.92718338090755,103.42455592575104,102.71548027909446,102.00640463243951,101.29732898578568,100.58825333913342,99.740816643821432,98.724269093916774,97.7077215440135,96.691173994111665,95.674626444211256,94.534422653510063,93.257543714950259,91.980664776391777,90.703785837834872,89.4269068992793,85.051080850749358,83.55612580679886,82.06117076284977,80.471266466069409,78.7954539929734,77.119641519878925,75.443829046786078,73.76801657369468,72.0104834617407,70.18608660447677,68.361689747214555,66.537292889953832,64.7128960326947,62.818928102291146,60.873536930705669,58.928145759121847,56.9827545875397,55.037363415959177,53.033345449547625,50.990242029671109,48.947138609796376,46.904035189923306,44.860931770051934,42.768891495420959,40.647488367844559,38.52608524026995,36.404682112697159,34.283278985126096,32.1213868424835,29.937692333716043,27.753997824950503,25.5703033161868,23.386608807424789,21.169686690686483,18.936765630744418,16.70384457080436,14.470923510866296,12.238002450930219,9.9780140886785578,7.7064250885171877,5.4348360883578311,3.163247088200615,0.89165808804539459,-1.4018350030463247,-3.70363682799511,-6.0054386529417663,-8.3072404778861983,-10.609042302828515,-12.928471149655758,-15.253775892593143,-17.5790806355282,-19.904385378461015,-22.229690121391524,-24.569119227834033,-26.912649128204063,-29.256179028571719,-31.599708928937027,-33.943238829299858,-36.298057621657989,-38.655698770392725,-41.013339919124967,-43.370981067854714,-45.728622216581911,-48.095287293985336,-50.4638666414635,-52.832445988938979,-55.201025336411924,-57.569604683882176,-59.945413026706049,-62.32249715497754,-64.6995812832462,-67.076665411512053,-69.453749539775018,-71.83672970087882,-74.220552216077181,-76.604374731272685,-78.988197246465248,-81.372019761654926,-83.7605820197047,-86.1496709656257,-88.538759911543522,-90.927848857458,-93.316937803369356,-95.710260085984416,-98.103925655371413,-100.49759122475555,-102.89125679413654,-105.28492236351451,-107.68207641956396,-110.07941411488059,-112.47675181019375,-114.87408950550325,-117.27142720080924,-119.67214522244448,-122.07294995188083,-124.47375468131327,-126.87455941074221,-129.27536414016751,0.23160256381264449,0.23160256381264449,0.23160256381264449,0.23160256381264449,0.23160256381264449,0.23160256381264449,0.23160256381264449,0.23160256381264449,0.23160256381264449,0.23160256381264449,0.23160256381264449,0.23160256381264449
DP 57,298.14438804784248,0.0037610824500904807,-361.19792303121295,-346.48373064332037,-331.76953825542597,-317.05534586752964,-302.34115347963223,-287.63876776565775,-273.39684679869794,-259.15492583173693,-244.91300486477394,-230.67108389780958,-216.47607812616323,-203.1724699345645,-189.86886174296438,-176.56525355136276,-163.26164535975974,-150.05526884805488,-138.04809530906002,-126.04092177006352,-114.0337482310656,-102.02657469206615,-90.17363557119009,-79.708820791861072,-69.244006012530733,-58.779191233198908,-48.314376453865854,-38.058100521546358,-29.261612287398329,-20.465124053248989,-11.668635819098276,-2.8721475849462541,5.6719728186382925,12.785992946267955,19.900013073898911,27.014033201531156,34.128053329164665,40.961314699505976,46.470983906811163,51.980653114117565,57.490322321425253,62.999991528734135,68.217706508568639,72.267590780579738,76.317475052591931,80.36735932460526,84.4172435966198,88.180126376247927,90.954436403115622,93.72874642998454,96.50305645685458,99.277366483725814,101.7827681733214,103.48143468407977,105.18010119483931,106.87876770559987,108.5774342163617,110.03445446887561,110.85439900757976,111.67434354628487,112.49428808499131,113.31423262369867,113.92488221181837,114.04717032096723,114.16945843011734,114.29174653926827,114.41403464842064,114.36090128266611,113.94342590563244,113.52595052859994,113.10847515156846,112.69099977453818,112.13076470637662,111.30540064216923,110.48003657796299,109.65467251375779,108.82930844955371,107.89081985145987,106.76378751217398,105.63675517288927,104.50972283360571,103.38269049432321,102.16816059558873,100.82238229008433,99.476603984581075,98.130825679078754,96.785047373577612,95.3730711302417,93.871531498751821,92.3699918672631,90.868452235775464,89.366912604288885,87.816291057788092,86.205679473097078,84.595067888407172,82.984456303718474,81.373844719030814,79.727508723786215,78.0416871428288,76.355865561872619,74.670043980917526,72.98422239996367,67.798928691142137,66.061975427146663,64.325022163152383,62.570052594266443,60.798782234684332,59.027511875103279,57.25624151552357,55.484971155944926,53.701178728618082,51.907140757933909,50.1131027872509,48.319064816569167,46.52502684588864,44.722389346932353,42.913395533540076,41.104401720149113,39.295407906759387,37.486414093371039,35.671571701041323,33.8528301639489,32.03408862685783,30.215347089768088,28.396605552679695,26.573912358687473,24.748848110791187,22.923783862896261,21.098719615002778,19.273655367110656,17.44592586764669,15.616761193964312,13.787596520283426,11.958431846604002,10.129267172925964,8.298295220395044,6.4664530712577868,4.6346109221220821,2.8027687729878927,0.9709266238552513,-0.862161072896446,-2.695782592588241,-4.5294041122784785,-6.3630256319670808,-8.1966471516541546,-10.03115427016993,-11.865997317027675,-13.700840363883813,-15.535683410738219,-17.370526457591019,-19.206031045962362,-21.041756156509379,-22.877481267054588,-24.713206377598112,-26.548931488139846,-28.385184445684633,-30.221590655569976,-32.057996865453489,-33.894403075335177,-35.730809285215017,-37.567669359550059,-39.404642905359822,-41.241616451167737,-43.078589996973648,-44.915563542777676,-46.752957083161071,-48.590439718114048,-50.427922353064936,-52.265404988013877,-54.102887622960772,-55.940773446901844,-57.778730426323712,-59.616687405743484,-61.454644385161082,-63.292601364576555,-65.131002050924579,-66.969466128768275,-68.807930206609953,-70.646394284449357,-72.484858362286559,-74.32369484728963,-76.162572714775635,-78.0014505822593,-79.840328449740383,-81.679206317219155,-83.518649630841963,-85.358138797225365,-87.197627963606465,-89.0371171299852,-90.876606296361714,-92.716498907887157,-94.556412757379391,-96.396326606868911,-98.236240456355759,-100.07615430583994,-101.91659299124881,-103.75704513907442,-105.59749728689711,-107.43794943471718,-109.27840158253431,0.1761447884233073,0.1761447884233073,0.1761447884233073,0.1761447884233073,0.1761447884233073,0.1761447884233073,0.1761447884233073,0.1761447884233073,0.1761447884233073,0.1761447884233073,0.1761447884233073,0.1761447884233073
DP 58,99.658932636864321,0.0035301231573638694,-216.07736350348372,-209.5278223306926,-202.97828115789954,-196.42873998510456,-189.87919881230772,-183.33181248659525,-176.86846601197274,-170.4051195373481,-163.9417730627215,-157.47842658809304,-151.02396314495218,-144.73827897938122,-138.45259481380859,-132.16691064823416,-125.88122648265822,-119.61498782557754,-113.58857955731146,-107.56217128904377,-101.53576302077407,-95.509354752502787,-89.516236827089145,-83.822735134052266,-78.129233441013767,-72.435731747973662,-66.742230054931952,-61.098234890272963,-55.800789167834559,-50.503343445394677,-45.205897722953125,-39.908452000509989,-34.678143134757434,-29.828280687494555,-24.978418240230116,-20.128555792964153,-15.278693345696663,-10.513986701958194,-6.1507334457340548,-1.7874801895084269,2.5757730667186753,6.9390263229472433,11.199690895387802,15.049995884272384,18.900300873158439,22.750605862045894,26.6009108509348,30.332645205023077,33.6559646137138,36.979284022405885,40.302603431099435,43.625922839794335,46.816855250370722,49.610621661241083,52.404388072112852,55.198154482985949,57.991920893860453,60.642168468039763,62.914043267089028,65.185918066139749,67.457792865191735,69.729667664245127,71.849907987445661,73.61632975610101,75.382751524757651,77.149173293415757,78.915595062075155,80.525407065792734,81.809948079882275,83.0944890939731,84.379030108065336,85.663571122158856,86.789625816054127,87.621344492350417,88.453063168647986,89.28478184494692,90.116500521247147,90.790761272104874,91.202588178397718,91.614415084692041,92.026241990987657,92.438068897284708,92.696064085168217,92.723308060345033,92.750552035523114,92.777796010702644,92.80503998588344,92.6842945229305,92.36332476411927,92.042355005309332,91.721385246500915,91.400415487693778,90.939086421185735,90.3062041415059,89.673321861827489,89.040439582150483,88.40755730247497,87.6432956123878,86.733822485924279,85.8243493594621,84.914876233001465,84.005403106542317,80.669605795585426,79.517181037220226,78.364756278856447,77.101291086484579,75.737358740360051,74.373426394237057,73.009494048115556,71.645561701995732,70.1812071527075,68.634687256824378,67.088167360942734,65.54164746506278,63.995127569184376,62.358692621096061,60.6557972433104,58.952901865526449,57.250006487744166,55.547111109963595,53.764459321534972,51.928635336231032,50.092811350928947,48.256987365628561,46.421163380329951,44.515211647609192,42.567182205867709,40.61915276412806,38.671123322390279,36.723093880654361,34.713905085815142,32.671783442252192,30.629661798691217,28.587540155132203,26.545418511575058,24.450361047576397,22.329815225062475,20.209269402550611,18.08872358004076,15.968177757532947,13.8021305430568,11.616582117618387,9.4310336921820479,7.24548526674788,5.0599368413157571,2.8355185723861176,0.59635606295615318,-1.6428064464716292,-3.8819689558971326,-6.1211314653204827,-8.3933229037295032,-10.676524401389543,-12.959725899047177,-15.242927396702513,-17.526128894355498,-19.837280216430333,-22.1565463445416,-24.475812472650453,-26.79507860075682,-29.114344728860754,-31.457201834325989,-33.805956962860023,-36.1547120913916,-38.503467219920452,-40.852222348446816,-43.220884840951349,-45.593770335711589,-47.96665583046903,-50.339541325223813,-52.712426819975889,-55.102148043456481,-57.494840465102406,-59.887532886745355,-62.280225308385482,-64.6729177300227,-67.080010537973052,-69.489160699524334,-71.898310861072773,-74.307461022618085,-76.716611184160513,-79.138088312499576,-81.560935233275131,-83.983782154047432,-86.406629074816408,-88.829475995582172,-91.263455552588283,-93.698337869532125,-96.133220186472727,-98.568102503410273,-101.00298482034472,-103.4477636435809,-105.89306343403246,-108.33836322448045,-110.7836630149247,-113.22896280536531,-115.68382773085685,-118.13893800894692,-120.5940482870332,-123.04915856511568,-125.50426884319448,0.23801454413368126,0.23801454413368126,0.23801454413368126,0.23801454413368126,0.23801454413368126,0.23801454413368126,0.23801454413368126,0.23801454413368126,0.23801454413368126,0.23801454413368126,0.23801454413368126,0.23801454413368126
DP 59,106.93604320657204,0.0025578409672734133,-162.67767526346981,-157.6672934674088,-152.65691167134642,-147.64652987528254,-142.63614807921726,-137.62750208291058,-132.68655293352415,-127.74560378413651,-122.80465463474761,-117.86370548535724,-112.92990048061999,-108.13183557486734,-103.33377066911346,-98.535705763358351,-93.737640857601889,-88.955183599195408,-84.365222625123849,-79.775261651050968,-75.185300676976709,-70.595339702901271,-66.0320201446336,-61.708475846824768,-57.384931549014823,-53.061387251203747,-48.737842953391478,-44.453774438772349,-40.446039391550521,-36.438304344327491,-32.430569297103304,-28.422834249878004,-24.46840293067029,-20.816029429120942,-17.163655927570471,-13.511282426018923,-9.85890892446627,-6.273804833829578,-3.0058315994481934,0.26214163493426107,3.5301148693177775,6.7980881037023462,9.9854823098354846,12.850556594749053,15.71563087966366,18.580705164579292,21.445779449495948,24.21831104492216,26.672080599994082,29.125850155066981,31.5796197101409,34.033389265215796,36.384548905033895,38.427874919557333,40.471200934081772,42.514526948607184,44.557852963133591,46.490776989016084,48.13263743199213,49.7744978749692,51.416358317947235,53.058218760926252,54.584370376810256,55.840531083828559,57.096691790847878,58.352852497868177,59.609013204889379,60.746689577497349,61.638279655777723,62.529869734059119,63.421459812341432,64.31304989062474,65.085815213082881,65.637902780022543,66.189990346963171,66.742077913904751,67.294165480847312,67.729311858360688,67.969553305915355,68.209794753470888,68.450036201027444,68.690277648584853,68.81739613419326,68.774827503750558,68.73225887330878,68.689690242868053,68.647121612428222,68.4968361845551,68.20081387038654,67.904791556219038,67.608769242052531,67.312746927886991,66.9156406545035,66.394985196616219,65.874329738730069,65.353674280844857,64.833018822960682,64.218775263277053,63.50109036033075,62.783405457385456,62.065720554441228,61.348035651498094,58.767146904120018,57.878328062246823,56.989509220374707,56.023369797884989,54.9872722675173,53.951174737150659,52.915077206785156,51.878979676420748,50.773772955459236,49.612021163595486,48.45026937173288,47.28851757987146,46.126765788011134,44.903874180279729,43.635791268817336,42.367708357356129,41.09962544589613,39.831542534437368,38.509886584534243,37.152514431704994,35.795142278876959,34.437770126050175,33.080397973224642,31.676502588111543,30.244692560038221,28.812882531966174,27.381072503895506,25.949262475826103,24.477387712802653,22.983939048348823,21.490490383896411,19.997041719445381,18.5035930549957,16.975908564822561,15.431739679152654,13.887570793484217,12.343401907817181,10.799233022151624,9.226016286217817,7.6403500793651613,6.0546838725139782,4.469017665664345,2.8833514588161719,1.2731957745379847,-0.34624934114668293,-1.9656944568297985,-3.5851395725112911,-5.204584688191253,-6.844563124560902,-8.4913862599368954,-10.138209395311179,-11.785032530683832,-13.431855666054805,-15.095820546213011,-16.764762271018604,-18.433703995822487,-20.102645720624604,-21.771587445424952,-23.454799965678038,-25.141580353404205,-26.828360741128588,-28.515141128851095,-30.201921516571769,-31.900577724820462,-33.60175318257545,-35.302928640328446,-37.004104098079573,-38.705279555828696,-40.416356862060113,-42.129181663425932,-43.8420064647897,-45.5548312661514,-47.267656067511091,-48.988838240035086,-50.711214413003262,-52.433590585969419,-54.15596675893336,-55.878342931895233,-57.607760374111095,-59.337960253525054,-61.068160132936754,-62.798360012345995,-64.528559891753062,-66.2650728909689,-68.002097829272472,-69.73912276757369,-71.4761477058728,-73.213172644169674,-74.955715407091773,-76.698548636733662,-78.441381866373192,-80.184215096010021,-81.927048325644265,-83.675199577087014,-85.4234872396162,-87.1717749021427,-88.920062564666452,-90.668350227187659,0.16924493723715345,0.16924493723715345,0.16924493723715345,0.16924493723715345,0.16924493723715345,0.16924493723715345,0.16924493723715345,0.16924493723715345,0.16924493723715345,0.16924493723715345,0.16924493723715345,0.16924493723715345
DP 60,165.1460906392964,0.0057035036220510786,-445.33747919192672,-430.05672128681863,-414.77596338170815,-399.49520547659438,-384.21444757147754,-368.94111679586314,-353.95744687905091,-338.973776962236,-323.99010704541814,-309.00643712859716,-294.05297094114241,-279.67338132148654,-265.29379170182756,-250.91420208216655,-236.53461246250274,-222.21994778657643,-208.70603226582392,-195.19211674506857,-181.67820122431084,-168.16428570355032,-154.75869150215931,-142.32799941377846,-129.89730732539525,-117.46661523700953,-105.03592314862141,-92.761246502588278,-81.578689750463582,-70.3961329983365,-59.213576246207033,-48.031019494075267,-37.052050983429453,-27.226762003479546,-17.401473023527341,-7.5761840435728756,2.2491049363838789,11.827438456510869,20.241540041707655,28.655641626906643,37.06974321210788,45.483844797311285,53.615060157585241,60.614717248771171,67.614374339959269,74.614031431149542,81.613688522341889,88.304162976412044,93.929662025146527,99.555161073883127,105.18066012262177,110.80615917136254,116.10686717568844,120.43318976691923,124.75951235815211,129.08583494938691,133.41215754062378,137.40878479736205,140.53620393108321,143.6636230648063,146.79104219853136,149.91846133225852,152.72113277972781,154.76604939408787,156.81096600844992,158.85588262281385,160.90079923717985,162.63430468537049,163.72102403921554,164.80774339306268,165.89446274691164,166.98118210076262,167.7763928568439,168.03022263028885,168.28405240373593,168.53788217718494,168.79171195063589,168.7785688811432,168.32046434419152,167.86235980724192,167.40425527029433,166.94615073334862,166.24837670458723,165.19109277464517,164.13380884470541,163.07652491476725,162.01924098483124,160.75070352921085,159.19634778168296,157.64199203415708,156.08763628663337,154.53328053911156,152.795836466141,150.83461392746366,148.87339138878852,146.91216885011528,144.9509463114442,142.83350246683869,140.54338985962971,138.253277252423,135.96316464521831,133.67305203801584,126.1458045744604,123.59292761375139,121.04005065304455,118.37815889123654,115.6176327276326,112.85710656403096,110.09658040043162,107.3360542368344,104.48619549097934,101.56324491531137,98.640294339645578,95.717343763982228,92.794393188321052,89.799084270867965,86.750291911327523,83.7014995517896,80.652707192253857,77.603914832720662,74.497141139623864,71.3517123107424,68.206283481863466,65.060854652986976,61.915425824112987,58.72399562745067,55.504963914420621,52.285932201393138,49.0669004883683,45.847868775346008,42.592670301895446,39.317996893058286,36.043323484223833,32.768650075392067,29.493976666562908,26.191099914339361,22.874643379622178,19.558186844907905,16.241730310196434,12.925273775487865,9.5869792580578732,6.2393253102992432,2.8916713625434984,-0.45598258520918611,-3.8036365329590094,-7.1681012868280733,-10.538942772530174,-13.909784258229212,-17.280625743925047,-20.651467229617911,-24.035195895207249,-27.423220449841395,-30.811245004472116,-34.199269559099683,-37.587294113723935,-40.985178146402625,-44.385924728440237,-47.786671310474439,-51.187417892505231,-54.588164474532576,-57.996461785798957,-61.406646868585121,-64.816831951367817,-68.227017034146868,-71.637202116922339,-75.0532018589376,-78.470435080135019,-81.887668301328489,-85.304901522518364,-88.722134743704316,-92.143879037585322,-95.566419453278854,-98.988959868968379,-102.41150028465398,-105.83404070033545,-109.26021851471677,-112.68691599677278,-116.11361347882499,-119.54031096087277,-122.96700844291647,-126.39650944751347,-129.82632198405568,-133.25613452059341,-136.68594705712641,-140.115759593655,-143.54825699543554,-146.98097211642462,-150.41368723740931,-153.84640235838964,-157.27911747936562,-160.71387812177363,-164.14874644355149,-167.58361476532411,-171.01848308709191,-174.45335140885459,-177.89032830505974,-181.32735928771211,-184.76439027035971,-188.20142125300202,-191.63845223563919,0.33059504621953634,0.33059504621953634,0.33059504621953634,0.33059504621953634,0.33059504621953634,0.33059504621953634,0.33059504621953634,0.33059504621953634,0.33059504621953634,0.33059504621953634,0.33059504621953634,0.33059504621953634
DP 61,93.7184221977001,0.0026208169424905294,-154.95965545390385,-150.32609077029392,-145.69252608668253,-141.05896140306965,-136.42539671945536,-131.79329032385564,-127.21805771224972,-122.64282510064217,-118.06759248903337,-113.49235987742304,-108.92314736911615,-104.46831796165785,-100.01348855419828,-95.558659146737412,-91.10382973927517,-86.662202540837114,-82.383404250895722,-78.104605960952981,-73.825807671009017,-69.547009381063731,-65.290866467360189,-61.238624081257285,-57.186381695153258,-53.134139309047917,-49.081896922941425,-45.063445112331664,-41.281529885345996,-37.499614658359135,-33.7176994313711,-29.935784204381886,-26.199856577625663,-22.72452825006291,-19.249199922498978,-15.77387159493391,-12.29854326736772,-8.881785746465793,-5.7411509062316135,-2.6005160659963225,0.54011877424006893,3.6807536144775521,6.7504957570007695,9.5366637582344413,12.322831759469182,15.108999760705005,17.89516776194187,20.598969902265949,23.0190639504142,25.43915799856347,27.859252046713848,30.279346094865211,32.606949409496139,34.657077026631988,36.707204643768883,38.757332260906786,40.807459878045748,42.756696895578038,44.439946137312035,46.123195379047011,47.806444620782983,49.489693862520014,51.065636146919317,52.391192149938064,53.716748152957834,55.042304155978591,56.367860159000372,57.581802803330064,58.563929841199908,59.546056879070832,60.528183916942773,61.510310954815616,62.378642113844982,63.035634996131677,63.692627878419493,64.34962076070822,65.006613642997948,65.549659408720416,65.902790441388163,66.25592147405689,66.609052506726627,66.962183539397387,67.203078662429292,67.27561726883701,67.348155875245752,67.420694481655588,67.493233088066333,67.456877737581735,67.273192847113933,67.089507956647282,66.905823066181668,66.722138175717063,66.434261139525248,66.019035958920824,65.603810778317339,65.188585597714976,64.773360417113707,64.259721101060521,63.637306308515868,63.014891515972259,62.392476723429752,61.770061930888346,59.443577320937614,58.637466088206878,57.831354855477329,56.940478681171463,55.972908890758546,55.005339100346745,54.037769309936145,53.0701995195267,52.025216257121876,50.916893369047131,49.808570480973536,48.700247592901185,47.591924704830049,46.413591282594624,45.183509792938374,43.953428303283431,42.7233468136297,41.4932653239773,40.200446581054607,38.865802014286423,37.531157447519611,36.196512880754113,34.861868313989937,33.471484584358393,32.047656514042735,30.623828443728446,29.200000373415559,27.776172303104048,26.303216690824755,24.803807072319021,23.304397453814786,21.804987835311994,20.30557821681062,18.763187266023227,17.200100997818684,15.637014729615663,14.073928461414178,12.510842193214213,10.910404807123463,9.2939592947280012,7.6775137823340964,6.0610682699418277,4.44462275755111,2.7959129007360564,1.1349644236700189,-0.52598405339437571,-2.1869325304570535,-3.847881007518112,-5.53655798013977,-7.2344781340707724,-8.9323982879999519,-10.630318441927422,-12.328238595853092,-14.049895916941068,-15.778444963160252,-17.506994009377607,-19.235543055593098,-20.964092101806752,-22.712914274270847,-24.466804967825706,-26.220695661378681,-27.974586354929681,-29.728477048478748,-31.499682237111731,-33.274560395801387,-35.049438554489022,-36.8243167131746,-38.59919487185816,-40.388897290986669,-42.181215920922007,-43.973534550855113,-45.765853180786173,-47.55817181071496,-49.363320487570725,-51.170302166866669,-52.977283846160454,-54.784265525451914,-56.5912472047411,-58.4093604738433,-60.228710703163429,-62.048060932481192,-63.867411161796362,-65.686761391109144,-67.516239825014722,-69.346539568191034,-71.17683931136493,-73.007139054536523,-74.837438797705659,-76.676864370869723,-78.516770341671091,-80.3566763124698,-82.1965822832657,-84.036488254058867,-85.88524438403,-87.734227526954413,-89.5832106698759,-91.432193812794623,-93.28117695571045,0.17950104413247089,0.17950104413247089,0.17950104413247089,0.17950104413247089,0.17950104413247089,0.17950104413247089,0.17950104413247089,0.17950104413247089,0.17950104413247089,0.17950104413247089,0.17950104413247089,0.17950104413247089
DP 62,105.22513384914566,0.0016957053310673953,-106.91897128580885,-103.63807065424149,-100.35717002267313,-97.076269391103679,-93.795368759533361,-90.515591335001346,-87.279619409670033,-84.043647484337811,-80.807675559004636,-77.571703633670566,-74.340356318090429,-71.196877462099422,-68.053398606107621,-64.909919750115,-61.766440894121587,-58.63306970822898,-55.624361060775406,-52.615652413320959,-49.606943765865687,-46.59823511840959,-43.606791873345443,-40.770738881762782,-37.934685890179345,-35.098632898595156,-32.262579907010171,-29.452131691567779,-26.820918845282893,-24.189705998997258,-21.558493152710867,-18.927280306423722,-16.330676241951892,-13.930190788611922,-11.529705335271224,-9.1292198819297887,-6.7287344285876234,-4.3719763339414186,-2.2213638635279311,-0.07075139311372855,2.079861077301179,4.2304735477167865,6.3286355130796164,8.216992979388559,10.105350445698171,11.993707912008484,13.882065378319474,15.710095757531121,17.330330302427594,18.950564847324767,20.570799392222614,22.191033937121109,23.744269454909357,25.096505358235977,26.44874126156326,27.800977164891229,29.153213068219817,30.433234640768053,31.5228704955199,32.61250635027239,33.702142205025524,34.791778059779361,35.805585401989823,36.642457159133208,37.479328916277204,38.316200673421889,39.153072430567185,39.912140465119947,40.509613889950757,41.107087314782177,41.704560739614244,42.302034164446944,42.82131473145202,43.195377879383507,43.569441027315584,43.943504175248364,44.317567323181741,44.614507086476777,44.782905931430683,44.951304776385278,45.119703621340506,45.288102466296365,45.381722713067489,45.363173295522223,45.344623877977583,45.326074460433617,45.307525042890326,45.217599949019892,45.031106176234061,44.844612403448956,44.658118630664511,44.471624857880713,44.2179840235155,43.882273147925311,43.546562272335748,43.210851396746925,42.875140521158748,42.477103071169878,42.010177114490354,41.5432511578115,41.076325201133372,40.60939924445595,38.922949484924516,38.341754556434019,37.760559627944247,37.127597442965879,36.447797284383945,35.767997125802744,35.088196967222309,34.408396808642586,33.682200067919609,32.91804168990582,32.153883311892834,31.38972493388053,30.62556655586905,29.82024666044018,28.984502358114845,28.148758055790317,27.313013753466567,26.47726945114362,25.605354885909005,24.709326242258058,23.813297598607981,22.9172689549587,22.021240311310258,21.093710093903532,20.14727845583209,19.200846817761533,18.254415179691858,17.307983541623038,16.334343694070135,15.346052876526262,14.35776205898336,13.369471241441357,12.381180423900243,11.369570408660605,10.346732305025034,9.3238942013904378,8.3010560977568,7.2782179941241241,6.2355345777458862,5.1843457593630067,4.133156940981114,3.0819681226002547,2.0307793042203643,0.96280828347188308,-0.11152861903943599,-1.1858655215497222,-2.2602024240589267,-3.3345393265671119,-4.42299094242578,-5.5161476406189331,-6.6093043388109409,-7.7024610370018749,-8.7956177351916836,-9.90059471208147,-11.009003526949797,-12.117412341816971,-13.225821156682978,-14.334229971547833,-15.452510585226809,-16.573259265244968,-17.694007945261927,-18.814756625277649,-19.935505305292171,-21.064495371881378,-22.195233705801733,-23.325972039720785,-24.456710373638575,-25.587448707555058,-26.725080942830576,-27.863929825594131,-29.002778708356288,-30.141627591117153,-31.280476473876575,-32.425161565914024,-33.570680465177873,-34.716199364440428,-35.861718263701484,-37.007237162961168,-38.157691221894851,-39.30869368373277,-40.45969614556914,-41.61069860740389,-42.761701069237155,-43.9171350496255,-45.072928387611249,-46.228721725595435,-47.384515063578206,-48.5403084015595,-49.699990594452181,-50.859877502610033,-52.0197644107662,-53.179651318920584,-54.339538227073312,-55.503175107212876,-56.666908176832656,-57.830641246450526,-58.994374316066846,-60.158107385681269,0.11269245904159571,0.11269245904159571,0.11269245904159571,0.11269245904159571,0.11269245904159571,0.11269245904159571,0.11269245904159571,0.11269245904159571,0.11269245904159571,0.11269245904159571,0.11269245904159571,0.11269245904159571
DP 63,83.6540040674281,0.0034811673964540439,-192.48128890763377,-186.86402066311365,-181.24675241859157,-175.62948417406736,-170.01221592954133,-164.39657903972622,-158.84456560050862,-153.29255216128931,-147.74053872206792,-142.18852528284464,-136.6432677633444,-131.22637399577087,-125.80948022819571,-120.39258646061883,-114.97569269304022,-109.5736548180908,-104.35484149118317,-99.136028164273654,-93.917214837362451,-88.698401510449557,-83.505188098411111,-78.542376339993353,-73.57956458157382,-68.6167528231528,-63.65394106473007,-58.729502786299008,-54.073681769503253,-49.417860752706105,-44.762039735907294,-40.10621871910692,-35.502939208215544,-31.197398208338633,-26.891857208460177,-22.586316208580211,-18.280775208698728,-14.042625279114279,-10.122179749440107,-6.2017342197644441,-2.2812886900873157,1.6391568395912683,5.4773798908564251,8.9867091425823951,12.496038394309812,16.005367646038646,19.514696897768896,22.927643805009723,26.008603032263736,29.089562259519141,32.170521486775982,35.251480714034216,38.223146393850257,40.866927299117123,43.510708204385431,46.154489109655067,48.798270014926068,51.321563219359291,53.527202889351457,55.732842559344988,57.938482229339783,60.144121899336064,62.220143824353279,63.993720260546411,65.767296696740956,67.540873132936781,69.314449569133927,70.95156333672729,72.305250669955967,73.658938003185938,75.0126253364174,76.3663126696502,77.579074330384771,78.530113079206913,79.481151828030448,80.432190576855419,81.38322932568164,82.191244095628932,82.7608819624342,83.330519829240771,83.900157696048765,84.469795562858053,84.896560484126269,85.10901261095492,85.321464737785,85.533916864616444,85.7463689914493,85.81815743353161,85.6996330560834,85.581108678636483,85.462584301191086,85.344059923747011,85.088887853061834,84.6666990648393,84.244510276618257,83.822321488398572,83.400132700180407,82.846834580633569,82.1486235385449,81.450412496457687,80.7522014543719,80.053990412287689,77.337584493637664,76.390663864435368,75.443743235234564,74.380139547629312,73.210963373084823,72.041787198541812,70.872611024000591,69.703434849460876,68.42586716919952,67.059613666932947,65.693360164668007,64.327106662404773,62.96085316014311,61.49485329679284,59.955126222527646,58.415399148264328,56.875672074002594,55.335944999742679,53.705230679323904,52.0138567614309,50.322482843539682,48.631108925650274,46.939735007762664,45.166042306762876,43.342957090958727,41.519871875156426,39.696786659356086,37.873701443557536,35.976706040328629,34.039911769088526,32.103117497850469,30.166323226614349,28.229528955380161,26.226837945035214,24.19241795235952,22.15799795968589,20.123577967014342,18.089157974344886,15.996357817061126,13.878536800921804,11.760715784784626,9.64289476864966,7.5250737525168043,5.355819742110107,3.1670559943593588,0.97829224661085623,-1.2104715011353104,-3.3992352488792679,-5.63310219810818,-7.882004116257562,-10.130906034404488,-12.379807952549061,-14.628709870691205,-16.917029649193733,-19.216793803388491,-21.51655795758073,-23.816322111770479,-26.116086265957673,-28.4502380978229,-30.792987255400547,-33.135736412975632,-35.478485570547988,-37.821234728117744,-40.193998422075772,-42.573129179751014,-44.952259937423456,-47.331390695093148,-49.71052145276,-52.115929267334636,-54.525974501800746,-56.936019736263745,-59.346064970723894,-61.756110205181038,-64.189393894806273,-66.62599761476983,-69.062601334730417,-71.4992050546878,-73.935808774642254,-76.393057741875637,-78.852600842293811,-81.312143942708587,-83.77168704311994,-86.231230143527966,-88.709842402710123,-91.190001004756141,-93.670159606798876,-96.150318208838485,-98.630476810874811,-101.12820202390066,-103.62685197017662,-106.12550191644875,-108.62415186271713,-111.12280180898181,-113.63861147402548,-116.15486129820904,-118.67111112238869,-121.18736094656448,-123.70361077073642,0.24498475457896324,0.24498475457896324,0.24498475457896324,0.24498475457896324,0.24498475457896324,0.24498475457896324,0.24498475457896324,0.24498475457896324,0.24498475457896324,0.24498475457896324,0.24498475457896324,0.24498475457896324
DP 64,269.86316555907445,0.0051480847116316042,-479.75590858893526,-460.80484879172354,-441.85378899450916,-422.9027291972925,-403.9516694000734,-385.01454659054104,-366.62097157026557,-348.22739654998719,-329.83382152970705,-311.44024650942447,-293.10231815875591,-275.82168705038509,-258.54105594201241,-241.26042483363764,-223.97979372526075,-206.81538404200424,-191.08438658244683,-175.35338912288736,-159.62239166332571,-143.89139420376213,-128.34672181673446,-114.47899269422165,-100.61126357170673,-86.743534449190065,-72.87580532667134,-59.263373196547725,-47.438039317976646,-35.612705439403719,-23.787371560828912,-11.962037682252216,-0.45056300416956235,9.2823564268814636,19.015275857934324,28.748195288988978,38.48111472004544,47.858528047234046,55.559964825981289,63.261401604730395,70.962838383481213,78.664275162233707,85.988557849705714,91.804206347533466,97.619854845363221,103.43550334319451,109.25115184102745,114.68786808326998,118.81935730420354,122.95084652513879,127.08233574607557,131.21382496701406,134.98186455233858,137.65954148934969,140.33721842636248,143.01489536337687,145.69257230039284,148.03544015621392,149.49561801741743,150.95579587862244,152.41597373982898,153.87615160103741,155.03869071471394,155.50673003976561,155.9747693648188,156.44280868987337,156.91084801492971,157.12255659530481,156.80187848175035,156.48120036819734,156.16052225464585,155.83984414109582,155.30461828721766,154.37094083578819,153.43726338436016,152.50358593293385,151.5699084815088,150.4612301517362,149.06087928037635,147.6605284090179,146.26017753766104,144.85982666630579,143.32004446183038,141.57111196287369,139.82217946391853,138.07324696496494,136.32431446601288,134.46664762936004,132.46186721165503,130.45708679395176,128.45230637625002,126.44752595854995,124.35959986919687,122.1700495458189,119.98049922244243,117.79094889906757,115.60139857569438,113.34940623854273,111.02839780151204,108.70738936448282,106.38638092745533,104.0653724904295,96.871730120905326,94.458474686119459,92.045219251335183,89.598407722018067,87.1212353125506,84.644062903084844,82.166890493620812,79.689718084158471,77.188466537614261,74.667513465096633,72.146560392580767,69.625607320066649,67.104654247554251,64.566633942574327,62.015998446081511,59.4653629495906,56.914727453101435,54.364091956614153,51.801486596445656,49.230901138589608,46.660315680735508,44.089730222883247,41.519144765032934,38.94023445498766,36.3563291077264,33.772423760467142,31.188518413209916,28.604613065954581,26.014948691422944,23.4221832184589,20.829417745496997,18.236652272537157,15.64388679957931,13.047140900643216,10.448478444572883,7.8498159885047549,5.2511535324387735,2.6524910763749934,0.051061673088055919,-2.5515536020837883,-5.1541688772534249,-7.7567841524207326,-10.35939942758586,-12.963967654949249,-15.569276682744356,-18.174585710537148,-20.7798947383275,-23.385203766115563,-25.991930759481946,-28.599130425909891,-31.206330092335261,-33.8135297587582,-36.420729425178671,-39.029004267433685,-41.637591270622892,-44.246178273809505,-46.854765276993575,-49.463352280174931,-52.072803131916331,-54.682469956002073,-57.292136780085066,-59.901803604165359,-62.511470428242923,-65.121880092303343,-67.73244733698985,-70.343014581673444,-72.953581826354181,-75.564149071032077,-78.175385781314347,-80.786740640027773,-83.39809549873813,-86.009450357445544,-88.620805216149719,-91.232854436928733,-93.84500285978784,-96.457151282643792,-99.069299705496533,-101.68144812834625,-104.294167056494,-106.90694938010782,-109.51973170371834,-112.13251402732517,-114.74529635092875,-117.35891089002386,-119.97259291455192,-122.58627493907655,-125.1999569635979,-127.81363898811603,-130.42791285663876,-133.04221788073065,-135.656522904819,-138.27082792890329,-140.88513295298398,-143.50019904070732,-146.11528465025725,-148.73037025980324,-151.3454558693453,-153.96054147888339,0.25045159897892938,0.25045159897892938,0.25045159897892938,0.25045159897892938,0.25045159897892938,0.25045159897892938,0.25045159897892938,0.25045159897892938,0.25045159897892938,0.25045159897892938,0.25045159897892938,0.25045159897892938
DP 65,102.28080769799773,0.0011932268931620165,-74.087856349625142,-71.829019218997956,-69.570182088370188,-67.31134495774171,-65.052507827112535,-62.794428076461912,-60.565886431358273,-58.337344786254036,-56.108803141149089,-53.880261496043488,-51.654840095249789,-49.488703926252427,-47.322567757254504,-45.156431588255991,-42.99029541925691,-40.830984888365123,-38.755858087693682,-36.680731287021665,-34.605604486349009,-32.530477685675727,-30.467023692831962,-28.508626073786203,-26.550228454739869,-24.591830835693013,-22.6334332166456,-20.692371878902133,-18.872665821206152,-17.052959763509623,-15.233253705812553,-13.413547648114964,-11.617314956350583,-9.9540994840300634,-8.2908840117090374,-6.6276685393874946,-4.9644530670654365,-3.3309571447052138,-1.8375692773821533,-0.34418141005858532,1.1492064572654792,2.6425943245900392,4.1002528684991013,5.4149924301565617,6.7297319918145035,8.0444715534729383,9.3592111151318473,10.63274916728745,11.76436917807994,12.895989188872884,14.027609199666317,15.159229210460207,16.244962267140561,17.193032726564645,18.141103185989177,19.089173645414185,20.037244104839651,20.935704677265345,21.7033738424428,22.471043007620743,23.238712172799122,24.006381337977956,24.721787734500662,25.315246024179917,25.908704313859676,26.502162603539862,27.095620893220492,27.635268596323741,28.06315428538522,28.491039974447123,28.918925663509526,29.34681135257236,29.720419489697246,29.993224993115692,30.266030496534608,30.538835999953964,30.811641503373782,31.030706223770057,31.160201617889964,31.289697012010269,31.41919240613106,31.548687800252313,31.625867496140462,31.624572408444298,31.623277320748613,31.621982233053362,31.62068714535862,31.569249859840149,31.449972015031463,31.330694170223271,31.211416325415563,31.092138480608305,30.92548606894195,30.700930413804173,30.476374758666804,30.25181910352995,30.027263448393562,29.75853962684544,29.440997479300336,29.123455331755761,28.805913184211636,28.488371036668013,27.3323794468784,26.933491086694847,26.534602726511814,26.098690407774747,25.629279555194522,25.159868702614819,24.69045785003561,24.221046997456924,23.71829506110382,23.188263483219803,22.65823190533629,22.128200327453349,21.598168749570927,21.038414252147813,20.456690151682867,19.874966051218529,19.2932419507547,18.7115178502915,18.103545714191334,17.4780744741679,16.852603234145068,16.227131994122793,15.601660754101133,14.953214338671678,14.290982470535617,13.628750602400157,12.966518734265335,12.304286866131118,11.622109665651658,10.929192380793596,10.2362750959362,9.5433578110794617,8.85044052622335,8.1403401169437863,7.4219661108433019,6.7035921047434952,5.9852180986443733,5.2668440925459432,4.5337698364614321,3.7943952747428664,3.055020713024994,2.3156461513078521,1.5762715895914006,0.82439944703611778,0.067786679847993234,-0.68882608733939854,-1.4454388545260255,-2.202051621711929,-2.9692323263279019,-3.7399358099390931,-4.5106392935494721,-5.2813427771590913,-6.0520462607679137,-6.8316483263564773,-7.6138339597583444,-8.3960195931593926,-9.17820522655963,-9.960390859959027,-10.750049557865573,-11.541576610193472,-12.333103662520541,-13.1246307148467,-13.916157767172026,-14.713958769170972,-15.513090680860051,-16.312222592548157,-17.1113545042354,-17.910486415921717,-18.714896563883546,-19.520238223999652,-20.325579884114781,-21.130921544228944,-21.936263204342151,-22.746097345570465,-23.556573318343979,-24.3670492911165,-25.177525263887993,-25.988001236658537,-26.802300535925916,-27.617024689401397,-28.431748842875745,-29.246472996349034,-30.061197149821208,-30.87936434192304,-31.697810734500905,-32.516257127077679,-33.334703519653438,-34.153149912228137,-34.974638574933124,-35.796287387386748,-36.617936199839228,-37.439585012290436,-38.261233824740422,-39.085819469252236,-39.910480445620053,-40.735141421986583,-41.559802398351891,-42.384463374715942,0.079904030990933878,0.079904030990933878,0.079904030990933878,0.079904030990933878,0.079904030990933878,0.079904030990933878,0.079904030990933878,0.079904030990933878,0.079904030990933878,0.079904030990933878,0.079904030990933878,0.079904030990933878
DP 66,111.13580582844098,0.0052635113342415227,-341.62659657848843,-331.01043116051852,-320.39426574254554,-309.77810032457006,-299.16193490659123,-288.54955507065586,-278.08481436578546,-267.6200736609124,-257.15533295603655,-246.6905922511578,-236.24141418397386,-226.08792917504252,-215.93444416610888,-205.78095915717245,-195.62747414823366,-185.50794909047389,-175.80726771053372,-166.10658633059097,-156.40590495064569,-146.7052235706978,-137.06241204119567,-127.94043463565643,-118.81845723011482,-109.69647982457074,-100.57450241902421,-91.538098608811936,-83.100716436766035,-74.663334264717818,-66.225952092667228,-57.788569920614279,-49.466446586572886,-41.79746393087342,-34.128481275171715,-26.459498619467723,-18.79051596376155,-11.266569057948413,-4.4263699496099207,2.4138291587307781,9.2540282670736538,16.094227375418679,22.761262110443703,28.735631168335519,34.710000226229461,40.684369284125545,46.658738342023668,52.434958035338646,57.528654926504643,62.622351817672559,67.716048708842649,72.809745600014722,77.68461441056526,81.902990705695728,86.121367000828229,90.339743295962776,94.558119591099413,98.5420638965986,101.90795217167825,105.27384044675982,108.63972872184351,112.00561699692918,115.12693850460973,117.67759651610065,120.22825452759361,122.77891253908858,125.32957055058552,127.63102084840341,129.41487864691928,131.19873644543696,132.98259424395678,134.76645204247845,136.30167517910033,137.37514151469975,138.44860785030093,139.52207418590433,140.59554052150958,141.42563692986232,141.85011065850077,142.27458438714132,142.69905811578391,143.12353184442841,143.31390390903073,143.15311794568186,142.99233198233495,142.83154601899014,142.67076005564729,142.28836306808722,141.60613447201604,140.92390587594696,140.24167727987995,139.55944868381491,138.67050880893228,137.52891747358797,136.38732613824567,135.24573480290553,134.10414346756744,132.77235734190705,131.23035213695948,129.68834693201424,128.14634172707107,126.60433652213007,121.11439601925001,119.22682020582175,117.33924439239547,115.29655342702135,113.11351738861769,110.93048135021603,108.74744531181682,106.56440927341978,104.24365505642045,101.8102199628791,99.376784869339971,96.943349775803242,94.509914682268828,91.955469914377915,89.311581224056,86.6676925337366,84.023803843419472,81.379915153104918,78.630725688714762,75.811334049417638,72.991942410123031,70.17255077083108,67.353159131541631,64.442964768703291,61.478287398493229,58.513610028285811,55.5489326580811,52.584255287879024,49.541937224534529,46.457811505086447,43.3736857856411,40.289560066198483,37.20543434675853,34.055441609402386,30.873734200336841,27.692026791274252,24.510319382214622,21.328611973157955,18.091426043463525,14.830462855799258,11.569499668138009,8.3085364804799156,5.0475732928247954,1.7401822585191049,-1.5848199436050974,-4.90982214572614,-8.2348243478438778,-11.559826549958498,-14.923466567130733,-18.299986342931685,-21.676506118729144,-25.0530258945233,-28.429545670314006,-31.838079224773182,-35.255907492517572,-38.673735760258438,-42.091564027995773,-45.509392295729526,-48.953670660737885,-52.404561862573345,-55.855453064405253,-59.306344266233268,-62.757235468057637,-66.2299699714386,-69.707338152680308,-73.184706333917944,-76.662074515151772,-80.139442696381579,-83.634883025929625,-87.133512759083416,-90.632142492232873,-94.130772225378323,-97.629401958519423,-101.14317711179794,-104.65911606012783,-108.17505500845358,-111.69099395677483,-115.20693290509189,-118.73551991412106,-122.26551239605926,-125.79550487799283,-129.3254973599214,-132.85548984184544,-136.39678736716408,-139.93900163313927,-143.48121589910983,-147.02343016507606,-150.56564443103761,-154.11764192418218,-157.67015442135468,-161.222666918522,-164.77517941568397,-168.32769191284063,-171.88962483405206,-175.45179939591895,-179.01397395778048,-182.5761485196366,-186.13832308148721,0.34458722997074648,0.34458722997074648,0.34458722997074648,0.34458722997074648,0.34458722997074648,0.34458722997074648,0.34458722997074648,0.34458722997074648,0.34458722997074648,0.34458722997074648,0.34458722997074648,0.34458722997074648
DP 67,212.60632236809298,0.0013158574639850933,-113.25253641683484,-109.08442274751755,-104.91630907819976,-100.7481954088813,-96.580081739562232,-92.414466213100312,-88.346279202607391,-84.278092192113874,-80.209905181619632,-76.14171817112485,-72.0836042476602,-68.216880882023034,-64.3501575163854,-60.483434150747122,-56.616710785108239,-52.771358513825668,-49.189585766307694,-45.607813018789088,-42.026040271269913,-38.44426752375017,-34.897507347442762,-31.66586362148227,-28.434219895521245,-25.20257616955967,-21.970932443597594,-18.788581869650208,-15.951287087206154,-13.113992304761561,-10.276697522316436,-7.4394027398708271,-4.6646994822271681,-2.2446854759459778,0.17532853033570495,2.5953425366178826,5.0153565429005527,7.3617954137535859,9.3613761007751055,11.360956787797127,13.360537474819605,15.360118161842555,17.278344162771759,18.871147574455847,20.463950986140389,22.056754397825383,23.649557809510849,25.156833094344965,26.36950790481599,27.582182715287484,28.794857525759433,30.007532336231815,31.134067874406597,32.002182338895068,32.870296803383994,33.738411267873374,34.606525732363181,35.391054886825557,35.955219896459518,36.519384906093912,37.083549915728724,37.647714925364042,38.133389383177857,38.43591674706952,38.738444110961595,39.040971474854096,39.343498838747024,39.574443688950957,39.656715082705155,39.738986476459779,39.821257870214836,39.903529263970327,39.922213331719433,39.822804933929135,39.723396536139305,39.623988138349851,39.524579740560881,39.370017250119034,39.123529881728523,38.877042513338431,38.630555144948715,38.384067776559519,38.090769592891796,37.727254080153649,37.363738567416,37.000223054678749,36.636707541941888,36.234245822583063,35.77909131044408,35.323936798305525,34.868782286167381,34.413627774029685,33.926658039447922,33.400802364721088,32.874946689994658,32.349091015268748,31.823235340543228,31.271824757537264,30.692168767383855,30.112512777230876,29.532856787078344,28.953200796926275,27.113187572930546,26.493113404956709,25.873039236983313,25.237212410619119,24.58713289543314,23.937053380247594,23.286973865062535,22.636894349877945,21.974697983169005,21.302587620613341,20.630477258058146,19.958366895503424,19.286256532949213,18.60493909847105,17.916816285568714,17.228693472666944,16.540570659765642,15.852447846864852,15.157406338688437,14.457752258001333,13.758098177314766,13.05844409662871,12.358790015943189,11.653988171647782,10.946097591335134,10.23820701102302,9.5303164307114869,8.822425850400478,8.1107377102283316,7.3970046749082021,6.6832716395886731,5.9695386042697169,5.255805568951315,4.53929006717802,3.821434820370933,3.1035795735644585,2.385724326758583,1.6678690799533162,0.94798434813654608,0.22722980962536871,-0.49352472888519416,-1.2142792673951079,-1.935033805904415,-2.657266553696604,-3.3800600208331915,-4.102853487969135,-4.8256469551044008,-5.5484404222390307,-6.272313841201445,-6.9965472577164274,-7.7207806742307117,-8.4450140907443174,-9.1692475072572144,-9.8942771254663668,-10.619537908716842,-11.344798691966593,-12.070059475215617,-12.795320258463919,-13.521178233184001,-14.247185512827325,-14.973192792469915,-15.699200072111724,-16.425207351752778,-17.151675280567545,-17.878240928120491,-18.6048065756726,-19.331372223223944,-20.05793787077447,-20.784869292654623,-21.511865267012677,-22.238861241369886,-22.965857215726253,-23.692853190081774,-24.4201689108768,-25.1475303131879,-25.874891715498133,-26.602253117807447,-27.329614520115925,-28.057223682239517,-28.784860375832658,-29.512497069424839,-30.240133763016026,-30.967770456606278,-31.695703490491145,-32.423660554994854,-33.151617619497614,-33.879574683999458,-34.60753174850035,-35.335701019302917,-36.063881460968467,-36.792061902632987,-37.520242344296413,-38.2484227859588,-38.976854900443833,-39.705293470516949,-40.4337320405889,-41.162170610659835,-41.890609180729612,0.0698934119495291,0.0698934119495291,0.0698934119495291,0.0698934119495291,0.0698934119495291,0.0698934119495291,0.0698934119495291,0.0698934119495291,0.0698934119495291,0.0698934119495291,0.0698934119495291,0.0698934119495291
DP 68,89.986868526543745,0.001267577581640746,-73.204927662336,-71.035184016240947,-68.865440370145166,-66.695696724048688,-64.525953077951385,-62.356872835310909,-60.213665578334989,-58.070458321358352,-55.927251064381025,-53.784043807403016,-51.643577945624756,-49.555199110895344,-47.466820276165294,-45.378441441434624,-43.290062606703344,-41.207701865557731,-39.199565037092555,-37.191428208626775,-35.183291380160334,-33.17515455169324,-31.177360828644257,-29.2726560320063,-27.367951235367762,-25.463246438728657,-23.558541642088922,-21.669291592579558,-19.888225941626743,-18.107160290673356,-16.326094639719411,-14.545028988764876,-12.785044867855705,-11.144524078973285,-9.50400329009032,-7.8634825012067884,-6.2229617123227143,-4.6093597864727318,-3.1226625260153749,-1.6359652655574781,-0.14926800509904983,1.3374292553599065,2.7914471751592815,4.11474618787451,5.4380452005902589,6.7613442133065229,8.0846432260233136,9.3698500681298782,10.523848944570886,11.677847821012412,12.831846697454422,13.985845573896963,15.09691431221335,16.079191013028179,17.061467713843527,18.043744414659368,19.026021115475714,19.961285740342152,20.77260782183663,21.583929903331605,22.395251984827038,23.206574066323,23.967683828257154,24.611629929171585,25.255576030086512,25.899522131001927,26.543468231917821,27.134952284846538,27.61747517387175,28.099998062897455,28.582520951923616,29.065043840950295,29.493825959751195,29.82280233966457,30.1517787195785,30.480755099492843,30.809731479407688,31.084628137071721,31.269390561203966,31.454152985336734,31.638915409469956,31.823677833603696,31.954895642406132,32.005795262937383,32.056694883469135,32.107594504001376,32.158494124534116,32.157162566251635,32.085164133819212,32.013165701387308,31.941167268955919,31.869168836525034,31.746914995115496,31.563236820466187,31.379558645817351,31.195880471169005,31.012202296521188,30.780781137269404,30.496590466040622,30.212399794812367,29.928209123584672,29.644018452357482,28.567331387945107,28.193494526958929,27.819657665973342,27.404201691357141,26.951089578906785,26.497977466456955,26.04486535400774,25.591753241559058,25.100393710936419,24.577740180864737,24.055086650793569,23.532433120723034,23.009779590653082,22.452314657456029,21.86911898448481,21.285923311514235,20.702727638544246,20.119531965574904,19.504937608365921,18.86941030035771,18.233882992350157,17.598355684343254,16.962828376336969,16.299218778609081,15.618759382349515,14.938299986090623,14.257840589832417,13.577381193574869,12.872002371076082,12.153205033615178,11.434407696155011,10.715610358695532,9.9968130212367363,9.25606297704612,8.5047428036896964,7.753422630334021,7.00210245697909,6.250782283624905,5.480250345500437,4.7014845344868368,3.9227187234739969,3.1439529124619559,2.3651871014506707,1.5697065391261305,0.76788568080105291,-0.033935177523222483,-0.83575603584666014,-1.6375768941693059,-2.4538684263239912,-3.2749836987932763,-4.0960989712616751,-4.9172142437292363,-5.7383295161959191,-6.5719257429999027,-7.4091456248963858,-8.24636550679198,-9.0835853886866627,-9.9208052705804466,-10.768766928305237,-11.619414156902536,-12.470061385498902,-13.320708614094311,-14.171355842688778,-15.031249524005672,-15.89310468001859,-16.754959836030508,-17.616814992041434,-18.478670148051343,-19.348505968116093,-20.219750229406269,-21.090994490695373,-21.962238751983431,-22.833483013270428,-23.711688285056496,-24.590888062108586,-25.470087839159635,-26.349287616209526,-27.228487393258355,-28.113779150142921,-28.999747857654874,-29.885716565165609,-30.771685272675143,-31.65765398018344,-32.549194818294,-33.4411875077155,-34.3331801971358,-35.225172886554979,-36.117165575972962,-37.014220856324,-37.911542639198721,-38.8088644220721,-39.706186204944153,-40.603507987814872,-41.5057516667009,-42.408121595762687,-43.310491524823057,-44.21286145388207,-45.115231382939733,0.087688938115134729,0.087688938115134729,0.087688938115134729,0.087688938115134729,0.087688938115134729,0.087688938115134729,0.087688938115134729,0.087688938115134729,0.087688938115134729,0.087688938115134729,0.087688938115134729,0.087688938115134729
DP 69,100.72615640168553,0.0020773651850714359,-127.90512252235627,-124.01890966538949,-120.13269680842147,-116.24648395145233,-112.36027109448187,-108.47534670869707,-104.64067318634258,-100.80599966398684,-96.971326141630044,-93.1366526192721,-89.307289311765174,-85.578821090304345,-81.850352868842592,-78.121884647379716,-74.393416425915916,-70.676570440492114,-67.103066830971457,-63.529563221449742,-59.95605961192701,-56.382556002403263,-52.828939564985987,-49.454309556295506,-46.079679547604066,-42.705049538911652,-39.330419530218286,-35.9853481878087,-32.847189744526993,-29.709031301244348,-26.570872857960786,-23.43271441467628,-20.334616623390087,-17.463531717818121,-14.592446812245251,-11.721361906671493,-8.8502770010968259,-6.0299665131681852,-3.4490238794352637,-0.86808124570146661,1.7128613880331944,4.2938040217687181,6.8136293534649175,9.0889825885628159,11.364335823661561,13.639689058761155,15.915042293861566,18.119822918652513,20.081517143218154,22.04321136778459,24.004905592351871,25.966599816919967,27.849578004061385,29.49640510278962,31.143232201518646,32.79005930024848,34.436886398979141,35.998474198205493,37.335337278041479,38.672200357878211,40.009063437715746,41.345926517554084,42.592835450808778,43.629848541178376,44.666861631548763,45.70387472191991,46.740887812291916,47.685114507816294,48.436628300110705,49.188142092405883,49.939655884701907,50.69116967699869,51.348909203709205,51.832493990430748,52.316078777153152,52.7996635638763,53.283248350600246,53.6737972863221,53.909284125346247,54.14477096437119,54.380257803396894,54.615744642423429,54.760471369045355,54.769055782373627,54.777640195702674,54.786224609032516,54.794809022363076,54.716211654119284,54.519660524799406,54.323109395480344,54.126558266162121,53.930007136844708,53.650899213657283,53.270886808326622,52.890874402996744,52.510861997667718,52.130849592339551,51.673686984354795,51.1312515645238,50.588816144693666,50.04638072486437,49.503945305035948,47.520556706556278,46.835688081875134,46.150819457194928,45.400963053954008,44.592307014355193,43.783650974757236,42.974994935160254,42.166338895564152,41.299011850328093,40.383680246723628,39.4683486431201,38.553017039517513,37.63768543591587,36.669914524715047,35.663383263267846,34.6568520018217,33.650320740376493,32.6437894789323,31.590827952478197,30.506912184577942,29.422996416678636,28.339080648780374,27.255164880883182,26.130499311825098,24.981383245796419,23.832267179768813,22.683151113742319,21.534035047716849,20.349446893646409,19.145757868650584,17.942068843655964,16.738379818662469,15.534690793670073,14.300357789938603,13.051269848814602,11.802181907691786,10.55309396657016,9.304006025449727,8.0286286317747475,6.741983974876157,5.4553393179787788,4.1686946610826761,2.8820500041877746,1.5729914376237977,0.25543075103626367,-1.0621299355499905,-2.3796906221349059,-3.6972513087185579,-5.0338198845148927,-6.3767246629340413,-7.7196294413517714,-9.062534219768164,-10.405438998183172,-11.764396022121515,-13.128013571181775,-14.491631120240575,-15.855248669297969,-17.2188662183539,-18.596004749883523,-19.976523686782564,-21.357042623680137,-22.737561560576175,-24.118080497470711,-25.509985200198937,-26.904305195823316,-28.298625191446092,-29.692945187067263,-31.087265182686842,-32.4911936060127,-33.896817741073413,-35.302441876132406,-36.708066011189828,-38.113690146245425,-39.527516114749957,-40.942513862345209,-42.357511609938726,-43.772509357530474,-45.187507105120488,-46.6095090722691,-48.032289359594223,-49.455069646917593,-50.877849934238824,-52.300630221558208,-53.729728619251979,-55.159339360725191,-56.588950102196549,-58.018560843666066,-59.448171585133792,-60.883384946750091,-62.31889323885283,-63.754401530953409,-65.189909823051892,-66.625418115148236,-68.066338894476118,-69.507398507997067,-70.948458121515785,-72.389517735032371,-73.8305773485467,0.13967389165431873,0.13967389165431873,0.13967389165431873,0.13967389165431873,0.13967389165431873,0.13967389165431873,0.13967389165431873,0.13967389165431873,0.13967389165431873,0.13967389165431873,0.13967389165431873,0.13967389165431873
DP 70,145.85502807653717,0.0028272857051990954,-209.2655130303861,-202.31484608872995,-195.36417914707226,-188.41351220541313,-181.46284526375223,-174.51523564015915,-167.68686257718585,-160.85848951421119,-154.030116451235,-147.20174338825723,-140.38584919171655,-133.80705581654024,-127.22826244136238,-120.64946906618336,-114.070675691003,-107.51884990404162,-101.29962777047702,-95.080405636910953,-88.861183503343582,-82.641961369774734,-76.468070365380427,-70.702163808319568,-64.936257251257629,-59.170350694194426,-53.404444137129957,-47.704442444930109,-42.465779790313483,-37.227117135695714,-31.988454481076683,-26.749791826456445,-21.598098676938726,-16.939238203312851,-12.280377729685835,-7.6215172560576523,-2.9626567824283141,1.5893275821113551,5.6374616597644165,9.6855957374186126,13.73372981507392,17.781863892730343,21.705767616110386,25.132744051184535,28.559720486259764,31.986696921336073,35.413673356413476,38.702657411384493,41.516328582343213,44.329999753303021,47.1436709242638,49.9573420952257,52.623480875994758,54.847016908211884,57.070552940430069,59.294088972649192,61.517625004869465,63.588542991571536,65.257099067131549,66.925655142692676,68.59421121825477,70.262767293817873,71.777941965857934,72.935221863748509,74.092501761640122,75.249781659532772,76.4070615574264,77.414104584790962,78.109112819345768,78.804121053901667,79.49912928845859,80.194137523016465,80.745352388683528,81.02951854312137,81.313684697560191,81.597850851999979,81.882017006440762,82.031410363941418,81.956178996174742,81.88094762840899,81.805716260644289,81.730484892880582,81.531329346101217,81.146284602435259,80.761239858770281,80.376195115106327,79.991150371443467,79.4941407860755,78.845646865920187,78.197152945765865,77.548659025612579,76.900165105460388,76.152137050248783,75.282454072614343,74.412771094980869,73.543088117348631,72.673405139717374,71.716555048305466,70.663360622897869,69.610166197491353,68.556971772085774,67.503777346681417,63.967785625844165,62.76402753796571,61.560269450088384,60.292331708524912,58.966325505753936,57.640319302984011,56.314313100215237,54.988306897447529,53.608242082023338,52.1839465635749,50.759651045127583,49.335355526681475,47.911060008236518,46.441740060697782,44.939140447175511,43.4365408336545,41.933941220134628,40.431341606616087,38.891632979262738,37.327184424755991,35.762735870250481,34.198287315746292,32.633838761243361,31.039101355503188,29.426190180951593,27.813279006401295,26.200367831852379,24.587456657304763,22.950044758581921,21.299439805944491,19.648834853308497,17.998229900673852,16.347624948040526,14.677363805906506,12.997638297284126,11.317912788663225,9.6381872800437822,7.9584617714258332,6.2630826988108108,4.5609947445420769,2.8589067902748413,1.156818836009178,-0.54526911825501045,-2.2597430587245513,-3.9789152933726051,-5.6980875280190872,-7.4172597626639245,-9.136431997307211,-10.865353663102855,-12.597525262151768,-14.32969686119892,-16.061868460244437,-17.79404005928826,-19.533857465680214,-21.27589471584157,-23.017931966001179,-24.759969216159046,-26.502006466315127,-28.250030273805976,-29.999550791361006,-31.749071308914239,-33.498591826465571,-35.248112344015084,-37.002328102125276,-38.757539874146708,-40.51275164616613,-42.267963418183633,-44.02317519019919,-45.782082313979387,-47.541641599750385,-49.301200885519279,-51.060760171286134,-52.820319457050843,-54.582859622013522,-56.345825659060488,-58.108791696105357,-59.871757733148037,-61.634723770188508,-63.400033719924686,-65.165604129019215,-66.931174538111435,-68.696744947201182,-70.462315356288713,-72.230016866243517,-73.997891189935231,-75.765765513624572,-77.53363983731181,-79.301514160996732,-81.071083715674234,-82.840742509899883,-84.610401304122959,-86.380060098343392,-88.149718892561239,-89.921050631694982,-91.692425283068033,-93.463799934438214,-95.2351745858059,-97.00654923717083,0.17063469166477493,0.17063469166477493,0.17063469166477493,0.17063469166477493,0.17063469166477493,0.17063469166477493,0.17063469166477493,0.17063469166477493,0.17063469166477493,0.17063469166477493,0.17063469166477493,0.17063469166477493
DP 71,177.82851987567244,0.0039863292041130609,-320.7501834578411,-309.52214917849528,-298.29411489914753,-287.06608061979739,-275.83804634044526,-264.61580983250713,-253.61968860184786,-242.62356737118682,-231.6274461405234,-220.63132490985817,-209.65872632248013,-199.13306240437234,-188.60739848626287,-178.08173456815129,-167.55607065003827,-157.08079404830539,-147.22696736551208,-137.37314068271692,-127.51931399991999,-117.66548731712126,-107.89531665706248,-98.878058108947386,-89.860799560830671,-80.843541012712222,-71.826282464592126,-62.928779735202191,-54.869576792501377,-46.810373849798843,-38.751170907094753,-30.691967964388986,-22.787893206802057,-15.762887940159768,-8.7378826735159141,-1.712877406870488,5.3121278597765,12.15054558422487,18.109326246032914,24.068106907842523,30.026887569653596,35.985668231466207,41.732743106459132,46.632984828833131,51.533226551208614,56.43346827358554,61.333709995963943,66.004984089671041,69.8875822880483,73.770180486427009,77.652778684807117,81.535376883188633,85.180179305190464,88.111585407359783,91.0429915095306,93.974397611702727,96.905803713876381,99.598760289529508,101.6630690085299,103.72737772753166,105.79168644653475,107.85599516553923,109.68846409373194,110.97996620544306,112.27146831715554,113.56297042886946,114.85447254058455,115.92667691736254,116.54341038980266,117.16014386224435,117.77687733468717,118.39361080713132,118.80797692199714,118.84651247907699,118.88504803615798,118.92358359324044,118.96211915032416,118.818055615318,118.36965565763609,117.92125569995557,117.47285574227641,117.02445578459857,116.41463138272171,115.5626665000413,114.71070161736232,113.85873673468463,113.00677185200844,112.01475758346055,110.83326161929227,109.65176565512525,108.47026969095965,107.28877372679548,105.98785612080164,104.54097622193454,103.09409632306885,101.64721642420464,100.20033652534168,98.65323891812082,96.995372375832986,95.337505833546487,93.67963929126141,92.021772748977867,86.633840998130253,84.81024129294768,82.986641587766456,81.095458414723353,79.1431270777931,77.190795740864417,75.238464403937328,73.286133067011562,71.279380273121376,69.2280998973559,67.176819521591852,65.125539145829435,63.074258770068596,60.979670560750471,58.853071501672339,56.726472442595913,54.599873383521043,52.473274324447857,50.3125857829268,48.129170382745258,45.9457549825654,43.762339582387213,41.578924182210784,39.368942926795938,37.143021756473459,34.917100586152756,32.69117941583383,30.465258245516655,28.218820806286434,25.961335846993027,23.703850887701524,21.446365928411815,19.188880969123883,16.915677986846173,14.634906847473001,12.354135708101802,10.073364568732528,7.7925934293652244,5.4998607710454257,3.2020015859450495,0.90414240084664677,-1.3937167842496678,-3.6915759693440275,-5.998491259457114,-8.3088417419542964,-10.619192224449405,-12.929542706942341,-15.239893189433209,-17.557079590666902,-19.876544717631862,-22.196009844594521,-24.515474971555022,-26.834940098513258,-29.159564326097616,-31.485686420009589,-33.811808513919239,-36.137930607826611,-38.464052701731617,-40.794083056603071,-43.125090522890837,-45.456097989176243,-47.78710545545907,-50.118112921739559,-52.452109620677795,-54.786740433516584,-57.121371246352787,-59.456002059186446,-61.790632872017511,-64.127576431740025,-66.464928148982793,-68.80227986622279,-71.13963158346003,-73.476983300694627,-75.816218661405756,-78.155723134387486,-80.495227607366488,-82.834732080342562,-85.174236553315907,-87.5151839579455,-89.856291703465928,-92.197399448983447,-94.53850719449764,-96.879614940008821,-99.222176366652747,-101.56485567418615,-103.90753498171668,-106.25021428924425,-108.5928935967687,-110.93665447669366,-113.28047229223972,-115.62429010778236,-117.96810792332145,-120.31192573885718,-122.65690112540528,-125.00190620447988,-127.346911283551,-129.6919163626186,-132.03692144168275,0.22537947851844398,0.22537947851844398,0.22537947851844398,0.22537947851844398,0.22537947851844398,0.22537947851844398,0.22537947851844398,0.22537947851844398,0.22537947851844398,0.22537947851844398,0.22537947851844398,0.22537947851844398
DP 72,115.56055544834622,0.0053980410006401044,-357.48726025997536,-346.27591007827596,-335.06455989657388,-323.85320971486834,-312.64185953315985,-301.43462591271089,-290.38793973791007,-279.34125356310648,-268.29456738829981,-257.24788121349047,-246.21810403208136,-235.50960092185696,-224.80109781163014,-214.09259470140049,-203.3840915911687,-192.71243864085292,-182.49527564036913,-172.27811263988266,-162.06094963939341,-151.84378663890161,-141.68930855127741,-132.09900060453796,-122.50869265779589,-112.91838471105164,-103.32807676430481,-93.830260700823075,-84.979894814163657,-76.129528927501909,-67.279163040837815,-58.428797154171249,-49.702682410084414,-41.680665303534425,-33.658648196982192,-25.636631090427635,-17.614613983870804,-9.7484726166808855,-2.6171824399757639,4.5141077367316029,11.645397913441183,18.77668809015298,25.722511627233192,31.926459840521709,38.130408053812381,44.334356267105221,50.538304480400164,56.530839352137264,61.795163832711538,67.059488313287886,72.323812793866423,77.588137274446979,82.619959229439289,86.954264817101674,91.288570404766091,95.622875992432583,99.957181580101278,104.04353474446256,107.47618663401414,110.90883852356798,114.34149041312361,117.7741423026813,120.94936988685733,123.52393264779552,126.09849540873567,128.67305816967786,131.24762093062208,133.56121994268037,135.3328097327167,137.10439952275556,138.87598931279572,140.64757910283828,142.160210274753,143.19191130526937,144.22361233578778,145.25531336630831,146.28701439683064,147.06667235876313,147.42625218680664,147.78583201485228,148.1454118429001,148.50499167094969,148.62355312380186,148.38058131852617,148.13760951325256,147.894637707981,147.65166590271139,147.18192649164158,146.4053788058234,145.62883112000725,144.85228343419325,144.07573574838111,143.0889976754641,141.8453558255456,140.60171397562925,139.35807212571487,138.11443027580273,136.67864539941476,135.03048809132821,133.38233078324362,131.73417347516138,130.08601616708125,124.27457126421807,122.27962410911948,120.28467695402296,118.13512485699437,115.84568931470737,113.55625377242266,111.26681823014029,108.97738268786016,106.55163506258295,104.0143570267869,101.47707899099336,98.939800955202188,96.402522919413371,93.746316977335638,91.002205845184591,88.258094713036215,85.513983580890169,82.769872448746725,79.9230156899517,77.00766022811834,74.09230476628764,71.1769493044595,68.261593842633928,65.258284659049693,62.202201912254267,59.146119165461535,56.090036418671609,53.033953671884234,49.90322192070159,46.732293466244862,43.561365011790969,40.3904365573399,37.219508102891481,33.985723546231654,30.7216740601788,27.45762457412896,24.19357508808206,20.929525602038215,17.612932733288066,14.273820562457662,10.934708391630304,7.5955962208061472,4.2564840499850067,0.87373504931899848,-2.5255664212309386,-5.9248678917776694,-9.3241693623210384,-12.723470832861254,-16.158809487467586,-19.606160990930192,-23.053512494389256,-26.500863997844938,-29.948215501297177,-33.425195983520247,-36.910778788682222,-40.396361593840631,-43.881944398995458,-47.367527204146612,-50.877400736637085,-54.393347237957606,-57.909293739274439,-61.425240240587314,-64.9411867418965,-68.477038634431864,-72.01711311073683,-75.5571875870377,-79.097262063334625,-82.637336539627555,-86.193751922552124,-89.753051176591882,-93.3123504306273,-96.871649684658621,-100.43094893868553,-104.00384733339493,-107.57868860938723,-111.15352988537511,-114.72837116135867,-118.30321243733783,-121.8893089083611,-125.47665607481322,-129.06400324126045,-132.65135040770264,-136.23869757414033,-139.836081576479,-143.43427947888031,-147.03247738127709,-150.63067528366932,-154.228873186057,-157.83566537362614,-161.4429099774986,-165.050154581366,-168.6573991852278,-172.26464378908437,-175.88016197135681,-179.49589237686817,-183.11162278237387,-186.72735318787417,-190.343083593369,0.34952161170639429,0.34952161170639429,0.34952161170639429,0.34952161170639429,0.34952161170639429,0.34952161170639429,0.34952161170639429,0.34952161170639429,0.34952161170639429,0.34952161170639429,0.34952161170639429,0.34952161170639429
DP 73,191.47916366697626,0.0022282828825338648,-184.52209680253407,-177.92948382092246,-171.33687083930968,-164.74425785769583,-158.15164487608098,-151.56265081904849,-145.11479618903934,-138.66694155902911,-132.21908692901775,-125.77123229900543,-119.3380253471646,-113.18312704964004,-107.02822875211426,-100.8733304545878,-94.7184321570602,-88.594791683315236,-82.85666830893885,-77.118544934561484,-71.380421560183109,-65.642298185803668,-59.955799959590372,-54.733932946552379,-49.512065933513391,-44.290198920473486,-39.068331907432672,-33.919884459501404,-29.285379519104534,-24.650874578706798,-20.016369638308174,-15.381864697908625,-10.841720865699022,-6.83629592598401,-2.8308709862681334,1.1745539534486087,5.1799788931662079,9.0729308350666926,12.435646855209773,15.798362875353693,19.161078895498449,22.523794915644046,25.760188995337188,28.491289343171466,31.222389691006569,33.953490038842467,36.684590386679162,39.280592405150337,41.411250058183469,43.541907711217355,45.672565364252051,47.803223017287493,49.795268527764996,51.371472369856434,52.947676211948647,54.523880054041683,56.100083896135359,57.539090974953226,58.616392780409008,59.693694585865558,60.770996391322868,61.848298196780974,62.794034907440761,63.432782251676734,64.071529595913461,64.7102769401509,65.349024284389088,65.865114776545482,66.126452854788823,66.387790933032889,66.649129011277665,66.910467089523209,67.060319295301213,67.003123298561846,66.945927301823247,66.8887313050854,66.831535308348336,66.675311874880748,66.35404021747982,66.0327685600796,65.71149690268021,65.390225245281442,64.982819838030736,64.4462117706375,63.90960370324499,63.372995635853179,62.836387568462207,62.226288625147738,61.516759215245074,60.80722980534312,60.097700395442011,59.38817098554162,58.617038541703451,57.7706122068774,56.924185872052163,56.077759537227713,55.231333202403995,54.33410649919599,53.380731009519792,52.427355519844291,51.473980030169635,50.520604540495789,47.454161714422369,46.41825952592027,45.382357337418945,44.313405629837675,43.21455138139796,42.115697132959127,41.016842884521068,39.917988636083891,38.793004960130453,37.646642212612626,36.500279465095637,35.353916717579487,34.207553970064211,33.040779403546665,31.8589175048368,30.67705560612783,29.4951937074197,28.313331808712512,27.115699562765982,25.907553503555206,24.699407444345347,23.491261385136394,22.283115325928389,21.062906578922611,19.835460036810069,18.608013494698465,17.38056695258787,16.1531204104782,14.916529224432731,13.67501386636663,12.433498508301584,11.191983150237515,9.95046779217442,8.702072965242353,7.4503657051139189,6.1986584449865667,4.9469511848602563,3.6952439247350313,2.4383926201001205,1.1793366555016735,-0.079719309095695426,-1.3387752736919261,-2.5978312382870916,-3.8607181052674053,-5.1250581230966832,-6.3893981409248255,-7.653738158751783,-8.9180781765776178,-10.185267743828728,-11.453407196799819,-12.721546649769653,-13.989686102738307,-15.257825555705715,-16.52809013714289,-17.798971717279258,-19.069853297414376,-20.340734877548236,-21.611616457680821,-22.884095479202688,-24.156973879944839,-25.42985228068569,-26.702730681425148,-27.9756090821633,-29.249707016207768,-30.524063653106634,-31.798420290004024,-33.072776926900083,-34.347133563794692,-35.622437660182854,-36.897908965839839,-38.173380271495319,-39.44885157714932,-40.724322882801815,-42.00058196889988,-43.276953603570135,-44.553325238238884,-45.829696872906034,-47.106068507571671,-48.383043413031153,-49.660085354912979,-50.937127296793157,-52.21416923867158,-53.491211180548326,-54.76890173718715,-56.046644890838444,-57.324388044488188,-58.602131198136334,-59.879874351782824,-61.158090679030558,-62.436331914858037,-63.714573150683613,-64.992814386507362,-66.271055622329285,-67.549825325004818,-68.828608583233944,-70.1073918414611,-71.386175099686284,-72.664958357909612,0.12281487771623788,0.12281487771623788,0.12281487771623788,0.12281487771623788,0.12281487771623788,0.12281487771623788,0.12281487771623788,0.12281487771623788,0.12281487771623788,0.12281487771623788,0.12281487771623788,0.12281487771623788
DP 74,150.54581117429265,0.0022063847436655211,-165.61039178931969,-160.06461982176793,-154.51884785421495,-148.97307588666064,-143.42730391910527,-137.88403342799603,-132.43832146410804,-126.99260950021907,-121.54689753632886,-116.10118557243742,-110.66567523427807,-105.42399771359047,-100.18232019290173,-94.940642672212,-89.69896515152125,-84.4793058380336,-79.531207188314468,-74.583108538594288,-69.635009888873014,-64.686911239150689,-59.775755832894951,-55.197093109767387,-50.618430386638863,-46.039767663509465,-41.461104940379016,-36.936029317117381,-32.786067445035286,-28.63610557295226,-24.486143700868329,-20.336181828783417,-16.25674320252114,-12.576940746550601,-8.8971382905791625,-5.21733583460682,-1.5375333786335816,2.0558788677271149,5.2420183169378243,8.4281577661494165,11.614297215361871,14.800436664575185,17.886516775744415,20.572354805873424,23.258192836003303,25.94403086613401,28.629868896265592,31.205000849818546,33.398807222236464,35.592613594655262,37.78641996707487,39.980226339495296,42.05618246198847,43.778583378962594,45.500984295937585,47.223385212913364,48.945786129889989,50.546836987726536,51.8279607914132,53.109084595100654,54.3902083987889,55.671332202477956,56.831098477387357,57.707693361526857,58.584288245667139,59.46088312980811,60.337478013949948,61.095821324305284,61.608561773020071,62.1213022217356,62.6340426704519,63.146783119169022,63.546958556225839,63.738081645978887,63.92920473573264,64.120327825487252,64.31145091524256,64.397669164050072,64.309043367084925,64.220417570120574,64.131791773156948,64.0431659761941,63.858646192931744,63.530283164218261,63.201920135505574,62.873557106793676,62.545194078082567,62.130717250141785,61.5997316021672,61.068745954193474,60.537760306220434,60.006774658248347,59.3997131410159,58.699668407848527,57.999623674682049,57.299578941516288,56.599534208351457,55.833291961404058,54.9938827240523,54.154473486701363,53.3150642493513,52.475655012002051,49.673437913162147,48.7204327063551,47.767427499548909,46.766323158934853,45.721699688421886,44.677076217909715,43.632452747398482,42.587829276888115,41.502966073209819,40.385178759939024,39.267391446669166,38.149604133400224,37.031816820132178,35.880744677573809,34.705070157519579,33.52939563746633,32.353721117413954,31.178046597362552,29.975129277235659,28.754049661222261,27.532970045209865,26.311890429198392,25.090810813187964,23.847651119944061,22.591243046435274,21.334834972927517,20.078426899420798,18.822018825915094,17.547875738300174,16.264182769806482,14.980489801313865,13.696796832822329,12.413103864331799,11.115282866252517,9.8106592857204831,8.5060357051895963,7.2014121246598348,5.8967885441312156,4.5809926013423778,3.2604083524393821,1.9398241035375365,0.61923985463690934,-0.70134439426257766,-2.0307078629970841,-3.3634014950918667,-4.6960951271854388,-6.02878875927774,-7.361482391368841,-8.7010400955705443,-10.042885910314872,-11.384731725057856,-12.726577539799576,-14.068423354539968,-15.415617684641685,-16.764364874756616,-18.113112064870204,-19.461859254982421,-20.810606445093285,-22.163516658793419,-23.517467677576416,-24.871418696358049,-26.2253697151382,-27.579320733916923,-28.936519747904896,-30.294407767785057,-31.652295787663633,-33.010183807540777,-34.368071827416372,-35.728504645864582,-37.089386574711078,-38.450268503555961,-39.811150432399295,-41.172032361240959,-42.534963549957887,-43.8981875122211,-45.261411474482678,-46.624635436742558,-47.987859399000811,-49.352685214096553,-50.717689029662452,-52.082692845226561,-53.447696660788779,-54.812700476349328,-56.179174822788447,-57.545768416486126,-58.91236201018198,-60.278955603876184,-61.645549197568634,-63.013299635526231,-64.381110971532266,-65.748922307536333,-67.116733643538382,-68.48454497953837,-69.853507956456866,-71.222500473792167,-72.591492991125378,-73.9604855084565,-75.329478025785562,0.13182101204083937,0.13182101204083937,0.13182101204083937,0.13182101204083937,0.13182101204083937,0.13182101204083937,0.13182101204083937,0.13182101204083937,0.13182101204083937,0.13182101204083937,0.13182101204083937,0.13182101204083937
DP 75,172.19319814048154,0.003072600382564154,-244.05712164559921,-235.58824660760851,-227.11937156961594,-218.65049653162171,-210.18162149362612,-201.71700547962553,-193.41849301178314,-185.11998054393908,-176.82146807609331,-168.52295560824615,-160.2417400134679,-152.28916827687289,-144.33659654027647,-136.38402480367878,-128.43145306707967,-120.51599139708408,-113.05822522546868,-105.60045905385185,-98.142692882233519,-90.68492671061388,-83.2889057845576,-76.448597904819678,-69.608290025080564,-62.767982145340206,-55.927674265598448,-49.175997107493664,-43.044741702838735,-36.913486298182541,-30.78223089352511,-24.650975488866358,-18.634904422370759,-13.271551863710059,-7.908199305048111,-2.5448467463849656,2.8185058122793989,8.04279444284214,12.611488472644456,17.180182502447973,21.748876532252659,26.317570562058506,30.727810561324759,34.504226949801563,38.280643338279539,42.057059726758645,45.833476115238888,49.437719023539053,52.448912711645448,55.460106399753052,58.471300087861721,61.482493775971456,64.313969297659455,66.606283525213854,68.898597752769348,71.190911980325936,73.483226207883618,75.594348074307561,77.227774760829917,78.86120144735338,80.4946281338778,82.128054820403335,83.5842959976118,84.6270987371547,85.669901476698726,86.712704216243722,87.755506955789727,88.629691290507282,89.153663265041473,89.677635239576674,90.201607214112826,90.725579188650173,91.0929637576423,91.169538916102169,91.24611407456301,91.322689233025073,91.39926439148806,91.333615707368438,91.030923700769122,90.728231694170859,90.425539687573576,90.122847680977387,89.69356793493462,89.074403588418249,88.45523924190293,87.836074895388691,87.216910548875461,86.487148880896726,85.607753082986321,84.72835728507701,83.848961487168708,82.9695656892615,81.9951833751677,80.904704435016782,79.814225494866861,78.723746554718076,77.6332676145704,76.462489470862934,75.202957977964189,73.943426485066581,72.6838949921701,71.424363499274691,67.311293023640658,65.917970879049548,64.5246487344596,63.076352029972746,61.578315448197358,60.08027886642315,58.582242284650121,57.084205702878258,55.541558088091421,53.9624097705317,52.383261452973223,50.80411313541596,49.224964817859963,47.610037696649151,45.96866478458913,44.327291872530481,42.685918960472989,41.0445460484168,39.374787805172225,37.686105560633735,35.997423316096558,34.308741071560696,32.62005882702617,30.909080707459434,29.184724725685143,27.460368743912191,25.736012762140628,24.011656780370444,22.2699462438225,20.518890694645435,18.767835145469828,17.01677959629561,15.265724047122788,13.501268925033445,11.730361969089943,9.9594550131479913,8.188548057207532,6.4176411012686057,4.6364593541104977,2.8508739862616923,1.065288618414427,-0.7202967494312138,-2.5058821172753336,-4.2993030855103394,-6.0956962801862966,-7.8920894748606294,-9.6884826695332773,-11.484875864204328,-13.287223254322026,-15.091555451293777,-16.895887648263717,-18.700219845231985,-20.50455204219848,-22.313403934403453,-24.123568051315885,-25.933732168226516,-27.7438962851353,-29.554060402042271,-31.367663560767021,-33.182126520577476,-34.996589480386042,-36.811052440192626,-38.625515399997354,-40.442615243362745,-42.260274455874722,-44.077933668384652,-45.895592880892551,-47.713252093398459,-49.53295244151299,-51.353013012724958,-53.173073583934787,-54.993134155142528,-56.813194726348108,-58.634908540627265,-60.456858550345444,-62.278808560061449,-64.100758569775181,-65.922708579486809,-67.745927523971844,-69.569287474534079,-71.392647425093912,-73.216007375651216,-75.039367326206175,-76.863975506132846,-78.6886849065993,-80.513394307063479,-82.338103707525278,-84.162813107984817,-85.988460447637678,-87.814157161840669,-89.639853876041016,-91.465550590238621,-93.291247304433654,-95.11793077723523,-96.944639561103045,-98.77134834496799,-100.59805712883012,-102.42476591268972,0.17562466413751898,0.17562466413751898,0.17562466413751898,0.17562466413751898,0.17562466413751898,0.17562466413751898,0.17562466413751898,0.17562466413751898,0.17562466413751898,0.17562466413751898,0.17562466413751898,0.17562466413751898
DP 76,209.27095884660639,0.0041631754520875825,-356.28499108935512,-343.23174068068505,-330.17849027201311,-317.12523986333883,-304.0719894546628,-291.02645858124691,-278.28199250171059,-265.53752642217233,-252.79306034263172,-240.0485942630894,-227.33527383839018,-215.21372674360435,-203.09217964881663,-190.97063255402708,-178.84908545923582,-166.7936776451343,-155.55399596165003,-144.31431427816372,-133.07463259467573,-121.83495091118586,-110.70376473449254,-100.54904837411057,-90.394332013726967,-80.239615653341815,-70.08489929295483,-60.083173548627883,-51.152393685411887,-42.221613822194271,-33.290833958974979,-24.36005409575408,-15.623908288614635,-7.990701063968527,-0.35749383932083462,7.2757133853284328,14.908920609979264,22.312838916658066,28.63581136851694,34.958783820377349,41.281756272239285,47.604728724102713,53.673543520778978,58.725715685067136,63.777887849356681,68.8300600136478,73.882232177940324,78.666490882425734,82.527925303800416,86.38935972517659,90.250794146554185,94.112228567933229,97.703048193987058,100.48201320253584,103.26097821108606,106.03994321963771,108.81890822819074,111.33446474997046,113.15557166201303,114.97667857405692,116.7977854861023,118.61889239814877,120.19183289836108,121.1857106186354,122.179588338911,123.173466059188,124.16734377946641,124.93411629018036,125.22920214526258,125.52428800034643,125.81937385543132,126.11445971051782,126.20708204998337,125.92369524984461,125.64030844970705,125.35692164957098,125.07353484943629,124.61388254312661,123.86044995030841,123.10701735749159,122.353584764676,121.60015217186179,120.69654534993057,119.56767363566406,118.4388019213991,117.30993020713535,116.18105849287309,114.92675118322903,113.50273410187692,112.07871702052627,110.65469993917692,109.23068285782892,107.7037849977809,106.05114180278699,104.39849860779429,102.74585541280317,101.09321221781329,99.35759289011304,97.530261448786334,95.7029300074609,93.875598566137015,92.048267124814572,86.23681370812082,84.277698380585335,82.3185830530514,80.3078886970212,78.250526672293361,76.193164647566974,74.1358026228422,72.078440598118817,69.981234593250846,67.851428283520121,65.72162197379086,63.591815664063148,61.462009354337027,59.301797184508573,57.119110618257849,54.9364240520088,52.753737485761313,50.571050919515478,48.365417310511035,46.144485311504866,43.923553312500317,41.702621313497453,39.481689314496307,37.243610822476143,34.995244175332516,32.746877528190652,30.498510881050553,28.25014423391217,25.989075346379707,23.721166606231321,21.453257866084829,19.185349125940164,16.917440385797256,14.640187383935791,12.358435162250835,10.076682940567853,7.7949307188867687,5.5131784972076208,3.224585252227556,0.93306004774537477,-1.3584651567348507,-3.6499903612130109,-5.9415155656892429,-8.2380395395007717,-10.536459663402207,-12.834879787301585,-15.133299911198803,-17.431720035094006,-19.733800939171751,-22.037102149445076,-24.340403359716095,-26.643704569985005,-28.947005780251658,-31.253009108541914,-33.559796955664048,-35.866584802783855,-38.173372649901353,-40.480160497016591,-42.788973938937481,-45.09829380349052,-47.407613668041229,-49.716933532589465,-52.0262533971353,-54.337131481798558,-56.648340115852541,-58.959548749904009,-61.270757383952926,-63.581966017999264,-65.894406048662574,-68.2070633983023,-70.519720747939331,-72.832378097573752,-75.145035447205373,-77.458759515393453,-79.772635983467381,-82.086512451538667,-84.400388919607025,-86.71426538767264,-89.028966115474631,-91.343758436345723,-93.65855075721376,-95.973343078078642,-98.28813539894054,-100.60389766606542,-102.91973858739068,-105.235579508713,-107.55142043003232,-109.86726135134887,-112.18379819150782,-114.50037166589516,-116.81694514027924,-119.13351861465969,-121.45009208903701,-123.76748386817815,-126.08489663742223,-128.40230940666294,-130.71972217590002,-133.03713494513363,0.22238537888403759,0.22238537888403759,0.22238537888403759,0.22238537888403759,0.22238537888403759,0.22238537888403759,0.22238537888403759,0.22238537888403759,0.22238537888403759,0.22238537888403759,0.22238537888403759,0.22238537888403759
DP 77,290.149373360752,0.001648377846347783,-157.03742203236362,-150.69412446726045,-144.3508269021564,-138.00752933705172,-131.66423177194639,-125.32590399178274,-119.18139970338468,-113.03689541498611,-106.89239112658667,-100.7478868381867,-94.623157550011825,-88.87415700444673,-83.125156458881079,-77.376155913314548,-71.627155367747534,-65.919228308013217,-60.717879416647094,-55.51653052528021,-50.315181633912658,-45.113832742544467,-39.977831865548723,-35.429969294683929,-30.88210672381846,-26.334244152952472,-21.786381582085856,-17.327207131400595,-13.488856228312274,-9.6505053252233868,-5.8121544221338954,-1.973803519043813,1.7567412066370605,4.8763774670199087,7.9960137274033336,11.115649987787316,14.235286248171859,17.234380188657898,19.665196681734354,22.096013174811361,24.526829667888904,26.957646160966984,29.262405650885306,31.0629311706374,32.863456690389995,34.663982210143175,36.464507729896823,38.140352601221032,39.386736667972507,40.633120734724521,41.879504801477033,43.125888868230049,44.25468267301725,45.030701246000064,45.806719818983389,46.58273839196724,47.358756964951553,48.028368388650307,48.417448215968946,48.806528043288054,49.195607870607624,49.58468769792772,49.88093076723608,49.9605518095048,50.040172851774066,50.119793894043816,50.199414936313993,50.200630779181729,50.03900277376782,49.877374768354379,49.715746762941407,49.554118757528975,49.328180230188693,48.982806139638647,48.637432049089043,48.292057958539985,47.946683867991354,47.549935336144955,47.067561440543358,46.585187544942258,46.102813649341705,45.620439753741522,45.0979990074251,44.515457038243234,43.93291506906187,43.350373099880926,42.767831130700479,42.154718150795681,41.500243711768071,40.845769272740924,40.191294833714274,39.536820394688164,38.859483351627873,38.154202645637291,37.448921939647136,36.743641233657613,36.038360527668466,35.316293301942139,34.575672220363032,33.835051138784387,33.094430057206239,32.35380897562861,30.071347684728632,29.306487338862986,28.541626992997859,27.768149773875134,26.9868761809525,26.205602588030374,25.424328995108826,24.643055402187787,23.855739383015745,23.063479456704496,22.271219530393761,21.47895960408362,20.686699677774012,19.890253640262529,19.090713451745277,18.291173263228611,17.49163307471251,16.692092886196992,15.889681535976127,15.085356032721014,14.281030529466499,13.476705026212567,12.672379522959234,11.866098807002102,11.058644933853545,10.251191060705596,9.4437371875582841,8.6362833144115623,7.8275019285595038,7.0180057088697652,6.208509489180698,5.3990132694922686,4.5895170498044644,3.7791165445843116,2.9682806299638753,2.1574447153441283,1.3466088007250485,0.535772886106655,-0.27568694888055306,-1.0874141867359008,-1.8991414245905587,-2.7108686624444918,-3.5225959002977478,-4.3347649809386244,-5.1471016628796713,-5.9594383448199908,-6.77177502675955,-7.5841117086984022,-8.3967750330727871,-9.2095472423751144,-10.022319451676658,-10.835091660977445,-11.647863870277456,-12.460892413620632,-13.273995379650479,-14.087098345679516,-14.900201311707745,-15.713304277735151,-16.526623201821209,-17.339996117972795,-18.153369034123585,-18.966741950273487,-19.780114866422544,-20.59368362901343,-21.407293937032065,-22.220904245049809,-23.034514553066643,-23.848124861082603,-24.661920112557606,-25.47574800316945,-26.28957589378037,-27.103403784390292,-27.917231674999307,-28.73126022502645,-29.545317442851509,-30.359374660675627,-31.173431878498711,-31.987489096320882,-32.801713885853736,-33.615957296224479,-34.430200706594192,-35.244444116962775,-36.058687527330314,-36.873183157797378,-37.687699241119191,-38.502215324439995,-39.31673140775974,-40.131247491078483,-40.945943379536288,-41.760648733210211,-42.575354086882975,-43.390059440554573,-44.204764794224978,-45.019703417016196,-45.834648023327084,-46.649592629636842,-47.464537235945315,-48.279481842252515,0.078010114084216112,0.078010114084216112,0.078010114084216112,0.078010114084216112,0.078010114084216112,0.078010114084216112,0.078010114084216112,0.078010114084216112,0.078010114084216112,0.078010114084216112,0.078010114084216112,0.078010114084216112
DP 78,159.67990508548738,0.0020704816050294,-159.40181178782615,-153.98099184337684,-148.56017189892663,-143.13935195447522,-137.71853201002273,-132.30027584994988,-126.98200825005483,-121.66374065015894,-116.34547305026189,-111.02720545036361,-105.71937494196416,-100.60985114511226,-95.500327348259532,-90.390803551405654,-85.281279754551022,-80.194225081300118,-75.384292430919942,-70.574359780538785,-65.764427130156648,-60.954494479773594,-56.182128939656621,-51.747870942831753,-47.313612946005939,-42.8793549491793,-38.445096952351776,-34.065090092730046,-30.064845295859062,-26.064600498987193,-22.064355702114444,-18.064110905240831,-14.134884068744007,-10.608096816186158,-7.0813095636274674,-3.5545223110679518,-0.027735058507602283,3.4125886684575382,6.4452939618232579,9.477999255189788,12.510704548557131,15.543409841925255,18.476662940834967,21.012102561741361,23.547542182648534,26.082981803556518,28.618421424465218,31.044666368509702,33.094791727261665,35.144917086014374,37.195042444767893,39.245167803522151,41.180016343304828,42.7690300677332,44.358043792162285,45.94705751659216,47.536071241022782,49.007443667939476,50.168666812468331,51.329889956997974,52.491113101528377,53.652336246059463,54.697025561445876,55.469798937191015,56.242572312936964,57.015345688683553,57.788119064430845,58.448476427610991,58.875351110631705,59.302225793653164,59.729100476675292,60.1559751596982,60.476960412779505,60.60129100774374,60.725621602708742,60.849952197674476,60.974282792640928,61.001004992497236,60.865044073555012,60.729083154613527,60.5931222356728,60.457161316732765,60.232983588237964,59.876478560823109,59.519973533408908,59.1634685059955,58.806963478582816,58.372161023221615,57.831425012221594,57.290689001222425,56.749952990223917,56.209216979226177,55.600137814102304,54.907526691741872,54.214915569382207,53.5223044470232,52.829693324665037,52.078342048197968,51.262066274624495,50.445790501051732,49.629514727479759,48.813238953908559,46.115567909623927,45.199754458459182,44.283941007295176,43.326518114225429,42.331447834103869,41.336377553983048,40.341307273863116,39.346236993743972,38.3168068553954,37.259263515271812,36.201720175149042,35.144176835027068,34.086633494905968,33.001041898638853,31.894718521541858,30.788395144445804,29.68207176735055,28.575748390256233,27.446772518789629,26.302694627552121,25.158616736315544,24.014538845079851,22.870460953845079,21.708268546366,20.535207155188164,19.36214576401127,18.189084372835364,17.016022981660377,15.828606721279181,14.633460707196926,13.438314693115709,12.243168679035451,11.048022664956129,9.84159412962298,8.6297331112516957,7.4178720928814759,6.2060110745122907,4.9941500561441581,3.7734849620892033,2.5490465738590595,1.3246081856299796,0.10016979740202249,-1.1242685908248844,-2.3555355254968422,-3.5893926875012556,-4.82324984950455,-6.0571070115066714,-7.2909641735076933,-8.5300936592790944,-9.7709806527526162,-11.011867646224887,-12.252754639696008,-13.493641633165906,-14.738588798942382,-15.984714773938755,-17.230840748933893,-18.476966723927791,-19.723092698920411,-20.972345640927426,-22.222380361632521,-23.472415082336354,-24.722449803038828,-25.972484523739986,-27.224937661028896,-28.477903823482755,-29.730869985935183,-30.983836148386249,-32.236802310835941,-33.491650103736283,-34.746829969991843,-36.002009836245918,-37.257189702498593,-38.51236956874974,-39.769064053768631,-41.025974929257373,-42.282885804744652,-43.539796680230346,-44.796707555714548,-46.054791090899208,-47.31300493392029,-48.571218776939695,-49.829432619957387,-51.087646462973431,-52.346963179033459,-53.606369328500485,-54.865775477965848,-56.125181627429576,-57.384587776891806,-58.644844001358805,-59.905144975071693,-61.165445948782668,-62.425746922491861,-63.686047896199128,-64.947212620689143,-66.208399501006966,-67.469586381322713,-68.730773261636756,-69.9919601419488,0.12135498569581105,0.12135498569581105,0.12135498569581105,0.12135498569581105,0.12135498569581105,0.12135498569581105,0.12135498569581105,0.12135498569581105,0.12135498569581105,0.12135498569581105,0.12135498569581105,0.12135498569581105
DP 79,278.25656342462742,0.0030443781341042268,-286.39654174583148,-274.97671326075704,-263.55688477568134,-252.13705629060419,-240.71722780552568,-229.30602509017643,-218.23123065560961,-207.15643622104142,-196.08164178647186,-185.00684735190086,-173.96644274825002,-163.57945143324594,-153.19246011824089,-142.80546880323433,-132.41847748822664,-122.1031488687278,-112.67166919204895,-103.24018951536898,-93.808709838687562,-84.377230162004949,-75.060275708903248,-66.774059093102707,-58.48784247730093,-50.20162586149808,-41.915409245694079,-33.78549387005706,-26.749698994616068,-19.713904119174014,-12.678109243730821,-5.6423143682865478,1.2022253997905017,6.9629741743453923,12.723722948901344,18.484471723458363,24.24522049801643,29.790493533011507,34.319940728909948,38.849387924809413,43.378835120709873,47.908282316611391,52.210493173245169,55.603747933486574,58.997002693729016,62.390257453972474,65.783512214216842,68.949940746674216,71.335069410140832,73.720198073608415,76.105326737076936,78.490455400546423,80.659541771719219,82.180493097775141,83.701444423831987,85.222395749889785,86.7433470759485,88.066752210705289,88.869346960287245,89.671941709870154,90.474536459453986,91.277131209038771,91.905475129473061,92.127228291760716,92.348981454049266,92.57073461633874,92.792487778629038,92.865388791342468,92.629131010419215,92.392873229496985,92.156615448575479,91.920357667655026,91.560555950710707,90.971312159004228,90.38206836729853,89.792824575593755,89.20358078388999,88.5144363391817,87.658788288073168,86.803140236965575,85.9474921858589,85.091844134753046,84.157306028951311,83.104430976911488,82.051555924872517,80.998680872834512,79.945805820797318,78.831966185485129,77.63564369928514,76.439321213086089,75.242998726887947,74.046676240690658,72.804166278033478,71.5052039851049,70.206241692177173,68.9072793992505,67.608317106324662,66.27499310533662,64.903689690615309,63.532386275894872,62.161082861175387,60.789779446456905,56.550164476995086,55.128579077102387,53.70699367721069,52.267292278393157,50.811199887720214,49.355107497048238,47.899015106377313,46.442922715707311,44.973955274964375,43.494453481077549,42.014951687191711,40.535449893306939,39.055948099423183,37.567407353991655,36.072185495786393,34.5769636375823,33.081741779379236,31.586519921177263,30.085017786310232,28.579328701397134,27.073639616485188,25.567950531574358,24.062261446664586,22.552243333216968,21.03962773717754,19.527012141139267,18.01439654510218,16.501780949066223,14.986194565703446,13.469008484426466,11.951822403150718,10.434636321876187,8.9174502406028076,7.3982241393581045,5.8780157777093391,4.35780741606186,2.8375990544156382,1.317390692770702,-0.20423029478494439,-1.7264567125190529,-3.2486831302518708,-4.7709095479833268,-6.2931359657135095,-7.8163596960155273,-9.3399617302945774,-10.86356376457227,-12.387165798848541,-13.910767833123488,-15.435098348113089,-16.959671699187584,-18.484245050260576,-20.008818401332142,-21.533391752402231,-23.058524539493988,-24.583819750317204,-26.109114961138896,-27.63441017195905,-29.159705382777695,-30.685458550413479,-32.2113262126631,-33.737193874911178,-35.263061537157611,-36.788929199402467,-38.315199439175949,-39.841555078793817,-41.367910718410009,-42.894266358024524,-44.420621997637348,-45.947347809314913,-47.474138949589481,-49.000930089862187,-50.5277212301332,-52.054512370402371,-53.581695253411539,-55.108934103899351,-56.636172954385444,-58.163411804869625,-59.690650655351959,-61.218213822345561,-62.745813027911296,-64.273412233475042,-65.801011439036685,-67.328610644596424,-68.85668982396173,-70.384807925025029,-71.912926026086268,-73.441044127145645,-74.969162228203118,-76.497622088881,-78.026099940305443,-79.554577791727723,-81.083055643147773,-82.611533494565563,-84.140452792303563,-85.669383413455279,-87.198314034604763,-88.727244655751988,-90.256175276896954,0.14639736231743272,0.14639736231743272,0.14639736231743272,0.14639736231743272,0.14639736231743272,0.14639736231743272,0.14639736231743272,0.14639736231743272,0.14639736231743272,0.14639736231743272,0.14639736231743272,0.14639736231743272
DP 80,118.02938646416953,0.0023417866796567096,-156.75753887293581,-151.81664848736654,-146.87575810179598,-141.93486771622415,-136.99397733065092,-132.05493043256604,-127.18778024357363,-122.32063005457985,-117.45347986558484,-112.58632967658862,-107.726747345797,-103.01095575156168,-98.295164157325345,-93.57937256308783,-88.86358096884922,-84.1642712797887,-79.668240498457124,-75.172209717124531,-70.676178935790716,-66.180148154455736,-61.712126691726745,-57.496191743935093,-53.280256796142439,-49.064321848348762,-44.848386900553955,-40.67373000456621,-36.788022592553531,-32.902315180539773,-29.016607768525002,-25.130900356509208,-21.300563841391106,-17.783999231179056,-14.267434620965972,-10.75087001075191,-7.2343054005368623,-3.7870870687144436,-0.66679065199872734,2.4535057647179643,5.5738021814356111,8.6940985981542074,11.732042739352492,14.440573886451244,17.149105033550928,19.857636180651557,22.5661673277531,25.181025278022073,27.473227170710974,29.765429063400802,32.057630956091494,34.349832848783151,36.539256467181993,38.420341376813056,40.301426286444965,42.182511196077812,44.063596105711589,45.835348853857184,47.318858509278549,48.802368164700837,50.285877820123993,51.7693874755481,53.139694156254123,54.245856995926225,55.352019835599229,56.458182675273086,57.564345514947846,58.556075543930824,59.310134099532448,60.064192655134988,60.818251210738381,61.572309766342656,62.213155308957234,62.643745055727408,63.074334802498456,63.504924549270392,63.935514296043188,64.256260039000239,64.393929673576608,64.531599308153972,64.669268942732145,64.806938577311129,64.839912447353726,64.715840196601391,64.591767945849924,64.467695695099266,64.343623444349575,64.121378660740746,63.766310031645276,63.411241402550765,63.056172773457071,62.70110414436428,62.255357448818167,61.69878010071983,61.142202752622367,60.585625404525757,60.029048056430177,59.389876469279912,58.659414869090476,57.928953268902113,57.198491668714659,56.468030068528108,53.905340585592434,53.02635683169008,52.147373077788757,51.202425192693134,50.197794286992711,49.193163381293367,48.18853247559499,47.183901569897536,46.121335028260837,45.011365607012173,43.901396185764554,42.791426764517915,41.681457343272356,40.521138531401206,39.3236041248802,38.126069718360291,36.928535311841415,35.73100090532364,34.490141024468258,33.220396811526371,31.950652598585567,30.680908385645903,29.411164172707384,28.10448143094299,26.7756350132484,25.446788595554931,24.117942177862684,22.789095760171588,21.4290263658162,20.052144145375919,18.675261924936908,17.298379704499073,15.921497484062392,14.518433222919818,13.102762427400325,11.68709163188214,10.271420836365222,8.855750040849621,7.4182838737674688,5.9714765388545379,4.5246692039429153,3.0778618690326773,1.6310545341237417,0.16622202609124667,-1.3054478515746393,-2.7771177292391429,-4.2487876069021944,-5.7204574845638847,-7.2069507453676387,-8.6983853207007424,-10.189819896032308,-11.681254471362429,-13.172689046691048,-14.676259788012807,-16.1833540803796,-17.69044837274485,-19.197542665108561,-20.704636957470665,-22.221639041892402,-23.7411181913896,-25.260597340885194,-26.780076490379155,-28.299555639871468,-29.827119965243636,-31.35639942055494,-32.885678875864514,-34.414958331172414,-35.94423778647856,-37.48012694542178,-39.01718259615312,-40.554238246882655,-42.091293897610406,-43.628349548336288,-45.170885766481057,-46.714204982030189,-48.257524197577474,-49.800843413122841,-51.344162628666318,-52.891995664263781,-54.440330282826594,-55.988664901387331,-57.536999519945923,-59.085334138502489,-60.637690836472935,-62.190373690088265,-63.743056543701591,-65.295739397312957,-66.848422250922383,-68.404528525076,-69.960815013317728,-71.517101501557192,-73.073387989794256,-74.629674478029131,-76.189257504336965,-77.748925089218019,-79.308592674096673,-80.868260258972953,-82.4279278438469,0.15071316020208977,0.15071316020208977,0.15071316020208977,0.15071316020208977,0.15071316020208977,0.15071316020208977,0.15071316020208977,0.15071316020208977,0.15071316020208977,0.15071316020208977,0.15071316020208977,0.15071316020208977
DP 81,103.42144432957153,0.0036968025171121139,-230.92621685752641,-223.86789002452591,-216.80956319152313,-209.75123635851838,-202.69290952551145,-195.63696846410397,-188.67407339717934,-181.71117833025232,-174.74828326332357,-167.78538819639269,-160.83232055604302,-154.0659758785751,-147.29963120110551,-140.53328652363402,-133.76694184616053,-127.02208651579079,-120.54226917465067,-114.06245183350848,-107.58263449236452,-101.10281715121876,-94.659735739518482,-88.547281165168243,-82.4348265908163,-76.3223720164626,-70.209917442107212,-64.151987496135931,-58.475734071848478,-52.79948064755942,-47.123227223268657,-41.446973798976252,-35.844500001729649,-30.660115406907323,-25.475730812083423,-20.291346217257921,-15.106961622430825,-10.015912769324132,-5.3648803113069,-0.71384785328812084,3.9371846047321961,8.58821706275404,13.127136463168062,17.217598334619272,21.30806020607201,25.39852207752622,29.488983948981936,33.450294238039547,36.966743651031059,40.483193064024043,43.999642477018519,47.5160918900144,50.888857471567512,53.830566126326062,56.772274781086011,59.7139834358474,62.655692090610216,65.4422435850635,67.819739051196777,70.197234517331438,72.574729983467492,74.952225449605038,77.166473144997582,78.999804231862527,80.83313531872885,82.666466405596665,84.499797492465731,86.16527231830284,87.482117720160545,88.798963122019671,90.115808523880133,91.432653925742088,92.580426340569488,93.414201499198271,94.247976657828559,95.081751816460184,95.915526975093229,96.582149037345587,96.970178392430526,97.358207747516786,97.746237102604439,98.134266457693528,98.3598283856922,98.3416853339044,98.323542282118012,98.3053992303329,98.287256178549441,98.113645883697018,97.72969409647186,97.3457423092483,96.9617905220261,96.577838734805283,96.04724475332047,95.33741834311661,94.627591932914129,93.917765522713154,93.207939112513685,92.361629619612188,91.3644676878229,90.367305756035122,89.370143824248814,88.372981892464082,84.75419216498149,83.5061081860039,82.258024207027773,80.895941334462549,79.4307145533546,77.965487772248281,76.500260991143634,75.0350342100405,73.467337400338479,71.815799715314029,70.164262030291155,68.51272434527,66.861186660250524,65.118471256211691,63.30836212625141,61.498252996292926,59.688143866336112,57.878034736381139,55.9875618042439,54.043511737973333,52.099461671704717,50.15541160543777,48.211361539172707,46.197105024977972,44.140723580267874,42.08434213555968,40.027960690853412,37.971579246148963,35.854370711921263,33.704408244959808,31.554445778000456,29.404483311043119,27.254520844087775,25.052260504321509,22.824818974943511,20.597377445567691,18.369935916193914,16.142494386822275,13.870402891274219,11.579175093028763,9.2879472947854325,6.9967194965443671,4.7054916983054236,2.3763827626944,0.032904625934628846,-2.3105735108228806,-4.65405164757802,-6.9975297843309336,-9.3729729992736779,-11.75907164312793,-14.14517028697967,-16.53126893082905,-18.917367574676,-21.330324696598279,-23.751079768758917,-26.171834840917022,-28.592589913072576,-31.013344985225583,-33.456607103589285,-35.905496249427244,-38.354385395262604,-40.803274541095263,-43.252163686925222,-45.719907136265711,-48.1916501993339,-50.663393262399218,-53.135136325461779,-55.606879388521449,-58.094449008990324,-60.584811727345752,-63.075174445698231,-65.565537164047726,-68.055899882394186,-70.559704821669172,-73.065430223425409,-75.571155625178562,-78.076881026928532,-80.5826064286755,-83.09974328662129,-85.6181482039887,-88.136553121352733,-90.654958038713261,-93.173362956070434,-95.702032455014859,-98.231534322216874,-100.76103618941546,-103.29053805661088,-105.82003992380307,-108.35858739245593,-110.89761103539261,-113.43663467832549,-115.97565832125453,-118.51468196417986,-121.06243386102382,-123.61040964386228,-126.15838542669691,-128.70636120952753,-131.25433699235435,0.24682489376524597,0.24682489376524597,0.24682489376524597,0.24682489376524597,0.24682489376524597,0.24682489376524597,0.24682489376524597,0.24682489376524597,0.24682489376524597,0.24682489376524597,0.24682489376524597,0.24682489376524597
DP 82,195.0636271746111,0.0025679002720383295,-214.1422581958052,-206.45153986389863,-198.76082153199059,-191.07010320008146,-183.37938486817109,-175.6929542501075,-168.17374609324062,-160.65453793637255,-153.13532977950325,-145.61612162263265,-138.11425573696627,-130.94189628263067,-123.769536828294,-116.59717737395589,-109.42481791961691,-102.28943090216885,-95.61004193263139,-88.930652963092868,-82.251263993553081,-75.571875024012215,-68.953465486052423,-62.883876596182084,-56.8142877063108,-50.744698816438309,-44.675109926564815,-38.692095443439669,-33.315108354050459,-27.938121264660236,-22.561134175268943,-17.184147085876635,-11.918198460385504,-7.2814747939952351,-2.6447511276039712,1.9919725387882832,6.6286962051815159,11.133381222309971,15.015591189788331,18.897801157267672,22.780011124747954,26.662221092229164,30.396528236511056,33.539217098021446,36.681905959532735,39.824594821045011,42.967283682558154,45.952256266950641,48.3939772712485,50.835698275547308,53.277419279847,55.719140284147592,57.9995547515492,59.79604350950175,61.592532267455148,63.389021025409463,65.185509783364651,66.822880329381277,68.040751938456069,69.258623547531684,70.476495156608181,71.694366765685558,72.760197619076848,73.471261918845272,74.1823262186146,74.893390518384763,75.604454818155816,76.174307194302855,76.450869160612356,76.727431126922667,77.003993093233831,77.280555059545819,77.429269460754043,77.34054921697016,77.251828973187173,77.16310872940501,77.074388485623757,76.872570439833737,76.482253206660744,76.091935973488688,75.701618740317457,75.311301507147164,74.823025091726535,74.187807588127924,73.552590084530166,72.917372580933261,72.28215507733718,71.5637181841972,70.732688501441231,69.901658818686158,69.070629135931952,68.239599453178627,67.339120547050214,66.353757798037208,65.368395049025054,64.383032300013753,63.397669551003375,62.355294735221271,61.249905447987587,60.144516160754755,59.039126873522818,57.9337375862918,54.387090421409304,53.189509238624041,51.9919280558397,50.757599108208048,49.490021521250014,48.222443934292954,46.954866347336853,45.687288760381627,44.390795154101738,43.070642489615651,41.750489825130543,40.430337160646395,39.110184496163235,37.767550822194224,36.408300380356835,35.04904993852049,33.6897994966851,32.330549054850785,30.95401279634352,29.565952387742289,28.177891979142089,26.789831570542965,25.401771161944925,24.000552123699951,22.5914377086644,21.182323293629985,19.773208878596691,18.364094463564456,16.945051828231286,15.520663083747889,14.096274339265717,12.671885594784682,11.247496850304769,9.81567369496488,8.3802709043658243,6.9448681137680088,5.5094653231713915,4.0740625325760016,2.633125301327667,1.1898160922115419,-0.2534931169033478,-1.6968023260169327,-3.1401115351293005,-4.5875256461355454,-6.0364968424110375,-7.4854680386852239,-8.9344392349580524,-10.3834104312296,-11.835424373800624,-13.288452603484391,-14.741480833166733,-16.194509062847732,-17.647537292527293,-19.10282886534959,-20.55877756539719,-22.014726265443354,-23.470674965488083,-24.926623665531324,-26.384271552588903,-27.842344256474938,-29.300416960359541,-30.758489664242518,-32.216562368124023,-33.675933024748609,-35.135579019551848,-36.595225014353431,-38.054871009153437,-39.514517003951816,-40.975173759594924,-42.436008896037258,-43.896844032477809,-45.357679168916732,-46.818514305353879,-48.280195832316,-49.741998281351741,-51.203800730385709,-52.665603179417893,-54.127405628448315,-55.589856855648314,-57.052380176123549,-58.514903496596865,-59.977426817068213,-61.439950137537664,-62.903183756926644,-64.366474975376562,-65.829766193824483,-67.29305741227067,-68.756348630714868,-70.2201559133613,-71.683990362414,-73.147824811464545,-74.611659260512951,-76.075493709559268,-77.539910953725652,-79.0043431470043,-80.468775340280828,-81.933207533555148,-83.3976397268272,0.14062012913695035,0.14062012913695035,0.14062012913695035,0.14062012913695035,0.14062012913695035,0.14062012913695035,0.14062012913695035,0.14062012913695035,0.14062012913695035,0.14062012913695035,0.14062012913695035,0.14062012913695035
DP 83,219.47420141324173,0.0035198371220917612,-306.37350281174741,-294.9938234588808,-283.61414410601253,-272.2344647531425,-260.85478540027066,-249.48211264969561,-238.38270003784478,-227.2832874259922,-216.18387481413831,-205.08446220228251,-194.01326734538216,-183.47821516702834,-172.94316298867315,-162.40811081031632,-151.87305863195797,-141.39776093572061,-131.65944271641698,-121.921124497112,-112.18280627780526,-102.44448805849716,-92.803811428191153,-84.041918328119351,-75.280025228046185,-66.518132127971569,-57.756239027895624,-49.131362898994794,-41.465615929132433,-33.7998689592687,-26.134121989403546,-18.468375019537064,-10.975930123389473,-4.4655412321303736,2.0448476591300491,8.5552365503917844,15.065625441654824,21.37321450198068,26.724736262811444,32.076258023643533,37.427779784476833,42.779301545311434,47.907705355529544,52.143626818596971,56.37954828166562,60.615469744735549,64.851391207806614,68.854042193506871,72.053196179818912,75.252350166132231,78.451504152446731,81.65065813876241,84.616271433432871,86.8812538233529,89.146236213274136,91.411218603196573,93.67620099312019,95.7160056677343,97.162152262330665,98.6082988569283,100.05444545152699,101.50059204612683,102.73670370269134,103.48272721959277,104.22875073649529,104.97477425339899,105.7207977703038,106.27661751590077,106.43739312777342,106.59816873964714,106.75894435152209,106.91971996339818,106.91277108130606,106.59432932369904,106.27588756609332,105.95744580848864,105.639004050885,105.1761827343618,104.47272518046081,103.76926762656089,103.06581007266209,102.36235251876438,101.53731117431042,100.52989127096275,99.522471367616163,98.515051464270712,97.507631560926484,96.399863555133649,95.156328237789026,93.9127929204457,92.669257603103475,91.425722285762362,90.100882622582219,88.6766692733819,87.2524559241826,85.8282425749845,84.404029225787582,82.9150539028547,81.354498267608761,79.793942632363937,78.233386997120277,76.672831361877968,71.737261484250638,70.075144468258131,68.413027452266746,66.711667243181623,64.974800581428738,63.237933919677232,61.501067257926906,59.764200596177808,57.997409828298927,56.2061351865941,54.414860544890573,52.623585903188321,50.832311261487362,49.018496725904122,47.188021898235043,45.357547070567392,43.527072242900957,41.696597415235992,39.849332525423875,37.990873996345066,36.132415467267641,34.273956938191546,32.415498409116971,30.544655354349626,28.666381396871525,26.788107439394867,24.909833481919684,23.031559524445917,21.144226434634362,19.252015218752508,17.359804002872231,15.467592786993452,13.575381571116166,11.67658621343174,9.7746206211979878,7.872655028965867,5.9706894367353334,4.0687238445064144,2.1619912155969945,0.253215506599063,-1.6555602023972429,-3.56433591139183,-5.4731116203848122,-7.3853379333702449,-9.2988731411316952,-11.212408348891444,-13.125943556649412,-15.039478764405677,-16.955523954974119,-18.872405838111625,-20.78928772124722,-22.706169604381035,-24.623051487512996,-26.541780881890997,-28.461046673033039,-30.380312464173151,-32.29957825531136,-34.21884404644765,-36.1394987180248,-38.060500626120316,-39.981502534213917,-41.902504442305442,-43.823506350394993,-45.745587297061519,-47.667897143059896,-49.590206989056085,-51.512516835050192,-53.434826681042217,-55.35800275992991,-57.28133171307713,-59.204660666221926,-61.127989619364634,-63.051318572505096,-64.975419980110374,-66.899631746695846,-68.823843513279016,-70.748055279859841,-72.672267046438364,-74.597081067809711,-76.521962012703,-78.446842957593788,-80.371723902481918,-82.296604847367647,-84.2222302398431,-86.147916000538885,-88.073601761232169,-89.999287521923179,-91.924973282611631,-93.851190235775789,-95.777435151721122,-97.70368006766374,-99.629924983603374,-101.55616989954029,-103.48305501064222,-105.40995654320827,-107.33685807577153,-109.26375960833181,-111.19066114088918,0.18483564733886185,0.18483564733886185,0.18483564733886185,0.18483564733886185,0.18483564733886185,0.18483564733886185,0.18483564733886185,0.18483564733886185,0.18483564733886185,0.18483564733886185,0.18483564733886185,0.18483564733886185
DP 84,242.19657930533168,0.0028112668102648251,-253.0534184893084,-243.37820730738252,-233.70299612545526,-224.02778494352654,-214.35257376159652,-204.68384249905552,-195.26783054270103,-185.85181858634533,-176.43580662998815,-167.01979467362995,-157.62977832134345,-148.73368336072309,-139.83758840010142,-130.94149343947853,-122.04539847885474,-113.20400880381295,-105.03732454538294,-96.870640286951826,-88.703956028519514,-80.537271770085937,-72.4592114251329,-65.178774678354188,-57.898337931574375,-50.617901184793581,-43.337464438011587,-36.180055572877748,-29.883851182278065,-23.587646791677297,-17.2914424010755,-10.995238010472635,-4.8526518046533962,0.4194216739412267,5.6914951525368718,10.963568631133549,16.235642109731234,21.330587690129214,25.590492183390417,29.850396676652633,34.11030116991585,38.370205663179981,42.438428982764428,45.739918548666,49.041408114568526,52.342897680471971,55.64438724637634,58.749067306770542,61.175839691445169,63.602612076120757,66.029384460797246,68.456156845474737,70.689702923296551,72.343562774962237,73.997422626628833,75.6512824782963,77.305142329964724,78.776530109133219,79.7668488799044,80.757167650676479,81.747486421449409,82.737805192223263,83.5616180872965,83.9969120262933,84.432205965290962,84.867499904289488,85.30279384328891,85.590726642327368,85.5725974033724,85.5544681644182,85.53633892546496,85.5182096865126,85.373200856656723,84.992555074322269,84.61190929198861,84.231263509655889,83.850617727324078,83.363414759056312,82.698613795053888,82.033812831052344,81.3690118670517,80.704210903051887,79.951927224773485,79.068417407836051,78.184907590899584,77.3013977739639,76.417887957029166,75.464030320576782,74.414994657869769,73.365958995163751,72.316923332458572,71.267887669754217,70.16335000432116,68.990975391972711,67.818600779625157,66.646226167278471,65.473851554932665,64.25844849894446,62.995486833225918,61.732525167508264,60.469563501791427,59.206601836075762,55.25359499367957,53.924984465762847,52.596373937847076,51.243092769195449,49.867490100469325,48.491887431744146,47.116284763019912,45.74068209429668,44.346787669409885,42.937926947851857,41.529066226294844,40.120205504738834,38.71134478318379,37.289088478178776,35.85693086955181,34.424773260925939,32.992615652301048,31.560458043677205,30.118597833728664,28.67026907004724,27.221940306366921,25.773611542687679,24.325282779009534,22.869992083232667,21.41052412290918,19.951056162586827,18.4915882022656,17.032120241945496,15.567693504569474,14.100596584362524,12.633499664156771,11.166402743952201,9.6993058237487482,8.228693170580982,6.7563877078664154,5.2840822451531109,3.8117767824410227,2.3394713197301837,0.86467483153495028,-0.61118927264627543,-2.087053376826248,-3.5629174810048982,-5.0387815851823081,-6.5164195811534995,-7.9947304557587691,-9.4730413303627188,-10.951352204965291,-12.429663079566557,-13.909253866643175,-15.389271307341172,-16.869288748037707,-18.349306188732871,-19.829323629426579,-21.310286696503749,-22.79152431180486,-24.272761927104497,-25.753999542402678,-27.235237157699373,-28.71719940562134,-30.199342820260068,-31.68148623489726,-33.163629649532872,-34.645773064166931,-36.128500379932,-37.61135156020125,-39.094202740468781,-40.5770539207348,-42.05990510099911,-43.543247763797211,-45.026677164271149,-46.51010656474336,-47.993535965213781,-49.476965365682538,-50.96086527296832,-52.444832400594734,-53.9287995282194,-55.412766655842219,-56.896733783463304,-58.381076818386845,-59.865461624734522,-61.349846431080337,-62.834231237424035,-64.3186160437659,-65.803510190706973,-67.288445640737621,-68.773381090766222,-70.258316540793075,-71.74325199081801,-73.228549418070912,-74.713865900356339,-76.1991823826396,-77.684498864920656,-79.16981534719956,-80.6555852677853,-82.141366819387883,-83.627148370988238,-85.11292992258636,-86.598711474182224,0.14240926421375161,0.14240926421375161,0.14240926421375161,0.14240926421375161,0.14240926421375161,0.14240926421375161,0.14240926421375161,0.14240926421375161,0.14240926421375161,0.14240926421375161,0.14240926421375161,0.14240926421375161
DP 85,137.29238596622912,0.0038311589291794707,-275.88214747862611,-266.85857994826915,-257.83501241791004,-248.8114448875485,-239.78787735718507,-230.76809375442133,-221.89588475877676,-213.02367576313048,-204.15146676748193,-195.27925777183123,-186.42251922502945,-177.85972213096068,-169.29692503689029,-160.73412794281793,-152.17133084874382,-143.64204675021745,-135.52609382038605,-127.41014089055302,-119.29418796071796,-111.17823503088113,-103.11880481332035,-95.568084348854271,-88.0173638843865,-80.466643419917119,-72.91592295544595,-65.447718716562136,-58.557134296423584,-51.666549876283405,-44.775965456141513,-37.885381035998037,-31.104237475110253,-24.943265679663682,-18.782293884215552,-12.621322088765822,-6.460350293314491,-0.43465082418893558,4.9533289430533687,10.341308710297229,15.729288477542621,21.117268244789532,26.346977176013009,30.943595283168442,35.5402133903254,40.136831497483847,44.733449604643717,49.152982880951555,52.962549856204724,56.772116831459336,60.58168380671551,64.391250781972943,68.009990074127217,71.056239102069171,74.102488130012645,77.148737157957456,80.194986185903787,83.042140830527387,85.364403439616638,87.686666048707323,90.008928657799345,92.331191266892816,94.451541013017732,96.100754383870878,97.749967754725475,99.3991811255815,101.04839449643882,102.49793161289938,103.53275070141963,104.56756978994129,105.60238887846442,106.63720796698873,107.47898344795593,107.96224415868818,108.44550486942141,108.92876558015642,109.41202629089257,109.71244809639576,109.70813378460694,109.70381947281923,109.69950516103313,109.69519084924823,109.52091674929554,109.09169895089406,108.66248115249391,108.23326335409496,107.80404555569746,107.21953492218836,106.42491876389208,105.63030260559715,104.8356864473037,104.04107028901157,103.10679696311054,102.00182861000967,100.8968602569102,99.791891903812129,98.686923550715676,97.4581914589159,96.092665403647445,94.727139348380462,93.3616132931149,91.996087237850944,87.358544963863665,85.776632856266957,84.194720748671784,82.51942377213301,80.759634042390161,78.999844312648861,77.240054582909238,75.480264853171036,73.640820350311884,71.736202391434816,69.831584432559183,67.926966473685255,66.0223485148129,64.050534873949573,62.029053754848164,60.007572635748467,57.986091516650369,55.964610397554125,53.887025796458005,51.772037990202307,49.657050183948421,47.542062377696247,45.427074571445885,43.265692478766624,41.076473112592645,38.887253746420505,36.698034380250256,34.508815014081769,32.281570774745568,30.033851050757896,27.786131326772175,25.53841160278834,23.290691878806303,21.012061213716123,18.718547070058584,16.425032926403112,14.131518782749616,11.838004639098166,9.5195482746674962,7.1904020502519757,4.8612558258385192,2.5321096014272375,0.20296337701799003,-2.1461773043248296,-4.5029023506959138,-6.85962739706482,-9.21635244343147,-11.57307748979596,-13.945743099734131,-16.323722431757908,-18.70170176377929,-21.07968109579841,-23.457660427815178,-25.848296393428928,-28.242607019932731,-30.636917646434078,-33.031228272933056,-35.425538899429554,-37.829876202222145,-40.236720292553223,-42.643564382881841,-45.050408473207824,-47.45725256353127,-49.87204495206349,-52.288523434308367,-54.705001916550565,-57.121480398790055,-59.537958881026867,-61.96075441941003,-64.384664802651415,-66.808575185889936,-69.232485569125657,-71.656395952358466,-74.0854300078033,-76.515196071766653,-78.944962135727167,-81.374728199684569,-83.804494263639029,-86.238339297689777,-88.672637593475812,-91.106935889258537,-93.541234185038064,-95.975532480814351,-98.413493041281086,-100.8517505795481,-103.29000811781218,-105.72826565607296,-108.16652319433079,-110.60775455618415,-113.04914246465366,-115.49053037311957,-117.93191828158193,-120.37330619004061,-122.81759325998854,-125.26195469551291,-127.70631613103357,-130.15067756655037,-132.5950390020636,0.2356532578911035,0.2356532578911035,0.2356532578911035,0.2356532578911035,0.2356532578911035,0.2356532578911035,0.2356532578911035,0.2356532578911035,0.2356532578911035,0.2356532578911035,0.2356532578911035,0.2356532578911035
DP 86,183.86352142504282,0.0011189042646514418,-91.219507449589642,-87.996924287295855,-84.774341125001513,-81.551757962706617,-78.329174800411067,-75.108302021584436,-71.954134844736572,-68.799967667888239,-65.645800491039282,-62.49163331418977,-59.344398585898233,-56.328881690745135,-53.313364795591504,-50.297847900437418,-47.282331005282821,-44.281638499037044,-41.463781990965849,-38.645925482894221,-35.828068974822045,-33.010212466749365,-30.21691170095896,-27.644614936752006,-25.072318172544573,-22.500021408336671,-19.927724644128329,-17.390478301462476,-15.098587560002478,-12.806696818542019,-10.514806077081102,-8.2229153356197369,-5.97627000919951,-3.9860182191139182,-1.9957664290278831,-0.0055146389414150584,1.9847371511454899,3.9207859854898914,5.6013036722886058,7.2818213590877514,8.9623390458873242,10.6428567326873,12.262151511869828,13.636551767151886,15.010952022434358,16.385352277717228,17.759752533000512,19.068265942105231,20.149833002060543,21.231400062016281,22.31296712197241,23.394534181928922,24.408042146804735,25.217370253228633,26.026698359652936,26.836026466077634,27.645354572502693,28.386829136607595,28.949414756924948,29.512000377242664,30.0745859975608,30.637171617879282,31.13418763798089,31.478205858338448,31.822224078696394,32.16624229905473,32.510260519413443,32.79265393929564,32.947055596697,33.101457254098776,33.255858911500916,33.410260568903439,33.508176575526527,33.50118913381997,33.494201692113748,33.487214250407931,33.4802268087025,33.422626007277692,33.28066833057882,33.138710653880345,32.996752977182247,32.854795300484554,32.668415345096577,32.415400921962338,32.162386498828475,31.909372075695003,31.656357652561873,31.365088198337379,31.022061086540155,30.679033974743291,30.336006862946885,29.992979751150802,29.617579624088343,29.202611798381792,28.787643972675625,28.372676146969837,27.957708321264448,27.515783897593153,27.044064802913738,26.572345708234714,26.100626613556088,25.628907518877874,24.103183243820158,23.587237269126692,23.071291294433635,22.537454988337718,21.987431869827148,21.437408751316987,20.887385632807252,20.337362514297908,19.773050483897311,19.19704728002144,18.621044076145981,18.045040872270967,17.469037668396385,16.881756976076186,16.286140563433534,15.690524150791351,15.094907738149619,14.499291325508354,13.894871378654807,13.28458227030665,12.674293161958975,12.064004053611749,11.453714945265,10.836622127902737,10.215446982236335,9.5942718365704227,8.9730966909050114,8.35192154524008,7.7255354075724165,7.0963432753575644,6.4671511431432211,5.837959010929394,5.2087668787160464,4.5756149251905471,3.9405563355836875,3.3054977459773722,2.6704391563715912,2.0353805667663551,1.3973322747922499,0.75800264143328711,0.11867300807487201,-0.52065662528296375,-1.159986258640257,-1.8015625322423534,-2.4439910090203729,-3.0864194857978124,-3.7288479625746516,-4.37127643935092,-5.0153893532740819,-5.6600637674744583,-6.30473818167419,-6.9494125958733308,-7.5940870100718332,-8.2400255165748071,-8.8863310330345211,-9.53263654949358,-10.178942065951997,-10.825247582409769,-11.472506906761861,-12.120004694356362,-12.767502481950206,-13.415000269543365,-14.062498057135839,-14.710724241040641,-15.359104941598869,-16.007485642156343,-16.655866342713129,-17.304247043269189,-17.953191757710396,-18.602236010284962,-19.25128026285876,-19.900324515431823,-20.549368768004097,-21.198876043747592,-21.848449470659467,-22.498022897570578,-23.147596324480883,-23.79716975139041,-24.447097552940349,-25.097064733171333,-25.747031913401457,-26.396999093630679,-27.046966273859063,-27.697300466535193,-28.347664420726932,-28.998028374917791,-29.648392329107892,-30.29875628329712,-30.949390752696267,-31.600039462428558,-32.250688172159933,-32.901336881890352,-33.551985591619825,-34.202929329060773,-34.853880634174004,-35.504831939286305,-36.155783244397568,-36.806734549507873,0.062542220162049841,0.062542220162049841,0.062542220162049841,0.062542220162049841,0.062542220162049841,0.062542220162049841,0.062542220162049841,0.062542220162049841,0.062542220162049841,0.062542220162049841,0.062542220162049841,0.062542220162049841
DP 87,163.37890475933662,0.0027074271730152524,-210.45514138391655,-203.25453458186482,-196.05392777981177,-188.85332097775711,-181.65271417570139,-174.45557653262841,-167.39373740159414,-160.33189827055824,-153.27005913952118,-146.2082200084827,-139.16049458694667,-132.38093231407632,-125.60137004120486,-118.82180776833204,-112.04224549545803,-105.29303597997055,-98.9181809642389,-92.543325948505753,-86.1684709327716,-79.793615917035964,-73.46943587702593,-67.601335408415565,-61.733234939804085,-55.865134471191439,-49.997034002577607,-44.20198404704167,-38.9182932069135,-33.634602366784179,-28.350911526653757,-23.067220686522177,-17.878951901625683,-13.231414109335111,-8.5838763170434813,-3.936338524750755,0.71119926754305385,5.2428506454892529,9.2281740965248069,13.213497547561424,17.198820998599082,21.184144449637778,25.036543868391814,28.357240875938864,31.677937883486912,34.998634891036005,38.319331898586086,41.49453381373592,44.168579854010261,46.842625894285618,49.516671934561977,52.190717974839281,54.711680822647729,56.773388305209053,58.835095787771344,60.896803270334658,62.958510752898889,64.864554917332285,66.360208619975353,67.8558623226193,69.351516025264161,70.847169727910043,72.189216867951828,73.172843855561311,74.156470843171775,75.140097830783134,76.1237248183955,76.9597693531113,77.4892921934539,78.018815033797381,78.5483378741417,79.077860714487088,79.4689558776107,79.602967330368017,79.736978783126233,79.8709902358853,80.005001688645422,80.011970414537942,79.807198060125785,79.602425705714452,79.397653351304058,79.192880996894615,78.8738114454092,78.383293397435267,77.892775349462212,77.40225730149011,76.911739253518988,76.320250777325583,75.5921530055756,74.8640552338265,74.135957462078437,73.407859690331165,72.592052011514241,71.669041492848,70.746030974182716,69.82302045551846,68.900009936855128,67.901984934374823,66.821047693896233,65.740110453418666,64.6591732129421,63.578235972466544,60.01923217835683,58.811817869717,57.604403561078129,56.344388877445382,55.036782431324028,53.7291759852037,52.421569539084473,51.113963092966259,49.763146424990872,48.37697519653662,46.990803968083448,45.604632739631349,44.218461511180351,42.797202678016014,41.350008951538705,39.9028152250626,38.455621498587568,37.00842777211372,35.5330469878388,34.038874387651731,32.5447017874658,31.050529187281114,29.556356587097554,28.039763976967798,26.509719021804646,24.979674066642694,23.449629111482022,21.919584156322546,20.371867478500928,18.814635000730956,17.257402522962295,15.700170045194891,14.142937567428703,12.571889547019371,10.994189405210674,9.4164892634033777,7.8387891215974177,6.2610889797928309,4.67266476182436,3.079644366407809,1.4866239709926357,-0.10639642442108092,-1.6994168198334343,-3.3007124827674668,-4.9051471481656543,-6.5095818135623924,-8.1140164789576126,-9.7184511443514019,-11.329244137145325,-12.942156652537763,-14.555069167928615,-16.167981683317926,-17.780894198705663,-19.3986813128631,-21.01788369256564,-22.637086072266566,-24.256288451965883,-25.8754908316635,-27.498432937380475,-29.122310018786273,-30.746187100190404,-32.37006418159276,-33.993941262993452,-35.620702009213673,-37.248074474947828,-38.875446940680085,-40.502819406410623,-42.130191872139321,-43.759803353258029,-45.389809979636354,-47.019816606012625,-48.649823232387142,-50.279829858759655,-51.9116405437696,-53.543708970928407,-55.175777398085344,-56.807845825240257,-58.439914252393173,-60.073375036052667,-61.706990540611685,-63.34060604516857,-64.974221549723239,-66.607837054275734,-68.242777849890643,-69.877826115078236,-71.512874380263767,-73.147922645447224,-74.782970910628592,-76.419032577711576,-78.055147591817189,-79.691262605920514,-81.327377620021451,-82.96349263411993,-84.600647326752068,-86.237828687885056,-87.875010049015529,-89.512191410143529,-91.149372771269086,0.15749320568658448,0.15749320568658448,0.15749320568658448,0.15749320568658448,0.15749320568658448,0.15749320568658448,0.15749320568658448,0.15749320568658448,0.15749320568658448,0.15749320568658448,0.15749320568658448,0.15749320568658448
DP 88,205.23010926136908,0.0014381888391355475,-122.21253035793255,-117.75987374743757,-113.30721713694211,-108.85456052644581,-104.40190391594891,-99.951837797234447,-95.602801837493246,-91.253765877751334,-86.904729918008726,-82.555693958265479,-78.217116328061735,-74.077248936191111,-69.937381544319862,-65.797514152448016,-61.657646760575538,-57.540013713636419,-53.696607056373665,-49.85320039911015,-46.009793741846053,-42.166387084581309,-38.359509671854134,-34.881398912758982,-31.403288153663247,-27.925177394566891,-24.447066635469984,-21.020565649647118,-17.955336979318915,-14.890108308990149,-11.824879638660811,-8.7596509683309058,-5.7602321011803514,-3.1337395989945622,-0.5072470968082281,2.1192454053786545,4.74573790756608,7.2944972231918275,9.4767958893497823,11.659094555508267,13.841393221667284,16.023691887826804,18.119569856860505,19.869760953098062,21.619952049336156,23.370143145574747,25.120334241813836,26.779128872553805,28.123109615951737,29.467090359350166,30.811071102749068,32.15505184614851,33.406387289488137,34.379783329871962,35.353179370256257,36.326575410641077,37.299971451026394,38.1828486834683,38.827082310990015,39.471315938512241,40.115549566034929,40.7597831935581,41.318394713618005,41.677218618563842,42.036042523510233,42.394866428457014,42.7536903334043,43.033829866335424,43.15054572282174,43.267261579308517,43.383977435795821,43.500693292283529,43.546955587619109,43.462373652429129,43.3777917172396,43.29320978205056,43.208627846861958,43.062431124691905,42.813541537846383,42.564651951001281,42.315762364156676,42.066872777312533,41.765243753432834,41.384504327752076,41.003764902071836,40.62302547639203,40.242286050712721,39.8172838998949,39.33239590123965,38.84750790258488,38.36261990393055,37.877731905276733,37.3563621226141,36.790402726540933,36.22444333046824,35.658483934396045,35.092524538324341,34.496994446499905,33.868780365674077,33.240566284848718,32.6123522040239,31.984138123199557,29.981486888626115,29.306069121728363,28.630651354831134,27.936663176078639,27.225872861781813,26.515082547485488,25.804292233189688,25.093501918894418,24.368291477227018,23.631282501708743,22.894273526190933,22.1572645506737,21.420255575156986,20.672184425367028,19.915936704051941,19.159688982737428,18.40344126142346,17.647193540110056,16.882553353781542,16.112318058565659,15.34208276335038,14.571847468135665,13.801612172921551,13.025073052848942,12.244751542526393,11.464430032204451,10.684108521883143,9.9037870115624145,9.1187715693898657,8.33122855719344,7.5436855449976781,6.7561425328025457,5.96859952060802,5.1775863441144461,4.3849022991803785,3.5922182542469936,2.7995342093142623,2.0068501643822114,1.2116138509133472,0.41528367360869251,-0.3810465036952827,-1.1773766809985398,-1.973706858301125,-2.7719095516902095,-3.57082253421403,-4.3697355167371361,-5.1686484992594934,-5.9675614817811455,-6.7678501005228862,-7.5685972820077225,-8.3693444634917533,-9.17009164497505,-9.9708388264575625,-10.772603173069417,-11.574662838091591,-12.376722503112973,-13.178782168133543,-13.980841833153328,-14.783663881232066,-15.586676534082557,-16.389689186932248,-17.192701839781058,-17.995714492629059,-18.799311948733582,-19.603033460713217,-20.406754972691939,-21.210476484669805,-22.014197996646754,-22.818379372125591,-23.622641905100103,-24.426904438073652,-25.231166971046303,-26.035429504017987,-26.840086210358702,-27.644799231437876,-28.449512252516151,-29.254225273593367,-30.058938294669666,-30.863955033420364,-31.66900552176816,-32.474056010114893,-33.279106498460514,-34.084156986805077,-34.889557620984796,-35.694986648944443,-36.500415676903039,-37.305844704860611,-38.111273732817175,-38.91695481774692,-39.722649171339867,-40.528343524931621,-41.3340378785222,-42.1397322321116,-42.9457196534951,-43.751714592277388,-44.557709531058428,-45.36370446983824,-46.169699408616822,0.077358800641802117,0.077358800641802117,0.077358800641802117,0.077358800641802117,0.077358800641802117,0.077358800641802117,0.077358800641802117,0.077358800641802117,0.077358800641802117,0.077358800641802117,0.077358800641802117,0.077358800641802117
DP 89,246.7436172665476,0.0053075594835532607,-480.68908689583537,-462.20825996485917,-443.72743303388023,-425.24660610289897,-406.76577917191463,-388.29752929912485,-370.31978945119783,-352.34204960326883,-334.36430975533693,-316.38656990740338,-298.45924584856323,-281.48983131328561,-264.52041677800594,-247.55100224272394,-230.5815877074397,-213.71813821164923,-198.16160422423582,-182.60507023682024,-167.04853624940264,-151.49200226198258,-136.10683866141338,-122.26402474065667,-108.42121081989809,-94.578396899137417,-80.735582978374566,-67.13015216571192,-55.1864210599443,-43.242689954174772,-31.298958848403206,-19.355227742629655,-7.7071468180439142,2.2655644496700229,12.238275717385889,22.210986985103677,32.183698252823355,41.816514801124022,49.846952170874,57.877389540625856,65.907826910379526,73.938264280135058,81.602084966367144,87.79942159198778,93.996758217610108,100.19409484323438,106.39143146886013,112.21369262962121,116.7440114324834,121.27433023534714,125.80464903821253,130.33496784107984,134.49846142165023,137.5614654662329,140.62446951081722,143.68747355540327,146.75047759999109,149.46849583285865,151.27699415902666,153.08549248519637,154.89399081136779,156.70248913754088,158.19754980314457,158.96124605192497,159.72494230070708,160.48863854949084,161.25233479827622,161.73988653865891,161.65389934574623,161.56791215283519,161.48192495992592,161.39593776701804,161.07330369113353,160.31117615596841,159.54904862080522,158.78692108564329,158.02479355048334,157.06488647207769,155.77534183643741,154.48579720079874,153.1962525651617,151.90670792952628,150.45559696666379,148.76213269510328,147.06866842354424,145.37520415198696,143.68173988043122,141.85901749479117,139.86141360947903,137.86380972416859,135.86620583885968,133.86860195355246,131.7695489604981,129.54650048262312,127.32345200475001,125.10040352687858,122.87735504900863,120.57607377670047,118.18832312219196,115.8005724676852,113.41282181318013,111.02507115867695,103.56502211341008,101.05855240177974,98.552082690151266,96.001240887640137,93.410252108788143,90.819263329937812,88.228274551089484,85.637285772242819,83.013577793111708,80.363098996901968,77.712620200693962,75.062141404487832,72.411662608283592,69.737353741666567,67.045430953015426,64.353508164366261,61.661585375719014,58.969662587073785,56.2605729581034,53.540038498478971,50.819504038856628,48.098969579236233,45.378435119617919,42.645648185904541,39.905509582436352,37.165370978970188,34.425232375506226,31.6850937720443,28.936272089517558,26.182774776613133,23.429277463711021,20.675780150811086,17.922282837913279,15.162657392362725,12.400081278611971,9.63750516486357,6.8749290511174461,4.1123529373736734,1.3454509898409117,-1.4233049448688202,-4.1920608795762027,-6.960816814281106,-9.729572748983685,-12.501401837766291,-15.274396645747061,-18.047391453725371,-20.8203862617011,-23.593381069674365,-26.36859258036629,-29.14454301989942,-31.920493459429828,-34.696443898957632,-37.472394338482744,-40.249986796271031,-43.028055989063375,-45.806125181852977,-48.584194374639786,-51.362263567423824,-54.141598669635833,-56.921250264159411,-59.700901858680126,-62.480553453197963,-65.260205047712844,-68.0408862778899,-70.821785927425935,-73.602685576958763,-76.3835852264887,-79.164484876015493,-81.946260802752491,-84.728191376386,-87.510121950016227,-90.29205252364325,-93.073983097267018,-95.85676449299288,-98.63966744392134,-101.42257039484655,-104.20547334576838,-106.98837629668678,-109.77196238071828,-112.55562437560002,-115.33928637047836,-118.12294836535298,-120.90661036022364,-123.69121196622211,-126.47588976650498,-129.26056756678406,-132.04524536705966,-134.82992316733188,-137.615268507303,-140.40064898758033,-143.18602946785364,-145.97140994812278,-148.75679042838786,-151.5430121273794,-154.329255404233,-157.11549868108241,-159.90174195792747,-162.68798523476849,0.26701810439672252,0.26701810439672252,0.26701810439672252,0.26701810439672252,0.26701810439672252,0.26701810439672252,0.26701810439672252,0.26701810439672252,0.26701810439672252,0.26701810439672252,0.26701810439672252,0.26701810439672252
DP 90,66.027140216175013,0.0055583809448713373,-263.90616992588548,-256.5618079968861,-249.21744606788394,-241.8730841388782,-234.5287222098697,-227.18618062395433,-219.91463310704671,-212.64308559013617,-205.37153807322244,-198.09999055630573,-190.83602506785391,-183.71611955361371,-176.59621403937089,-169.4763085251254,-162.35640301087724,-155.25325674343651,-148.35680996545614,-141.46036318747292,-134.56391640948695,-127.66746963149818,-120.80012024072578,-114.19465008524408,-107.58917992975971,-100.98370977427291,-94.378239618783539,-87.816770372379153,-81.563310816798889,-75.30985126121621,-69.056391705630887,-62.802932150043148,-56.6103711605534,-50.762905883098647,-44.915440605641464,-39.06797532818188,-33.22051005071993,-27.452133179030149,-22.05660592057712,-16.661078662121735,-11.26555140366405,-5.8700241452040549,-0.57236410975105978,4.3338224084063564,9.2400089265660466,14.146195444728011,19.052381962892206,23.842020762871922,28.230212526333471,32.618404289797205,37.006596053263209,41.3947878167314,45.648503142383284,49.4987840702355,53.3490649980899,57.199345925946595,61.049626853805378,64.748830099441065,68.049732444654936,71.350634789871037,74.651537135089228,77.952439480309664,81.0874792822074,83.835501257178478,86.583523232151549,89.331545207126851,92.079567182104412,94.649135759303263,96.8480651664628,99.0469945736246,101.2459239807884,103.44485338795452,105.45520571586685,107.1153383753018,108.7754710347387,110.43560369417793,112.09573635361923,113.55978711313799,114.69702976374981,115.83427241436385,116.97151506498018,118.10875771559863,119.04508243965108,119.68002552610741,120.31496861256595,120.9499116990268,121.5848547854897,122.01667383102155,122.17367348011385,122.33067312920855,122.48767277830542,122.6446724274047,122.59882884593803,122.30506149978659,122.01129415363765,121.71752680749115,121.42375946134686,120.92973262358262,120.21436236271224,119.49899210184427,118.78362184097885,118.06825158011576,114.94397052992873,113.83733142237423,112.73069231482231,111.43481704710784,109.96772470366379,108.50063236022237,107.03354001678348,105.56644767334728,103.91797526731665,102.12109787475613,100.3242204821983,98.5273430896432,96.730465697090864,94.761217577486519,92.664562173945171,90.567906770406722,88.4712513668711,86.374595963338408,84.115426542521433,81.747911883348877,79.3803972241792,77.012882565012546,74.645367905848858,72.125754990577946,69.514880821404887,66.904006652234969,64.29313248306822,61.682258313904562,58.929988809860959,56.101581300138733,53.2731737904198,50.444766280704066,47.616358770991532,44.657303617413923,41.6353422132431,38.613380809075714,35.5914194049118,32.569458000751361,29.427424961610576,26.23393102900916,23.040437096411285,19.84694316381713,16.653449231226489,13.350098976149843,10.005077649272328,6.6600563223985665,3.3150349955287006,-0.029986331337475317,-3.4751688233926843,-6.9537396328203558,-10.432310442243915,-13.910881251663552,-17.389452061079126,-20.959144448172,-24.555292598188561,-28.151440748200944,-31.747588898209138,-35.343737048213058,-39.022735823084282,-42.722448233059986,-46.422160643031347,-50.121873052998183,-53.82158546296062,-57.596744646157852,-61.387908554741742,-65.1790724633209,-68.970236371895467,-72.761400280465239,-76.6215296022556,-80.493830057985022,-84.366130513709308,-88.238430969428848,-92.110731425143257,-96.046634560825368,-99.991624480703337,-103.93661440057627,-107.88160432044397,-111.82659424030656,-115.83058983498938,-119.84114223545591,-123.85169463591676,-127.86224703637184,-131.87279943682137,-135.93958350889167,-140.01092748028611,-144.08227145167507,-148.15361542305877,-152.22495939443709,-156.35001336645959,-160.47789471500732,-164.605776063549,-168.73365741208414,-172.86153876061317,-177.04269663140232,-181.22522108334596,-185.40774553528303,-189.590269987214,-193.77279443913824,0.41025867920104964,0.41025867920104964,0.41025867920104964,0.41025867920104964,0.41025867920104964,0.41025867920104964,0.41025867920104964,0.41025867920104964,0.41025867920104964,0.41025867920104964,0.41025867920104964,0.41025867920104964
DP 91,232.92893130885165,0.0030013811548737141,-266.65977002702851,-256.58141883305962,-246.50306763908955,-236.42471644511821,-226.34636525114524,-216.27454230396987,-206.45732345018808,-196.64010459640471,-186.82288574262014,-177.00566688883424,-167.21467703420848,-157.92204312205155,-148.6294092098934,-139.33677529773391,-130.04414138557334,-120.80684638147233,-112.25207155106003,-103.69729672064639,-95.14252189023135,-86.587747059815172,-78.122937569815676,-70.467824647210563,-62.812711724604249,-55.157598801996791,-47.502485879388146,-39.97281280319379,-33.321228137283171,-26.669643471371387,-20.018058805458491,-13.366474139544431,-6.8723418607045863,-1.2704496970118613,4.3314424666819669,9.933334630376903,15.535226794072935,20.954475414883316,25.512680325697229,30.070885236512218,34.629090147328249,39.187295058145395,43.546517922966608,47.109803199796708,50.673088476627832,54.236373753459965,57.799659030293135,61.157132173420578,63.805688209959641,66.45424424649984,69.102800283040992,71.751356319583167,74.1962387152091,76.030092487499118,77.863946259790183,79.697800032082057,81.531653804375026,83.171540984251237,84.300055026321786,85.428569068393415,86.557083110465911,87.685597152539358,88.635534451519362,89.168787056855223,89.7020396621921,90.235292267529928,90.768544872868731,91.142276592780377,91.1846910650831,91.227105537386848,91.269520009691576,91.311934481997113,91.215665647175,90.861838353828858,90.508011060483653,90.154183767139344,89.800356473796143,89.328890118666166,88.661355695391279,87.993821272117316,87.326286848844319,86.658752425572217,85.8936399447304,84.982158071736833,84.070676198744266,83.15919432575258,82.247712452761917,81.2569348752148,80.158873110298714,79.0608113453836,77.96274958046935,76.864687815556152,75.703388907889519,74.464798830803232,73.2262087537178,71.987618676633431,70.749028599550044,69.4608742697041,68.117937411043329,66.775000552383432,65.432063693724558,64.089126835066679,59.8691559453344,58.44975481662636,57.030353687919259,55.5818932365621,54.107140493908425,52.632387751255763,51.157635008604196,49.68288226595363,48.186338886121582,46.67196642865499,45.157593971189435,43.643221513724932,42.128849056261529,40.598336762016935,39.055894757881262,37.513452753746733,35.971010749613257,34.428568745480995,32.874304043025667,31.312157355439705,29.750010667854927,28.187863980271302,26.625717292688837,25.054993170494271,23.479122457813187,21.903251745133307,20.327381032454682,18.751510319777221,17.169465132709547,15.584095138875673,13.998725145043119,12.413355151211844,10.827985157381784,9.238194669171067,7.646275732876993,6.0543567965842788,4.4624378602928836,2.8705189240028433,1.2754419488387012,-0.32098851419935726,-1.9174189772360581,-3.5138494402713247,-5.1102799033052513,-6.7089723566619694,-8.3085228358375751,-9.9080733150117588,-11.507623794184441,-13.107174273355714,-14.708360181636937,-16.310091253564842,-17.911822325491151,-19.513553397415997,-21.115284469339286,-22.718219839121293,-24.321504858452247,-25.9247898777816,-27.528074897109381,-29.131359916435517,-30.735558588545423,-32.339985684644859,-33.944412780742617,-35.548839876838706,-37.1532669729331,-38.7584177090228,-40.363721952794862,-41.969026196565132,-43.574330440333654,-45.179634684100392,-46.785535413068281,-48.391541410761945,-49.997547408453762,-51.603553406143675,-53.209559403831733,-54.816119902758416,-56.422759622136034,-58.029399341511706,-59.636039060885366,-61.242678780257151,-62.849756975780991,-64.456883895480473,-66.0640108151778,-67.671137734872872,-69.27826465456603,-70.885965832601642,-72.49371357799069,-74.101461323377634,-75.709209068762689,-77.316956814145627,-78.925112908096864,-80.533290498138641,-82.1414680881781,-83.7496456782152,-85.357823268249888,-86.966505694351426,-88.575201069859261,-90.183896445364624,-91.792591820867656,-93.40128719636806,0.15423731568132276,0.15423731568132276,0.15423731568132276,0.15423731568132276,0.15423731568132276,0.15423731568132276,0.15423731568132276,0.15423731568132276,0.15423731568132276,0.15423731568132276,0.15423731568132276,0.15423731568132276
DP 92,169.170044420345,0.0051897950333055168,-409.26548817242173,-395.13154443147636,-380.997600690528,-366.86365694957641,-352.72971320862268,-338.60277460434628,-324.74903897913327,-310.89530335391794,-297.0415677287,-283.18783210347914,-269.362566094269,-256.07822817127374,-242.79389024827631,-229.5095523252763,-216.2252144022741,-203.00200405389489,-190.53270816303748,-178.06341227217769,-165.5941163813155,-153.1248204904507,-140.75735255467885,-129.30634583966332,-117.85533912464567,-106.40433240962574,-94.95332569460362,-83.648698165136011,-73.368736003307646,-63.088773841477185,-52.808811679644549,-42.528849517809761,-32.439453435108639,-23.429943809192569,-14.420434183274429,-5.4109245573542237,3.5985850685680445,12.377553778732263,20.069674291174753,27.761794803619281,35.45391531606581,43.146035828514272,50.574875243312441,56.950577824689205,63.326280406067916,69.701982987448588,76.0776855688311,82.166591576100345,87.267630668823571,92.368669761548617,97.469708854275609,102.57074794700439,107.37160693718869,111.27191427039,115.17222160359324,119.07252893679838,122.97283627000535,126.56961604064205,129.36617635003992,132.16273665943962,134.9592969688411,137.75585727824443,140.25468144469954,142.05877856348874,143.86287568227976,145.66697280107249,147.47106991986703,148.99089911257749,149.92031742208945,150.84973573160326,151.77915404111883,152.70857235063619,153.37310427092481,153.54569717197103,153.7182900730192,153.890882974069,154.0634758751207,153.99462471431519,153.52336069799739,153.05209668168141,152.58083266536718,152.10956864905458,151.42261454923366,150.41212022733313,149.4016259054344,148.39113158353746,147.38063726164233,146.18098558763359,144.72541093620836,143.26983628478516,141.81426163336363,140.35868698194403,138.74002277600337,136.9220234666688,135.10402415733623,133.28602484800527,131.46802553867622,129.5116067994984,127.4021954097383,125.29278401998009,123.18337263022383,121.07396124046943,114.16682040004505,111.82584590408148,109.48487140811982,107.04835515544841,104.52539464085686,102.00243412626709,99.479473611679438,96.95651309709379,94.355697646670933,91.6911813653027,89.026665083936422,86.362148802572293,83.697632521210238,80.970410887965954,78.196840789943138,75.4232706919227,72.649700593904214,69.876130495888049,67.052600359300968,64.195762743287858,61.338925127276973,58.482087511268325,55.62524989526198,52.729001938525464,49.809107181334561,46.889212424145974,43.9693176669598,41.04942290977587,38.098720779910842,35.131429616765296,32.164138453622193,29.196847290481482,26.229556127343105,23.23837746205152,20.235697072336013,17.233016682623109,14.230336292912748,11.22765590320499,8.2065825222117628,5.177626182308547,2.1486698424079522,-0.880286497489883,-3.9092428373851345,-6.95228170979782,-10.000662416073467,-13.049043122346365,-16.097423828616375,-19.14580453488367,-22.20492620984049,-25.267628343058345,-28.330330476273151,-31.393032609485083,-34.455734742694013,-37.526616935410509,-40.599874083876941,-43.673131232340289,-46.746388380800632,-49.8196455292578,-52.8991434430677,-55.980201621948645,-59.061259800826463,-62.142317979701,-65.223376158572222,-68.309227555707,-71.396095751023537,-74.4829639463366,-77.5698321416463,-80.6567003369525,-83.747281525155174,-86.838517988684387,-89.92975445220992,-93.0209909157319,-96.112227379250214,-99.206464478563063,-102.30113027254312,-105.39579606651951,-108.49046186049206,-111.5851276544609,-114.68210030069302,-117.77932928806695,-120.87655827543662,-123.97378726280222,-127.07101625016369,-130.17048729067827,-133.27014014219336,-136.36979299370429,-139.4694458452114,-142.56909869671452,-145.67044613711113,-148.77188278325269,-151.87331942938974,-154.97475607552224,-158.07619272165033,-161.17939611055306,-164.28264481767559,-167.38589352479363,-170.48914223190698,-173.59239093901556,0.29841115213212244,0.29841115213212244,0.29841115213212244,0.29841115213212244,0.29841115213212244,0.29841115213212244,0.29841115213212244,0.29841115213212244,0.29841115213212244,0.29841115213212244,0.29841115213212244,0.29841115213212244
DP 93,167.4218403514972,0.0014729343677851627,-115.66106618072561,-111.67785160196377,-107.69463702320112,-103.71142244443773,-99.728207865673539,-95.746950934180035,-91.84204298643543,-87.937135038690087,-84.032227090944,-80.127319143197184,-76.230369250992126,-72.484623918505818,-68.73887858601887,-64.993133253531227,-61.247387921042979,-57.51873813594981,-54.000935589927494,-50.483133043904488,-46.9653304978808,-43.447527951856443,-39.958222265052129,-36.725391004791817,-33.492559744530858,-30.259728484269242,-27.026897224006998,-23.835065908748152,-20.930237308806745,-18.02540870886472,-15.120580108922066,-12.215751508978798,-9.3643528333584616,-6.8157270957429974,-4.267101358126947,-1.7184756205103047,0.83015011710692,3.3140621160160975,5.4928915656892086,7.6717210153629063,9.8505504650371627,12.029379914711971,14.134207837370273,15.943026154606644,17.751844471843548,19.560662789081022,21.369481106319036,23.097571302535165,24.547594579446038,25.997617856357468,27.447641133269435,28.897664410181932,30.263058989147307,31.374564274589993,32.486069560033229,33.597574845476984,34.709080130921308,35.73486793313748,36.534670333346817,37.33447273355668,38.134275133767069,38.934077533977941,39.649646718988144,40.168669081256787,40.687691443525921,41.206713805795573,41.725736168065737,42.164183557196438,42.435280581795169,42.706377606394362,42.977474630994081,43.248571655594326,43.444438179376895,43.500588884248913,43.556739589121456,43.612890293994489,43.669040998868034,43.656477921679979,43.529390142414904,43.402302363150284,43.275214583886211,43.148126804622613,42.959523909666814,42.678646887553221,42.397769865440189,42.116892843327641,41.836015821215582,41.501072416454072,41.09297917389263,40.684885931331713,40.276792688771273,39.868699446211373,39.413885505047652,38.901967506458838,38.390049507870543,37.878131509282746,37.366213510695466,36.814550778351304,36.21895886517764,35.623366952004538,35.027775038831926,34.432183125659918,32.478792982567185,31.816555181977726,31.154317381388847,30.464516040824947,29.749775763076876,29.035035485329342,28.320295207582419,27.605554929836028,26.868299137722328,26.112621174182536,25.356943210643315,24.601265247104703,23.845587283566658,23.071730450611337,22.284436763167392,21.497143075724065,20.709849388281349,19.922555700839251,19.120742239652184,18.309248700564584,17.497755161477606,16.686261622391278,15.874768083305598,15.051792257052561,14.221926884848504,13.392061512645103,12.562196140442392,11.732330768240317,10.893467248630138,10.04975844187515,9.2060496351208769,8.3623408283672767,7.5186320216143363,6.6679289789455636,5.8138582432654351,4.95978750758605,4.105716771907387,3.2516460362294684,2.3921768035936495,1.5303938565089688,0.66861090942503165,-0.19317203765811924,-1.054954984740534,-1.9208809316035822,-2.7883784151554525,-3.655875898706539,-4.5233733822568034,-5.3908708658062965,-6.2615352029253453,-7.13325519781163,-8.0049751926970476,-8.8766951875816531,-9.7484151824654,-10.622551702864786,-11.497389824660011,-12.372227946454338,-13.247066068247813,-14.121904190040388,-14.998588907761519,-15.875735296281809,-16.752881684801206,-17.630028073319661,-18.507174461837188,-19.385740692115267,-20.264608117215108,-21.143475542313951,-22.022342967411841,-22.901210392508741,-23.781178318833138,-24.6613404634934,-25.541502608152619,-26.421664752810827,-27.301826897467997,-28.182877446372451,-29.064054919765372,-29.945232393157241,-30.826409866548012,-31.707587339937735,-32.58944850599589,-33.471385645085377,-34.353322784173706,-35.235259923260813,-36.117197062346804,-36.999794369055465,-37.882445209613614,-38.765096050170555,-39.647746890726424,-40.53039773128117,-41.413549189866835,-42.296727001749652,-43.179904813631119,-44.063082625511278,-44.94626043739018,-45.829957653070139,-46.713668191830394,-47.597378730589305,-48.481089269346889,-49.364799808103115,0.084987978234858735,0.084987978234858735,0.084987978234858735,0.084987978234858735,0.084987978234858735,0.084987978234858735,0.084987978234858735,0.084987978234858735,0.084987978234858735,0.084987978234858735,0.084987978234858735,0.084987978234858735
DP 94,92.670329442793019,0.0044788586311452355,-263.11375498669491,-255.2654760286932,-247.41719707068944,-239.5689181126825,-231.72063915467328,-223.87481015517872,-216.12453046414575,-208.37425077310996,-200.62397108207193,-192.87369139103137,-185.13353035934227,-177.58562576823056,-170.03772117711648,-162.4898165860003,-154.94191199488179,-147.41620250675334,-140.16423541940284,-132.91226833205019,-125.66030124469509,-118.40833415733798,-111.19447131825764,-104.32355031534847,-97.45262931243704,-90.581708309523776,-83.710787306608253,-76.896727318502613,-70.4806987337338,-64.064670148962932,-57.648641564190058,-51.2326129794152,-44.89401987078211,-38.994232673156006,-33.094445475528047,-27.19465827789811,-21.294871080266212,-15.493780057553492,-10.157976333111327,-4.8221726086672714,0.51363111577866827,5.8494348402264755,11.065681852342083,15.803696364805019,20.541710877269793,25.279725389736409,30.01773990220482,34.616719719551405,38.736796412932428,42.856873106315213,46.976949799699831,51.097026493086247,55.060818487530362,58.55575047626148,62.050682464994431,65.545614453729016,69.040546442465512,72.364815213742617,75.2391478185228,78.1134804233048,80.987813028088482,83.862145632873933,86.554745475487053,88.823296480501014,91.09184748551678,93.360398490534337,95.628949495553442,97.70823871644393,99.3944402659159,101.08064181538951,102.766843364865,104.45304491434209,105.94602697891969,107.0801676391623,108.21430829940667,109.34844895965279,110.48258961990066,111.42298573474999,112.04046939048067,112.65795304621304,113.27543670194717,113.8929203576831,114.31929218724079,114.458991761505,114.59869133577095,114.73839091003858,114.8780904843081,114.83208655956938,114.53483259431259,114.23757862905764,113.94032466380445,113.64307069855288,113.16785585004885,112.47512951733337,111.78240318461971,111.08967685190795,110.39695051919792,109.53586039085802,108.48868061178348,107.44150083271079,106.3943210536401,105.3471412745711,101.41863659217042,100.05667007995288,98.6947035677372,97.187234796997586,95.548118506063545,93.909002215131324,92.269885924201262,90.63076963327309,88.858537919531813,86.977391299450161,85.096244679370542,83.215098059293027,81.333951439217529,79.332203817282519,77.241314341914531,75.150424866548846,73.05953539118515,70.968645915823714,68.7694877099549,66.498148644802015,64.226809579651416,61.955470514502991,59.684131449356954,57.316421801866191,54.890888347521177,52.465354893178507,50.03982143883831,47.614287984500358,45.103654326525415,42.547196244475586,39.990738162428279,37.434280080383466,34.877821998341062,32.246766894888225,29.579793662462784,26.912820430039986,24.245847197619803,21.578873965202231,18.846947951792114,16.087184155185984,13.327420358582557,10.567656561981922,7.807892765383933,4.991909770969591,2.1546015202958526,-0.6827067303750709,-3.5200149810430545,-6.3573232317082562,-9.243045976890345,-12.144907497068093,-15.046769017242733,-17.948630537414424,-20.850492057583036,-23.793885831162058,-26.749337862267254,-29.704789893369345,-32.660241924468238,-35.615693955563962,-38.6066930178169,-41.606579257849454,-44.606465497878716,-47.606351737904653,-50.60623797792725,-53.636549853919341,-56.673316001279474,-59.710082148636083,-62.74684829598926,-65.78361444333882,-68.846488767045159,-71.913970706314089,-74.981452645579282,-78.048934584840751,-81.116416524098554,-84.20654330471352,-87.299905307280582,-90.393267309843964,-93.486629312403352,-96.579991314958974,-99.6930477612443,-102.80829268588897,-105.92353761052952,-109.03878253516572,-112.1540274597977,-115.28721741211811,-118.4218625500509,-121.55650768797965,-124.69115282590441,-127.82579796382495,-130.97665013914838,-134.12835547768904,-137.28006081622527,-140.43176615475659,-143.58347149328321,-146.75090509630368,-149.91874214062997,-153.08657918495132,-156.25441622926772,-159.42225327357943,0.30761852424444897,0.30761852424444897,0.30761852424444897,0.30761852424444897,0.30761852424444897,0.30761852424444897,0.30761852424444897,0.30761852424444897,0.30761852424444897,0.30761852424444897,0.30761852424444897,0.30761852424444897
DP 95,164.49288608353234,0.0049982353320388792,-389.62716144057043,-376.27212213594152,-362.91708283131015,-349.56204352667578,-336.207004222039,-322.85843470066987,-309.76218917297297,-296.66594364527333,-283.56969811757131,-270.47345258986655,-257.40352370371079,-244.83361598199252,-232.26370826027244,-219.69380053854962,-207.12389281682502,-194.61056200081771,-182.79502015231603,-170.97947830381179,-159.16393645530528,-147.34839460679643,-135.62727117141884,-124.75592237878467,-113.88457358614832,-103.01322479351006,-92.141876000869459,-81.406562375426745,-71.623505206943818,-61.840448038458852,-52.057390869971762,-42.274333701482647,-32.668856174424917,-24.069674472177148,-15.470492769927368,-6.87131106767559,1.7278706345781782,10.1115477116944,17.479262773298672,24.846977834904919,32.214692896513085,39.582407958123149,46.703144979316541,52.835958166514935,58.968771353715191,65.101584540917329,71.23439772812128,77.097125870179553,82.029549732843847,86.961973595509875,91.894397458177721,96.826821320847571,101.47535788375804,105.27222181404801,109.06908574433976,112.86594967463331,116.66281360492847,120.17132132962254,122.91960732836439,125.66789332710783,128.41617932585314,131.16446532460014,133.62853048910242,135.42940475207371,137.23027901504688,139.03115327802172,140.83202754099838,142.36015882076148,143.32181597231897,144.28347312387803,145.24513027543921,146.20678742700184,146.91294428854889,147.144593711445,147.37624313434287,147.60789255724248,147.83954198014382,147.837014458655,147.44418612727125,147.05135779588906,146.65852946450872,146.26570113313014,145.66247713214446,144.74365465503996,143.82483217793731,142.90600970083651,141.98718722373732,140.88276156093889,139.5272215778601,138.17168159478311,136.81614161170782,135.46060162863432,133.944067447441,132.23075919802315,130.51745094860726,128.80414269919305,127.09083444978071,125.24003777024674,123.23727745835538,121.23451714646593,119.23175683457821,117.22899652269244,110.64206645144954,108.40784604777946,106.1736256441113,103.84329157036832,101.42599577898272,99.008699987598931,96.591404196217212,94.174108404837384,91.677979929282415,89.117350630066127,86.556721330851815,83.996092031639535,81.4354627324292,78.8109207223733,76.13913783193631,73.467354941501512,70.795572051068689,68.123789160638054,65.4007448085398,62.643525341115712,59.886305873693807,57.129086406274084,54.371866938856506,51.573939349618279,48.751586271644562,45.929233193673035,43.106880115703838,40.284527037736851,37.430138741807767,34.558500247284208,31.686861752762997,28.815223258244131,25.94358476372749,23.046941480720797,20.13825850496389,17.229575529209551,14.320892553457673,11.412209577708333,8.4841474481022789,5.5477797051680886,2.6114119622364438,-0.32495578069252035,-3.2613235236189708,-6.2126224682322349,-9.1695851667682131,-12.126547865301529,-15.083510563832039,-18.040473262359907,-21.008891862644486,-23.981129241222678,-26.953366619797908,-29.925603998370349,-32.897841376939894,-35.878849933631237,-38.862405068363621,-41.845960203093028,-44.829515337819494,-47.813070472542883,-50.803347173505209,-53.79530434544094,-56.787261517373636,-59.779218689303086,-62.771175861229409,-65.76831166137336,-68.766546017741362,-71.764780374105953,-74.763014730467262,-77.761249086825288,-80.763502209104985,-83.766464570057366,-86.769426931006137,-89.7723892919514,-92.775351652893107,-95.781553494854876,-98.788218154810565,-101.79488281476269,-104.80154747471107,-107.80821213465583,-110.81737494850701,-113.82681536124724,-116.83625577398358,-119.84569618671574,-122.85513659944408,-125.86696386929104,-128.8789846924802,-131.89100551566548,-134.90302633884704,-137.91504716202473,-140.92888890686584,-143.94282650780227,-146.95676410873443,-149.97070170966219,-152.98463931058541,-156.000450672894,-159.01631009852696,-162.03216952415514,-165.04802894977919,-168.06388837539831,0.29009692016052252,0.29009692016052252,0.29009692016052252,0.29009692016052252,0.29009692016052252,0.29009692016052252,0.29009692016052252,0.29009692016052252,0.29009692016052252,0.29009692016052252,0.29009692016052252,0.29009692016052252
DP 96,136.92162602906558,0.0012915791954507083,-92.890477898684438,-89.8542743828453,-86.8180708670054,-83.781867351164891,-80.74566383532364,-77.710730861647264,-74.725349512801586,-71.73996816395514,-68.754586815108084,-65.769205466260345,-62.7890187326527,-59.907530670624134,-57.026042608595041,-54.144554546565274,-51.263066484534889,-48.392833126350439,-45.661409200684439,-42.929985275017806,-40.198561349350513,-37.467137423682615,-34.754697416066342,-32.213114465302489,-29.671531514538106,-27.129948563773144,-24.588365613007582,-22.07450266669192,-19.75468184763065,-17.434861028568829,-15.11504020950643,-12.795219390443483,-10.512170957208141,-8.4375016941775,-6.3628324311463222,-4.2881631681146137,-2.2134939050823594,-0.18428799085370393,1.6305882520139405,3.4454644948821089,5.2603407377507958,7.07521698061999,8.8368849331440167,10.385717209631746,11.934549486119977,13.483381762608722,15.032214039097951,16.521494778441465,17.805651054779887,19.089807331118802,20.373963607458197,21.658119883798093,22.87808061494237,23.905452283364593,24.9328239517873,25.960195620210484,26.98756728863416,27.94793739725279,28.731664727089189,29.515392056926061,30.299119386763419,31.082846716601242,31.798597863511514,32.355735775195249,32.912873686879436,33.470011598564128,34.027149510249266,34.517035696380219,34.867243265834148,35.217450835288538,35.567658404743412,35.917865974198705,36.203027565720511,36.367387727302919,36.531747888885839,36.6961080504692,36.860468212053014,36.963192334906907,36.963188172968749,36.963184011031089,36.963179849093862,36.96317568715709,36.905850031361794,36.762540780255762,36.619231529150177,36.475922278045054,36.332613026940443,36.136903394726858,35.870297963849893,35.603692532973426,35.337087102097414,35.070481671221884,34.756727957628669,34.385347574823157,34.0139671920181,33.64258680921354,33.271206426409471,32.858021671699149,32.398631253009249,31.939240834319815,31.479850415630903,31.020459996942467,29.459467460976082,28.926948392085318,28.394429323195055,27.830333397880118,27.237667367289696,26.645001336699806,26.052335306110443,25.4596692755216,24.840054131174174,24.198389248795241,23.556724366416891,22.915059484039062,22.273394601661771,21.608983134606522,20.927758600609902,20.246534066613858,19.565309532618379,18.884084998623489,18.183857951301636,17.470962262405671,16.758066573510284,16.045170884615484,15.332275195721284,14.603656593059467,13.865604004353814,13.127551415648785,12.389498826944386,11.651446238240592,10.90049965198561,10.142609956471828,9.3847202609587121,8.6268305654462232,7.8689408699343506,7.1005633820480343,6.3271360694903276,5.553708756933311,4.7802814443769668,4.0068541318213171,3.2249592825977005,2.4394353747510276,1.6539114669050512,0.86838755905980691,0.082863651215249745,-0.70945201606105934,-1.5043439564957584,-2.2992358969297269,-3.0941278373629313,-3.8890197777954127,-4.6893295171988969,-5.4914452578717023,-6.2935609985436942,-7.0956767392149285,-7.8977924798853669,-8.7042122616254431,-9.51188165616869,-10.319551050711114,-11.127220445252718,-11.934889839793499,-12.745970745578616,-13.557904569481591,-14.369838393383725,-15.181772217284973,-15.993706041185385,-16.808345554347994,-17.623559032595171,-18.438772510841417,-19.253985989086786,-20.069199467331224,-20.886564344984471,-21.704308905279976,-22.522053465574494,-23.339798025868095,-24.157542586160691,-24.977032664449226,-25.796772121306383,-26.616511578162619,-27.436251035017758,-28.255990491871994,-29.077120318783685,-29.89840464585841,-30.719688972932097,-31.540973300004655,-32.362257627076161,-33.184789802420887,-34.007423167402855,-34.83005653238375,-35.652689897363615,-36.475323262342428,-37.29897081008216,-38.122671745951479,-38.946372681819604,-39.770073617686514,-40.593774553552194,-41.418463790284157,-42.243178377643822,-43.067892965002166,-43.892607552359337,-44.717322139715215,0.0795111529496151,0.0795111529496151,0.0795111529496151,0.0795111529496151,0.0795111529496151,0.0795111529496151,0.0795111529496151,0.0795111529496151,0.0795111529496151,0.0795111529496151,0.0795111529496151,0.0795111529496151
DP 97,177.52199647931903,0.0051818057511810508,-416.65546414107655,-402.0770921619656,-387.49872018285163,-372.92034820373476,-358.34197622461551,-343.77112112808459,-329.49342729463285,-315.21573346117862,-300.93803962772137,-286.66034579426173,-272.41315180871362,-258.74546069929914,-245.07776958988205,-231.410078480463,-217.7423873710417,-204.14003574531108,-191.34354598642224,-178.5470562275311,-165.75056646863754,-152.95407670974177,-140.26607768083682,-128.55450547654618,-116.8429332722536,-105.13136106795871,-93.419788863661651,-81.8635502413629,-71.394658438913964,-60.925766636463095,-50.45687483400998,-39.987983031554784,-29.720339545280122,-20.593115865521114,-11.465892185760058,-2.3386685059969556,6.7885551737681773,15.673668245881515,23.417389662156587,31.161111078433656,38.904832494712707,46.648553910993648,54.117509147397783,60.487386678682995,66.857264209970083,73.227141741259132,79.597019272549943,85.669652677433788,90.718432715419709,95.767212753407492,100.81599279139724,105.86477282938874,110.60476179494363,114.41836586827262,118.23196994160335,122.04557401493592,125.85917808827033,129.36305163071012,132.05035221857889,134.73765280644957,137.42495339432205,140.11225398219617,142.49831677237867,144.18148187683403,145.86464698129109,147.54781208574983,149.23097719021033,150.6291056192299,151.43522650941367,152.24134739959914,153.04746828978634,153.85358917997533,154.39658998563621,154.4509320999141,154.50527421419372,154.5596163284751,154.61395844275805,154.43079815612555,153.851794548235,153.2727909403462,152.69378733245932,152.114783724574,151.32574197712168,150.22163805705887,149.11753413699788,148.01343021693867,146.90932629688118,145.62292734610548,144.08988988771534,142.55685242932722,141.02381497094072,139.490777512556,137.80223476559595,135.92362673292533,134.04501870025652,132.16641066758956,130.2878026349243,128.27864384075397,126.12518950180316,123.97173516285422,121.81828082390723,119.66482648496213,112.66450653602648,110.29506901594884,107.92563149587318,105.46808290616259,102.93081319090552,100.39354347565042,97.856273760397258,95.319004045146031,92.71075349051759,90.044426483819436,87.378099477123214,84.7117724704292,82.045445463737167,79.322609067321352,76.558003932183325,73.7933987970475,71.02879366191361,68.264188526781922,65.455083526856285,62.616311249372743,59.777538971891509,56.938766694412365,54.09999441693553,51.226528637425659,48.332246232014242,45.437963826605042,42.543681421198222,39.649399015793669,36.728312162856746,33.792791756082529,30.857271349310839,27.921750942541436,24.986230535774361,22.03016600870108,19.064209580466507,16.098253152234481,13.132296724004949,10.166340295778,7.1847432391405848,4.19644284484764,1.2081424505572658,-1.7801579437303936,-4.7684583380155114,-7.7686048896452746,-10.773244965743578,-13.777885041839188,-16.782525117931954,-19.787165194022062,-22.8007503852582,-25.817317394274777,-28.83388440328833,-31.850451412299105,-34.8670184213069,-37.890338410328965,-40.915619024294685,-43.940899638257406,-46.966180252217072,-49.991460866173725,-53.021858291225428,-56.053534979504271,-59.0852116677799,-62.116888356052357,-65.148565044321629,-68.1841557301483,-71.220576702721516,-74.2569976752913,-77.2934186478578,-80.329839620420969,-83.369288916064107,-86.409272655335116,-89.449256394602443,-92.489240133866375,-95.529223873126654,-98.571673130736457,-101.61447463188385,-104.65727613302754,-107.70007763416753,-110.74287913530398,-113.78756948343538,-116.83246972328888,-119.87736996313821,-122.92227020298355,-125.96717044282489,-129.01397093594093,-132.06092552306126,-135.10788011017752,-138.15483469729003,-141.20178928439864,-144.25015868799545,-147.29860256969042,-150.34704645138095,-153.395490333067,-156.44393421474868,-159.4938902585013,-162.5438850902955,-165.59387992208508,-168.64387475387028,-171.69386958565059,0.29314156271881336,0.29314156271881336,0.29314156271881336,0.29314156271881336,0.29314156271881336,0.29314156271881336,0.29314156271881336,0.29314156271881336,0.29314156271881336,0.29314156271881336,0.29314156271881336,0.29314156271881336
DP 98,102.82833292720326,0.0032735416951185682,-203.8480681797582,-197.62550531783717,-191.40294245591414,-185.18037959398947,-178.95781673206289,-172.7373486825926,-166.59857911101565,-160.45980953943689,-154.32103996785614,-148.18227039627365,-142.05212843371677,-136.08591267366381,-130.1196969136092,-124.15348115355314,-118.18726539349534,-112.23992139081815,-106.52533144089651,-100.81074149097317,-95.096151541048314,-89.3815615911218,-83.699237815623832,-78.307312659835432,-72.91538750404554,-67.523462348254156,-62.131537192461231,-56.78751855632575,-51.778849180345574,-46.77017980436392,-41.761510428380845,-36.752841052396249,-31.809018436168351,-27.23266487816208,-22.65631132015444,-18.079957762145384,-13.503604204134932,-9.00931897565467,-4.9019317333615486,-0.79454449106704239,3.312842751228827,7.4202299935260445,11.428992051187819,15.043248709221459,18.657505367256398,22.271762025292691,25.886018683330267,29.38660295636463,32.495644239076221,35.6046855217891,38.713726804503253,41.822768087218734,44.805274570560904,47.408171871695721,50.011069172831775,52.613966473969128,55.216863775107733,57.683038525853128,59.788758217134792,61.894477908417706,64.000197599701877,66.105917290987364,68.06768966003257,69.693580408495052,71.319471156958741,72.945361905423752,74.571252653889971,76.049029966829934,77.219182759876716,78.3893355529246,79.559488345973847,80.729641139024324,81.750495992343275,82.494079211357928,83.237662430373746,83.981245649390871,84.724828868409091,85.320696112987378,85.670366343556992,86.020036574127886,86.369706804700016,86.719377035273368,86.9253562313903,86.915795480362988,86.906234729336987,86.896673978312236,86.8871132272888,86.7399364901506,86.406570358241325,86.073204226333331,85.73983809442656,85.406471962521167,84.9431905212928,84.321120973172157,83.699051425052772,83.076981876934809,82.454912328818025,81.711819710621754,80.83496234355151,79.958104976482588,79.081247609415058,78.204390242348836,75.017060115779486,73.91749911756736,72.8179381193566,71.617103362198321,70.3246381426576,69.032172923118367,67.7397077035805,66.447242484044082,65.063658336391981,63.605520772525239,62.147383208659953,60.689245644796259,59.231108080933922,57.69181346465124,56.0925318668314,54.493250269013181,52.893968671196468,51.29468707338134,49.623802469733278,47.905181400864706,46.186560331997768,44.467939263132436,42.749318194268724,40.968080852286469,39.149272799464541,37.3304647466442,35.5116566938257,33.692848641008759,31.819733671629258,29.917375726693908,28.015017781760427,26.112659836828719,24.210301891898713,22.261203166802225,20.289598967109647,18.317994767418977,16.34639056773015,14.374786368043205,12.363234408752135,10.334561441645526,8.30588847454082,6.2772155074381191,4.2485425403372981,2.1859412611409454,0.11047017984889278,-1.9650009014411554,-4.0404719827291018,-6.11594306401507,-8.2200749241159219,-10.33376073836,-12.447446552601855,-14.561132366841633,-16.674818181079228,-18.812612678291149,-20.957406764594417,-23.102200850895439,-25.246994937194206,-27.391789023490709,-29.556808600628504,-31.72688478944168,-33.896960978252544,-36.067037167060974,-38.237113355867024,-40.424151763065069,-42.614788410924618,-44.805425058781516,-46.99606170663607,-49.186698354488016,-51.391589962159649,-53.598997309490777,-55.806404656819247,-58.013812004145159,-60.221219351468307,-62.440747189153292,-64.662006656389408,-66.883266123622917,-69.104525590853626,-71.3257850580816,-73.5573473194262,-75.790054443873487,-78.0227615683177,-80.255468692758853,-82.488175817197,-84.730155754001814,-86.972887635209531,-89.21561951641435,-91.4583513976163,-93.701083278815375,-95.951998093080931,-98.203343669447719,-100.45468924581112,-102.70603482217126,-104.95738039852806,-107.21662374444743,-109.47606967384,-111.73551560322925,-113.99496153261505,-116.25440746199742,0.21890065534124403,0.21890065534124403,0.21890065534124403,0.21890065534124403,0.21890065534124403,0.21890065534124403,0.21890065534124403,0.21890065534124403,0.21890065534124403,0.21890065534124403,0.21890065534124403,0.21890065534124403
DP 99,89.675683572719919,0.0019914071871993161,-114.77428856980448,-111.37499737967849,-107.97570618955137,-104.57641499942314,-101.17712380929368,-97.778869202164131,-94.421041723992232,-91.063214245819154,-87.705386767645038,-84.347559289469785,-80.994016664173486,-77.721887053616072,-74.449757443057763,-71.177627832498416,-67.905498221938061,-64.642775734581875,-61.496075618985209,-58.349375503387527,-55.20267538778883,-52.055975272189038,-48.925444296103656,-45.940437103981857,-42.955429911859085,-39.970422719735389,-36.98541552761079,-34.024573228400875,-31.232887006874577,-28.441200785347394,-25.6495145638193,-22.857828342290272,-20.099110018487284,-17.527211859245167,-14.955313700002172,-12.383415540758303,-9.8115173815135819,-7.28172579591194,-4.95043890318077,-2.6191520104487553,-0.28786511771590384,2.0434217750177779,4.3235800392139732,6.3992213728896354,8.47486270656612,10.550504040243425,12.626145373921521,14.642172080953916,16.452857014052338,18.263541947151541,20.074226880251562,21.884911813352371,23.628390705437955,25.1702489335198,26.712107161602429,28.253965389685867,29.795823617770068,31.264062041544737,32.53820935991066,33.812356678277318,35.086503996644744,36.36065131501298,37.556138135835717,38.568081317358534,39.580024498882125,40.591967680406462,41.603910861931588,42.533640439188069,43.292616293448347,44.051592147709364,44.81056800197122,45.569543856233771,46.244267465807766,46.762520345640631,47.280773225474221,47.799026105308634,48.317278985143851,48.7507136195999,49.042782373859737,49.334851128120363,49.626919882381792,49.918988636643959,50.127042100812311,50.2090706445351,50.291099188258627,50.373127731982969,50.45515627570812,50.455193127829347,50.344298220734316,50.233403313640125,50.122508406546707,50.0116134994541,49.821791673486558,49.535501955503122,49.2492122375205,48.962922519538644,48.6766328015576,48.315325335562029,47.87110202370615,47.426878711851053,46.98265539999683,46.538432088143452,44.853439930574837,44.268287463506383,43.683134996438817,43.03252174696722,42.322680896763529,41.612840046560706,40.902999196358763,40.19315834615773,39.423127633082373,38.60384963416243,37.784571635243417,36.965293636325292,36.146015637408148,35.271926306275851,34.357323350319092,33.442720394363327,32.528117438408493,31.613514482454672,30.649446175751038,29.652400189294625,28.655354202839266,27.658308216384917,26.661262229931584,25.619950959060127,24.552079848097765,23.484208737136413,22.416337626176194,21.348466515216973,20.241293200127281,19.1129565882159,17.984619976305687,16.856283364396553,15.727946752488489,14.564966897473054,13.38530647733001,12.20564605718814,11.025985637047439,9.8463252169079265,8.6363290416123881,7.41333141876961,6.1903337959280194,4.9673361730876886,3.7443385502485476,2.4949319121732283,1.2355077171183202,-0.023916477935324903,-1.2833406729876524,-2.5427648680387369,-3.8250664920655835,-5.1149942140700206,-6.4049219360730607,-7.6948496580747854,-8.9847773800751423,-10.294449456791456,-11.609854006328456,-12.925258555864044,-14.240663105398212,-15.556067654930947,-16.888476292105565,-18.225136152095,-19.56179601208299,-20.898455872069459,-22.23511573205446,-23.586422390489123,-24.940836113373187,-26.295249836255671,-27.649663559136574,-29.00407728201596,-30.371141318986592,-31.7404379049981,-33.109734491007877,-34.479031077016032,-35.848327663022488,-37.2286656232706,-38.610581041967961,-39.992496460663688,-41.374411879357623,-42.756327298049882,-44.147912716740215,-45.540572681430639,-46.933232646119194,-48.325892610805823,-49.718552575490591,-51.120061360019228,-52.522287706847088,-53.924514053673121,-55.326740400497357,-56.728966747319781,-58.139238278830838,-59.549933321159173,-60.960628363485384,-62.371323405809513,-63.782018448131467,-65.20053680974118,-66.619255845122126,-68.037974880500883,-69.45669391587748,-70.8754129512519,0.13787769635297881,0.13787769635297881,0.13787769635297881,0.13787769635297881,0.13787769635297881,0.13787769635297881,0.13787769635297881,0.13787769635297881,0.13787769635297881,0.13787769635297881,0.13787769635297881,0.13787769635297881
DP 100,129.06063823560982,0.0019297463423161628,-134.97584685398016,-130.62843008397147,-126.28101331396168,-121.9335965439509,-117.58617977393907,-113.24050014319539,-108.9625696007374,-104.68463905827845,-100.40670851581844,-96.1287779733575,-91.8579620951471,-87.722326182693038,-83.58669027023808,-79.451054357782112,-75.315418445325349,-71.195229547298084,-67.265555774007993,-63.33588200071695,-59.40620822742504,-55.476534454132086,-51.572997668104051,-47.904696237967094,-44.236394807829214,-40.568093377690566,-36.899791947551,-33.269801479389621,-29.907990642038204,-26.546179804685941,-23.184368967332826,-19.82255812997888,-16.511804774534117,-13.490380367253442,-10.468955959971947,-7.4475315526896457,-4.42610714540654,-1.4681459219431787,1.1906282928732332,3.84940250769044,6.5081767225084208,9.1669509373271758,11.751000261436301,14.036146491163709,16.321292720891883,18.606438950620817,20.891585180350503,23.09253510426419,25.003471993329317,26.914408882395165,28.825345771461752,30.736282660529056,32.555791227279983,34.10101137031667,35.6462315133541,37.191451656392246,38.736671799431122,40.185713154244347,41.381188943397149,42.576664732550725,43.772140521704955,44.967616310859931,46.064689501101718,46.932153526837176,47.799617552573345,48.667081578310217,49.534545604047786,50.30378693966022,50.86902444682184,51.434261953984141,51.999499461147195,52.564736968310825,53.034081438049967,53.32533624859505,53.616591059140951,53.907845869687485,54.199100680234707,54.398599405902957,54.445169010669495,54.49173861543666,54.538308220204449,54.5848778249731,54.5452457073095,54.37630896902688,54.207372230744951,54.038435492463776,53.869498754183233,53.620931177929407,53.264625991053684,52.908320804178807,52.552015617304512,52.195710430431021,51.766978750221504,51.249724279083011,50.732469807945215,50.215215336808185,49.697960865671931,49.115773779007867,48.461817772549516,47.807861766091911,47.153905759635009,46.499949753178946,44.250877862770608,43.48204009072677,42.7132023186837,41.8941811416773,41.029755028105832,40.165328914535223,39.300902800965424,38.436476687396379,37.528714222816305,36.585493999009373,35.642273775203215,34.699053551397924,33.755833327593422,32.77559416883571,31.767992580057044,30.760390991279284,29.752789402502312,28.745187813726261,27.706282952046198,26.646508748627134,25.58673454520903,24.526960341791781,23.467186138375435,22.381191383382077,21.279463900899692,20.177736418418224,19.076008935937722,17.974281453458136,16.850783335936047,15.71556225219391,14.580341168452767,13.445120084712586,12.309899000973337,11.156748290315763,9.9949645452569182,8.833180800199127,7.6713970551423669,6.5096133100866513,5.3331721344009777,4.15044900481229,2.967725875224656,1.7850027456381345,0.60227961605265967,-0.59234709912727046,-1.7914891226546905,-2.9906311461809976,-4.1897731697061413,-5.3889151932301917,-6.5976702451717282,-7.8096297610694858,-9.0215892769660257,-10.233548792861399,-11.44550830875556,-12.665197419553067,-13.887130700561542,-15.109063981568767,-16.330997262574762,-17.552930543579471,-18.78106263369212,-20.010744499320442,-21.24042636494752,-22.470108230573235,-23.699790096197646,-24.934443162995816,-26.170150783967085,-27.405858404936961,-28.641566025905469,-29.877273646872577,-31.116976113798312,-32.357383597962261,-33.597791082124729,-34.838198566285762,-36.0786060504453,-37.32227951360035,-38.566419580462458,-39.810559647323089,-41.054699714182135,-42.298839781039717,-43.545615327946578,-44.792683733647173,-46.03975213934617,-47.286820545043419,-48.533888950739069,-49.783308242998771,-51.032918171703727,-52.282528100407049,-53.532138029108793,-54.781747957808953,-56.033305832072394,-57.28496624916599,-58.536626666257796,-59.788287083347676,-61.039947500435787,-62.293492154548268,-63.547085140695515,-64.800678126840765,-66.0542711129842,-67.3078640991257,0.12096320711881808,0.12096320711881808,0.12096320711881808,0.12096320711881808,0.12096320711881808,0.12096320711881808,0.12096320711881808,0.12096320711881808,0.12096320711881808,0.12096320711881808,0.12096320711881808,0.12096320711881808
DP 101,85.437886634584714,0.0037933279307854652,-212.4333690805191,-206.20625886860265,-199.97914865668398,-193.75203844476303,-187.52492823283998,-181.29965322608325,-175.14595191475888,-168.9922506034325,-162.83854929210386,-156.68484798077344,-150.53874294974406,-144.5369686804986,-138.53519441125118,-132.53342014200192,-126.53164587275094,-120.54656634922365,-114.76739079365636,-108.98821523808708,-103.20903968251579,-97.4298641269428,-91.679438017000081,-86.187759635179859,-80.696081253357846,-75.2044028715341,-69.712724489708634,-64.264099865856721,-59.1168548034241,-53.969609740989753,-48.822364678553754,-43.675119616115957,-38.586761844134145,-33.832102428807325,-29.077443013478849,-24.32278359814871,-19.568124182816906,-14.888901559865808,-10.565313604071735,-6.2417256482760433,-1.918137692478757,2.4054502633201142,6.6371315734221144,10.501181957171511,14.365232340922443,18.229282724674963,22.093333108429004,25.849818620007255,29.235798386463003,32.621778152920292,36.00775791937906,39.3937376858394,42.657955660986381,45.556883658565162,48.455811656145585,51.354739653727457,54.25366765131082,57.018615381236224,59.430337800437215,61.842060219639663,64.253782638843632,66.6655050580491,68.933385709896172,70.865631039210186,72.797876368525664,74.730121697842733,76.662367027161153,78.443503916152864,79.910795803560532,81.3780876909696,82.845379578380218,84.312671465792192,85.624267883493616,86.646711367014163,87.66915485053633,88.691598334059876,89.714041817584913,90.5788509372378,91.180932143829267,91.783013350422351,92.385094557016927,92.987175763612939,93.432185161316639,93.641583134030952,93.850981106747042,94.060379079464468,94.269777052183372,94.324936800756333,94.17141787459741,94.0178989484401,93.864380022284266,93.710861096129847,93.407913375534775,92.922327323028242,92.436741270523356,91.951155218020048,91.465569165518261,90.837013569001783,90.050436157807965,89.263858746615753,88.477281335425261,87.690703924236217,84.654912582904373,83.597911017401216,82.540909451899552,81.357414349940868,80.059470437605242,78.761526525271321,77.463582612939149,76.165638700608653,74.75054818194802,73.2396084266857,71.7286686714251,70.217728916166365,68.706789160909324,67.088383255637481,65.390544081604048,63.692704907572541,61.994865733542952,60.29702655951511,58.501471639618281,56.64077134977606,54.780071059935807,52.919370770097487,51.058670480261192,49.109852583712687,47.10816279050205,45.106472997293466,43.10478320408702,41.103093410882508,39.022550963899462,36.89954824899975,34.776545534102276,32.653542819206933,30.530540104313609,28.337473885825577,26.110672406722347,23.883870927621459,21.657069448522758,19.430267969426335,17.14161145653345,14.826444808214454,12.511278159897762,10.196111511583489,7.8809448632714956,5.5114784111855117,3.1214147738798377,0.73135113657659367,-1.6587125007241148,-4.0487761380224265,-6.4862824298563329,-8.9396035377778009,-11.392924645696594,-13.846245753612836,-16.299566861526454,-18.794194061767573,-21.300813857107673,-23.807433652445052,-26.314053447779724,-28.820673243111639,-31.363188517732,-33.914678086282152,-36.466167654829441,-39.017657223373817,-41.569146791915308,-44.151842443126853,-46.741157923948641,-49.330473404767289,-51.919788885583046,-54.509104366395704,-57.125628886908672,-59.746955305228191,-62.368281723544435,-64.989608141857531,-67.610934560167408,-70.256228254588066,-72.90494610449727,-75.553663954403362,-78.202381804305958,-80.851099654205271,-83.521019556443747,-86.19329546494329,-88.865571373439224,-91.537847281931377,-94.210123190420035,-96.901926851918773,-99.595314044283882,-102.28870123664539,-104.98208842900355,-107.67547562135807,-110.38678249118351,-113.0990326802177,-115.81128286924795,-118.52353305827413,-121.2357832472963,-123.96551373675103,-126.69569260849563,-129.42587148023591,-132.15605035197214,-134.88622922370385,0.26566220105715471,0.26566220105715471,0.26566220105715471,0.26566220105715471,0.26566220105715471,0.26566220105715471,0.26566220105715471,0.26566220105715471,0.26566220105715471,0.26566220105715471,0.26566220105715471,0.26566220105715471
DP 102,138.16333427899312,0.0039120547155586955,-282.53064656402069,-273.27490044968283,-264.019154335343,-254.76340822100096,-245.50766210665674,-236.25581646659154,-227.15609079821456,-218.05636512983577,-208.95663946145476,-199.85691379307178,-190.77313321059344,-181.99231227464455,-173.21149133869372,-164.43067040274113,-155.64984946678666,-146.9035608240398,-138.58317481625616,-130.26278880847056,-121.94240280068301,-113.62201679289359,-105.35985164267471,-97.621679713712851,-89.883507784749355,-82.145335855784,-74.4071639268169,-66.753953012938069,-59.695475629177878,-52.636998245416066,-45.578520861652521,-38.520043477887334,-31.574191065657054,-25.266553922427907,-18.9589167791971,-12.651279635964686,-6.3436424927306474,-0.17513118217249724,5.337493688430083,10.850118559034252,16.362743429639977,21.875368300247267,27.225323165521186,31.924590321580045,36.623857477640406,41.323124633702349,46.022391789765734,50.539785247391912,54.4307172144374,58.321649181484325,62.2125811485328,66.103513115582643,69.798616265780936,72.906225561436742,76.013834857094039,79.121444152752787,82.229053448413,85.132526538192252,87.49781534148913,89.863104144787286,92.228392948086935,94.593681751388047,96.7521375441189,98.427976462154462,100.10381538019148,101.77965429822999,103.4554932162699,104.92698977650517,105.97407703524746,107.02116429399128,108.06825155273641,109.11533881148299,109.96507482993438,110.44829607244797,110.93151731496293,111.41473855747937,111.89795979999728,112.19446148032787,112.17975918396158,112.16505688759655,112.150354591233,112.13565229487088,111.94757695910639,111.49943796738489,111.05129897566479,110.60315998394621,110.15502099222891,109.54865232263126,108.7282046874199,107.90775705221004,107.08730941700151,106.2668617817944,105.30428421439686,104.16798930003803,103.03169438568067,101.89539947132472,100.75910455697036,99.497007541829447,98.095863596144866,96.694719650461693,95.293575704780125,93.892431759100035,89.139810568266668,87.518990465795071,85.89817036332505,84.182665428408654,82.38149155942881,80.5803176904504,78.7791438214738,76.977969952498654,75.0961367545885,73.14830817409387,71.200479593600932,69.252651013109642,67.30482243262,65.289040046459832,63.223029817314263,61.157019588170535,59.091009359028426,57.024999129888045,54.902327655434711,52.741881124826172,50.581434594219466,48.4209880636145,46.260541533011377,44.05330234383743,41.817986851858919,39.582671359882305,37.347355867907552,35.112040375934669,32.83842526843776,30.544186734102379,28.249948199768991,25.955709665437482,23.661471131107856,21.33614057254302,18.995839344702841,16.655538116864744,14.315236889028698,11.97493566119473,9.6095801378770211,7.2334867210449367,4.8573933042149626,2.4812998873871992,0.10520647056150824,-2.2909442702390566,-4.694703223006587,-7.09846217577191,-9.5022211285349183,-11.905980081295745,-14.325708430525388,-16.750760113169033,-19.175811795810205,-21.600863478449121,-24.025915161085617,-26.463630029976539,-28.905021462221796,-31.346412894464613,-33.787804326704936,-36.229195758942794,-38.680606581437914,-41.134522369875739,-43.588438158311028,-46.042353946743674,-48.496269735173762,-50.958118953335727,-53.421651111120717,-55.885183268902928,-58.348715426682361,-60.8122475844591,-63.2820781248686,-65.7530202146028,-68.223962304334066,-70.69490439406249,-73.165846483787831,-75.641893661701033,-78.118670193071253,-80.595446724438574,-83.072223255802868,-85.548999787164121,-88.029834982911026,-90.51112118399,-92.992407385065661,-95.473693586138,-97.954979787207009,-100.43991370599605,-102.92514342295281,-105.4103731399062,-107.89560285685637,-110.38083257380359,-112.86901799685938,-115.35735901279909,-117.84570002873511,-120.33404104466747,-122.82238206059614,-125.31360751677303,-127.80490696091555,-130.29620640505453,-132.78750584918961,-135.27880529332086,0.24015740086715914,0.24015740086715914,0.24015740086715914,0.24015740086715914,0.24015740086715914,0.24015740086715914,0.24015740086715914,0.24015740086715914,0.24015740086715914,0.24015740086715914,0.24015740086715914,0.24015740086715914
DP 103,275.51944958628172,0.0014519112910024159,-136.17450075484015,-130.76112727140756,-125.3477537879746,-119.93438030454075,-114.52100682110625,-109.11168703725738,-103.86046306991865,-98.609239102579352,-93.358015135239341,-88.106791167898749,-82.871736924316849,-77.94391048892804,-73.016084053538535,-68.088257618148461,-63.160431182757904,-58.266324051488148,-53.788092587303915,-49.309861123119028,-44.831629658933529,-40.353398194747449,-35.929110339113009,-31.990320059263407,-28.051529779413272,-24.112739499562579,-20.173949219711364,-16.308873912680689,-12.959808989497239,-9.6107440663132611,-6.26167914312875,-2.9126142199437148,0.34611191644232925,3.0929125683471708,5.8397132202525261,8.5865138721583865,11.333314524064749,13.978158721030992,16.142345552110388,18.306532383190259,20.470719214270648,22.634906045351482,24.691362064164608,26.316889742486023,27.942417420807868,29.567945099130238,31.193472777453028,32.711236101371206,33.857806566334567,35.004377031298375,36.150947496262674,37.297517961227406,38.341213525127777,39.076280496293293,39.811347467459264,40.546414438625689,41.281481409792555,41.922253526263866,42.314426875680411,42.706600225097439,43.098773574514894,43.49094692393281,43.7997337328842,43.913949320150095,44.028164907416446,44.142380494683223,44.256596081950377,44.299391019066249,44.193848682556521,44.08830634604729,43.982764009538478,43.877221673030085,43.712239183446854,43.436866232910084,43.161493282373776,42.886120331837873,42.610747381302374,42.2871738878078,41.883264941122626,41.479355994437917,41.075447047753663,40.671538101069849,40.22945558541398,39.730111814247991,39.23076804308235,38.731424271917135,38.232080500752417,37.70314965235471,37.134188570852679,36.565227489351045,35.996266407849873,35.427305326349142,34.835861108234333,34.216937028673087,33.598012949112331,32.979088869552022,32.360164789992133,31.7244629010069,31.070216783529066,30.415970666051688,29.76172454857473,29.107478431098247,27.083172038121809,26.404298657871763,25.725425277622225,25.03765126825153,24.341824148476547,23.64599702870207,22.950169908928071,22.254342789154535,21.552170188169978,20.844805720779767,20.137441253390026,19.430076786000846,18.722712318612093,18.010879158568724,17.295742978322309,16.58060679807642,15.865470617831029,15.150334437586158,14.432083980765853,13.711757290501286,12.991430600237269,12.271103909973775,11.550777219710826,10.828297645403156,10.104526308110046,9.3807549708174722,8.65698363352548,7.93321229623402,7.2079597335304726,6.4819095663734334,5.7558593992169946,5.0298092320611287,4.3037590649058259,3.5766896732995619,2.8491295297226689,2.1215693861463905,1.3940092425707129,0.6664490989956513,-0.061817628639686623,-0.79038718755575832,-1.5189567464712117,-2.2475263053860126,-2.9760958643002042,-3.705164142645879,-4.4344215969326761,-5.1636790512188258,-5.89293650550429,-6.6221939597891168,-7.3518149069774505,-8.0815570230475373,-8.8112991391169082,-9.5410412551856023,-10.270783371253591,-11.000803406059541,-11.730904130339747,-12.46100485461921,-13.191105578897968,-13.921206303175977,-14.651533128308984,-15.38191648132654,-16.112299834343347,-16.842683187359363,-17.573066540374633,-18.303647193651241,-19.03426970075828,-19.764892207864484,-20.495514714969932,-21.226137222074559,-21.956940002089389,-22.687774596974723,-23.418609191859154,-24.149443786742818,-24.880278381625583,-25.611302549342824,-26.342353800940678,-27.073405052537659,-27.80445630413374,-28.535507555728941,-29.266715388724943,-29.99794062129795,-30.729165853869972,-31.460391086441,-32.191616319011139,-32.92307220065878,-33.654546785939026,-34.386021371218355,-35.117495956496775,-35.848970541774229,-36.58060940333614,-37.312256912651726,-38.043904421966246,-38.7755519312797,-39.507199440592075,-40.2390587203211,-40.970923432112734,-41.702788143903234,-42.434652855692661,-43.166517567480966,0.07008189910083551,0.07008189910083551,0.07008189910083551,0.07008189910083551,0.07008189910083551,0.07008189910083551,0.07008189910083551,0.07008189910083551,0.07008189910083551,0.07008189910083551,0.07008189910083551,0.07008189910083551
DP 104,66.570272166446117,0.0027824793682761973,-132.84519123085656,-129.14232805612656,-125.43946488139498,-121.73660170666177,-118.03373853192704,-114.33179826809679,-110.66585187854457,-106.99990548899086,-103.33395909943557,-99.668012709878838,-96.005908223070492,-92.416800614793516,-88.827693006515219,-85.238585398235472,-81.64947778995456,-78.068861864715558,-74.592977767201859,-71.117093669686753,-67.64120957217024,-64.165325474652391,-60.704180212053821,-57.375685856872678,-54.047191501690257,-50.718697146506592,-47.39020279132167,-44.08399122675673,-40.933760881495978,-37.783530536233968,-34.633300190970736,-31.483069845706282,-28.363669178061024,-25.418971959635204,-22.47427474120818,-19.529577522779928,-16.584880304350502,-13.680204916498505,-10.964206034464709,-8.24820715242974,-5.532208270393614,-2.8162093883563277,-0.14971430991269855,2.3187632145749055,4.78724073906365,7.2557182635535238,9.7241957880445256,12.133749481961477,14.340340839654818,16.546932197349271,18.753523555044843,20.960114912741528,23.098754888681061,25.033538150210234,26.968321411740533,28.903104673271919,30.83788793480441,32.696376864790047,34.353723571086491,36.011070277384029,37.668416983682604,39.3257636899823,40.899401999331005,42.277718078388787,43.65603415744765,45.03435023650762,46.412666315568636,47.700981116327647,48.802367567682509,49.903754019038416,51.005140470395489,52.106526921753627,53.112874857701122,53.942720126986288,54.772565396272483,55.602410665559844,56.432255934848314,57.163354862883104,57.729874066530996,58.296393270179969,58.862912473830058,59.429431677481219,59.894851834344088,60.208621032025484,60.52239022970808,60.836159427391721,61.149928625076605,61.361571695402645,61.435041851519593,61.508512007637634,61.581982163756877,61.655452319877263,61.627028267017977,61.474064707371632,61.321101147726445,61.168137588082466,61.015174028439588,60.761703876920478,60.397145492276053,60.032587107632772,59.668028722990783,59.303470338349968,57.719335119183604,57.158592337579414,56.597849555976545,55.942314003835278,55.20101185741337,54.459709710992783,53.718407564573475,52.977105418155482,52.145036508069538,51.238702322369349,50.332368136670539,49.426033950973093,48.519699765276968,47.527196331043989,46.471001166186355,45.414806001330192,44.3586108364754,43.302415671622015,42.165064973243048,40.973609307362509,39.782153641483447,38.590697975605856,37.399242309729743,36.131915606807546,34.819065134232211,33.506214661658376,32.19336418908614,30.880513716515452,29.497210221834639,28.07596945997275,26.654728698112493,25.233487936253848,23.812247174396791,22.325984663675555,20.808414474476116,19.290844285278432,17.77327409608246,16.255703906888236,14.678446751208755,13.075608661083033,11.472770570959089,9.8699324808370061,8.267094390716677,6.6097151644482119,4.9316472099473154,3.2535792554482836,1.5755113009512027,-0.1025566535440316,-1.8302887235013765,-3.5745761245188334,-5.3188635255342263,-7.0631509265476691,-8.8074383275590673,-10.596847953869702,-12.399358131394809,-14.201868308917822,-16.004378486438736,-17.806888663957523,-19.650369722202043,-21.504093984702656,-23.357818247201106,-25.21154250969731,-27.06526677219129,-28.956248610332782,-30.855133997443239,-32.7540193845513,-34.652904771657035,-36.551790158760426,-38.484684868973041,-40.423581602626228,-42.362478336276872,-44.301375069925086,-46.240271803570778,-48.21049066180251,-50.185184447612883,-52.1598782334208,-54.134572019226042,-56.109265805028848,-58.112978648721842,-60.119916136945989,-62.126853625167243,-64.1337911133857,-66.140728601601324,-68.175292795570527,-70.212097275009938,-72.248901754446521,-74.285706233880447,-76.322510713311715,-78.385674978515439,-80.450226863131078,-82.514778747743534,-84.57933063235275,-86.643882516958939,-88.7345682978294,-90.825924431955244,-92.917280566077736,-95.008636700197144,-97.099992834313284,0.20507880531770861,0.20507880531770861,0.20507880531770861,0.20507880531770861,0.20507880531770861,0.20507880531770861,0.20507880531770861,0.20507880531770861,0.20507880531770861,0.20507880531770861,0.20507880531770861,0.20507880531770861
DP 105,54.203770652401111,0.0037165418409980154,-153.49177145238019,-149.37519923706142,-145.25862702174061,-141.14205480641786,-137.02548259109304,-132.90981180221803,-128.82929698577783,-124.74878216933581,-120.66826735289185,-116.58775253644576,-112.51101239276397,-108.50599174521078,-104.50097109765598,-100.49595045009944,-96.490929802541,-92.49428184378958,-88.600898102204226,-84.707514360617111,-80.814130619028177,-76.920746877437523,-73.04197895626001,-69.294754800321527,-65.547530644381425,-61.800306488439674,-58.053082332496352,-54.328090769369787,-50.758729037131936,-47.189367304892379,-43.620005572651287,-40.050643840408505,-36.512281889795119,-33.149587321845431,-29.786892753894154,-26.424198185941339,-23.061503617986975,-19.739408953240837,-16.608716025082106,-13.478023096921875,-10.347330168760136,-7.2166372405969081,-4.1366717852258219,-1.2596186184370459,1.6174345483532049,4.4944877151449285,7.3715408819381052,10.187528894680487,12.793178811489511,15.398828728299977,18.004478645111906,20.610128561925233,23.144475930458633,25.4649129583102,27.785349986163208,30.105787014017654,32.426224041873539,34.665513466379814,36.690865511084816,38.716217555791289,40.741569600499133,42.766921645208384,44.70192874642192,46.426128132975222,48.150327519529917,49.874526906086047,51.598726292643569,53.22425575103437,54.644852488956815,56.065449226880745,57.486045964806038,58.906642702732711,60.221295284776708,61.339191573334212,62.457087861893186,63.574984150453588,64.692880439015383,65.698743929813546,66.51788326714744,67.337022604482812,68.156161941819576,68.975301279157861,69.6775924967016,70.2046087733994,70.731625050098657,71.258641326799435,71.785657603501718,72.192321627988079,72.436153458104457,72.679985288222383,72.923817118341873,73.167648948462855,73.288943663781964,73.260468220488818,73.231992777197334,73.203517333907328,73.175041890618886,73.023116568354837,72.734744186460944,72.446371804568628,72.1579994226779,71.8696270407889,70.388744624010471,69.854065668060642,69.319386712112518,68.662959492135812,67.896376888937226,67.129794285740346,66.363211682545312,65.596629079352027,64.710697331016789,63.727114231018291,62.743531131021534,61.75994803102666,60.776364931033669,59.676688536375195,58.491202145961765,57.305715755550288,56.120229365140716,54.934742974733091,53.637137711001536,52.264784765454891,50.892431819910342,49.520078874367812,48.147725928827249,46.667798478935808,45.123324699545165,43.578850920156576,42.034377140770168,40.489903361385835,38.84282252306663,37.140490237855651,35.438157952647,33.735825667440594,32.033493382236429,30.23380168412352,28.387231868312693,26.54066205250427,24.694092236698179,22.847522420894453,20.908981246348311,18.93102253330964,16.953063820273417,14.975105107239717,12.997146394208468,10.932615638974536,8.8352460838885953,6.73787652880523,4.6405069737245279,2.5431374186463778,0.36448272316101049,-1.841268043546078,-4.0470188102503384,-6.25276957695191,-8.458520343650676,-10.740493128542473,-13.044595816079971,-15.348698503614605,-17.652801191146327,-19.956903878675153,-22.332494615897,-24.725958210180529,-27.119421804461069,-29.512885398738504,-31.906348993012923,-34.366993753635469,-36.841889834394273,-39.316785915149765,-41.791681995902081,-44.266578076651157,-46.804846200678163,-49.354298331162425,-51.903750461643185,-54.453202592120633,-57.002654722594571,-59.612338455724462,-62.2306273541627,-64.84891625259749,-67.46720515102858,-70.08549404945623,-72.761325617851284,-75.443551420571822,-78.125777223288438,-80.808003026001074,-83.490228828709945,-86.228536990035934,-88.971392942702181,-91.714248895364634,-94.457104848023391,-97.1999608006784,-99.997575800685041,-102.79807340064102,-105.59857100059261,-108.39906860054,-111.19956620048288,-114.05496824531626,-116.91177862869385,-119.76858901206685,-122.62539939543542,-125.48220977879942,0.28239411323043445,0.28239411323043445,0.28239411323043445,0.28239411323043445,0.28239411323043445,0.28239411323043445,0.28239411323043445,0.28239411323043445,0.28239411323043445,0.28239411323043445,0.28239411323043445,0.28239411323043445
DP 106,89.902798727171174,0.0013584321160398751,-78.409022542386339,-76.08550351945253,-73.7619844965179,-71.4384654735825,-69.114946450646343,-66.792137273585183,-64.497012354063131,-62.201887434540296,-59.9067625150168,-57.611637595492482,-55.319446565849404,-53.082999998593095,-50.84655343133614,-48.610106864078531,-46.373660296820248,-44.143654323572058,-41.993083154819658,-39.842511986066548,-37.691940817312776,-35.541369648558295,-33.401868101876872,-31.361994200172262,-29.32212029846707,-27.282246396761174,-25.242372495054703,-23.219040146066018,-21.311499916927282,-19.403959687787928,-17.496419458647956,-15.5888792295074,-13.703903472846903,-11.946794482123172,-10.189685491398832,-8.4325765006739086,-6.6754675099483931,-4.9471727352993984,-3.3547179641865994,-1.7622631930732222,-0.16980842195927698,1.4226463491552377,2.9801185730370041,4.397658954691007,5.8151993363455663,7.2327397180006869,8.6502800996563529,10.027040035693124,11.263332279212625,12.49962452273267,13.735916766253252,14.972209009774382,16.162538120231726,17.214976093701662,18.26741406717213,19.319852040643141,20.372290014114682,21.37438996430016,22.243778850182867,23.113167736066114,23.98255662194985,24.85194550783411,25.66756436908264,26.357718145379387,27.047871921676666,27.738025697974489,28.4281794742728,29.062149320350031,29.579427831177448,30.096706342005412,30.613984852833816,31.1312633636628,31.590981117359515,31.943798767608143,32.296616417857315,32.649434068106991,33.002251718357186,33.297140016479581,33.495477934242835,33.693815852006622,33.892153769770985,34.090491687535796,34.231466372872156,34.286394854056539,34.341323335241455,34.396251816426904,34.451180297612929,34.450145722778096,34.373395180458409,34.296644638139284,34.219894095820663,34.143143553502632,34.012540255059996,33.81611579019345,33.619691325327452,33.423266860462014,33.226842395597153,32.979250667249623,32.675104629497859,32.3709585917466,32.066812553995938,31.762666516245872,30.61000687677306,30.209772046888276,29.809537217004056,29.364686197915223,28.879467347227752,28.3942484965409,27.909029645854631,27.423810795168986,26.897584236776066,26.337805212787643,25.778026188799803,25.218247164812613,24.658468140826066,24.061360210345459,23.436660735348692,22.811961260352572,22.187261785357119,21.562562310362338,20.90418840231202,20.223364341734239,19.542540281157166,18.86171622058076,18.18089216000504,17.469945851617418,16.740925738992892,16.011905626369089,15.282885513746026,14.553865401123657,13.798111614155081,13.027962383016366,12.257813151878421,11.487663920741241,10.717514689604776,9.9238107255241488,9.1187652638902819,8.3137198022572285,7.5086743406249612,6.703628878993503,5.8779664220877095,5.0434678316733867,4.208969241259882,3.3744706508472273,2.5399720604353839,1.6875331185408784,0.82828898184436406,-0.03095515485129003,-0.89019929154604616,-1.749443428239954,-2.6242218042150927,-3.5041784557251039,-4.3841351072341617,-5.2640917587423273,-6.14404841024955,-7.03740568113255,-7.93465361785179,-8.83190155457006,-9.7291494912873713,-10.626397428003699,-11.535180654137593,-12.446847838916044,-13.358515023693521,-14.270182208469944,-15.181849393245361,-16.103447892128649,-17.027153147181611,-17.950858402233507,-18.874563657284341,-19.79826891233408,-20.730547512245916,-21.664339150704478,-22.598130789161882,-23.531922427618174,-24.465714066073318,-25.406984998883917,-26.34932448311007,-27.291663967335111,-28.234003451558912,-29.176342935781584,-30.125229280893876,-31.074843123750149,-32.024456966605079,-32.97407080945873,-33.923684652311088,-34.87928738065164,-35.835375755498305,-36.7914641303438,-37.747552505188033,-38.703640880031024,-39.665171570014628,-40.626988751784566,-41.5888059335531,-42.550623115320171,-43.512440297085789,-44.479548834071792,-45.4467930981281,-46.414037362182938,-47.381281626236273,-48.348525890288144,0.093995363311075927,0.093995363311075927,0.093995363311075927,0.093995363311075927,0.093995363311075927,0.093995363311075927,0.093995363311075927,0.093995363311075927,0.093995363311075927,0.093995363311075927,0.093995363311075927,0.093995363311075927
DP 107,52.623745503906775,0.0017749537313734097,-71.726293471451314,-69.81296667843209,-67.899639885411972,-65.986313092390944,-64.0729862993689,-62.160070945906675,-60.263201890874619,-58.366332835841582,-56.469463780807565,-54.572594725772717,-52.677450451411573,-50.815077335925949,-48.952704220439571,-47.090331104952384,-45.227957989464315,-43.369411924443995,-41.5580666308511,-39.74672133725732,-37.935376043662721,-36.124030750067256,-34.31937126547993,-32.57488469392375,-30.830398122366748,-29.085911550808991,-27.34142497925048,-25.607117674671457,-23.944066008678668,-22.281014342685133,-20.617962676690855,-18.954911010695795,-17.306065734962292,-15.737724232584041,-14.169382730205076,-12.601041227825375,-11.032699725444935,-9.4829853513371614,-8.0210855880363248,-6.5591858247347679,-5.097286061432504,-3.6353862981295277,-2.1967918001462228,-0.85141946486384357,0.49395287041923519,1.8393252057030136,3.1846975409874823,4.5019755308314586,5.7224829283743777,6.9429903259179886,8.16349772346228,9.3840051210072666,10.571655847298567,11.660735317567518,12.749814787837163,13.838894258107468,14.927973728378474,15.979593068773454,16.932452597394818,17.885312126016849,18.838171654639545,19.79103118326292,20.70210563652428,21.515680264082757,22.329254891641938,23.142829519201758,23.956404146762278,24.724251240763561,25.397124435151223,26.069997629539525,26.742870823928502,27.415744018318172,28.039411110076326,28.571694110942381,29.103977111809126,29.636260112676545,30.168543113544615,30.648672073713659,31.041876318141782,31.4350805625706,31.828284807000109,32.221489051430311,32.560165606817094,32.81704934013414,33.073933073451911,33.330816806770322,33.587700540089514,33.788278110535025,33.912675502475672,34.037072894417086,34.161470286359211,34.285867678302118,34.35278306191897,34.349441450189957,34.346099838461726,34.342758226734247,34.339416615007558,34.27800362423644,34.1524053221067,34.026807019977667,33.901208717849443,33.775610415722014,33.108308775095011,32.866507559600493,32.624706344106833,32.325294335066459,31.973757237496287,31.622220139926913,31.270683042358364,30.919145944790664,30.51095446443664,30.056408424524044,29.601862384612332,29.147316344701526,28.692770304791587,28.182936846041212,27.632237864526012,27.081538883011763,26.530839901498389,25.980140919986006,25.375866218116922,24.735873525337777,24.095880832559583,23.455888139782378,22.815895447006135,22.12431810255281,21.401789186959622,20.679260271367454,19.956731355776281,19.234202440186134,18.462292787367492,17.663792788730753,16.865292790095129,16.066792791460585,15.268292792827109,14.422760554358693,13.554582504779566,12.686404455201599,11.818226405624753,10.950048356049043,10.037267943905249,9.1053716312525683,8.1734753186010689,7.2415790059507765,6.3096826933016459,5.3356326260227922,4.3455926539654568,3.3555526819093555,2.3655127098545297,1.375472737800925,0.3456888953988505,-0.69734340466960221,-1.7403757047367,-2.7834080048025074,-3.8264403048669733,-4.906900583296613,-5.9982275054741541,-7.0895544276503113,-8.1808813498250732,-9.2722082719984513,-10.398791375761885,-11.534188941478174,-12.669586507193019,-13.804984072906382,-14.940381638618295,-16.109056217050782,-17.284789937014178,-18.460523656975976,-19.636257376936271,-20.811991096894996,-22.019250546397682,-23.23207371050632,-24.444896874613264,-25.657720038718619,-26.8705432028223,-28.113452300731083,-29.360659714182503,-30.607867127632215,-31.855074541080221,-33.102281954526525,-34.378343634543064,-35.657611647214132,-36.936879659883367,-38.216147672550647,-39.495415685216081,-40.802889975659276,-42.11265154982199,-43.4224131239829,-44.732174698142074,-46.041936272299473,-47.379315030492364,-48.718147599464707,-50.05698016843499,-51.395812737403155,-52.734645306369259,-54.101207284089156,-55.468480541109734,-56.83575379812806,-58.203027055144318,-59.570300312158423,0.13532608373885988,0.13532608373885988,0.13532608373885988,0.13532608373885988,0.13532608373885988,0.13532608373885988,0.13532608373885988,0.13532608373885988,0.13532608373885988,0.13532608373885988,0.13532608373885988,0.13532608373885988
DP 108,177.86832211241435,0.0036173656423812649,-291.08830738612568,-280.89798641788087,-270.70766544963431,-260.51734448138586,-250.32702351313557,-240.14196505140126,-230.16214633354051,-220.18232761567828,-210.20250889781434,-200.22269017994813,-190.26422453195343,-180.71147124818239,-171.15871796440973,-161.60596468063562,-152.05321139685989,-142.5461960539036,-133.60328774535094,-124.66037943679646,-115.71747112824053,-106.77456281968266,-97.90759004190663,-89.724044218697358,-81.540498395486665,-73.35695257227438,-65.173406749060533,-57.098563245374848,-49.784644198130628,-42.470725150884867,-35.156806103637663,-27.842887056388957,-20.669774662019741,-14.29457550677985,-7.9193763515385136,-1.5441771962957549,4.8310219589484191,11.036864702024486,16.444303783294053,21.851742864565018,27.25918194583738,32.666621027111084,37.881910223002649,42.328590796249152,46.775271369496949,51.221951942746088,55.668632515996542,59.90750283899731,63.4305735700403,66.953644301084651,70.47671503213023,73.999785763177215,77.307041693161182,79.966845060329987,82.626648427500172,85.286451794671635,87.946255161844235,90.3896583162361,92.2625443807891,94.13543044534326,96.008316509898791,97.881202574455486,99.5436962503123,100.71526772369306,101.88683919707496,103.05841067045817,104.22998214384255,105.20255022946805,105.76179779897052,106.32104536847427,106.88029293797923,107.43954050748549,107.81515781014532,107.84974251525044,107.88432722035675,107.91891192546423,107.95349663057303,107.82239556822309,107.41514738389388,107.00789919956583,106.60065101523909,106.19340283091346,105.63968993015409,104.86627649374151,104.09286305733016,103.31944962092001,102.54603618451112,101.64555818373238,100.57316647579746,99.500774767863774,98.428383059931349,97.355991352000288,96.175255742939186,94.86209753454439,93.548939326150943,92.235781117758719,90.922622909367817,89.518548179783721,88.013984959716524,86.509421739650676,85.004858519586122,83.500295299522918,78.61074694689421,76.955839965647073,75.300932984401257,73.58472133021948,71.813042439650872,70.041363549083556,68.269684658517718,66.498005767953273,64.676964120584017,62.815533914770853,60.954103708959124,59.092673503148724,57.231243297339816,55.330533089772125,53.40078919172403,51.471045293677449,49.541301395632289,47.61155749758862,45.650896283686073,43.669623038821655,41.6883497939588,39.707076549097458,37.725803304237687,35.720437560662596,33.700615953499167,31.680794346337262,29.66097273917709,27.641151132018422,25.602724466614035,23.554279422374897,21.505834378137468,19.457389333901688,17.40894428966751,15.34624617508457,13.27668527148786,11.207124367892927,9.1375634642997579,7.0680025607083685,4.9875955759276547,2.9025401241836479,0.81748467244143619,-1.267570779298882,-3.3526262310374291,-5.4458928833696127,-7.5422742360818429,-9.6386555887921972,-11.735036941500564,-13.831418294207085,-15.933997520791962,-18.038642783445628,-20.143288046097211,-22.247933308746831,-24.352578571394375,-26.461901213603991,-28.572581861763691,-30.683262509921306,-32.7939431580768,-34.904623806230141,-37.018847650439362,-39.133957335524208,-41.249067020606823,-43.364176705687164,-45.479286390765353,-47.597106077695706,-49.715500644550708,-51.833895211403295,-53.952289778253622,-56.070684345101583,-58.191175613289275,-60.312036910909363,-62.432898208526915,-64.553759506142086,-66.674620803754692,-68.7971899443734,-70.920003081010933,-73.042816217646077,-75.165629354278437,-77.28844249090838,-79.412563765385514,-81.5368304022482,-83.661097039108114,-85.785363675965186,-87.909630312819459,-90.035215124165376,-92.16090682799144,-94.286598531814818,-96.412290235635481,-98.537981939453488,-100.66465429388252,-102.79137827125564,-104.91810224862557,-107.04482622599254,-109.17155020335626,-111.29932389066425,-113.42712450378524,-115.55492511690294,-117.68272573001742,-119.81052634312884,0.20450339534017253,0.20450339534017253,0.20450339534017253,0.20450339534017253,0.20450339534017253,0.20450339534017253,0.20450339534017253,0.20450339534017253,0.20450339534017253,0.20450339534017253,0.20450339534017253,0.20450339534017253
DP 109,205.68507052200806,0.0014540054547270537,-123.65641383188516,-119.1483080947324,-114.64020235757908,-110.13209662042512,-105.6239908832702,-101.1185127448922,-96.715511952291962,-92.312511159691056,-87.909510367089567,-83.506509574487211,-79.1141164678715,-74.923271400316665,-70.7324263327613,-66.541581265205281,-62.3507361976486,-58.182439560043534,-54.292243066923426,-50.402046573802608,-46.511850080681128,-42.621653587559074,-38.768496036268658,-35.248692462434789,-31.72888888860032,-28.209085314765261,-24.689281740929584,-21.221796893282828,-18.12054708514361,-15.019297277003819,-11.918047468863437,-8.8167976607225018,-5.7822442970294015,-3.1256416546935264,-0.46903901235709289,2.1875636299798913,4.8441662723174241,7.4220121320781205,9.6285717630129746,11.835131393948346,14.041691024884274,16.248250655820716,18.367280730493135,20.136188443411317,21.90509615633,23.6740038692492,25.442911582168904,27.119284376148865,28.476921895332211,29.834559414516054,31.192196933700369,32.549834452885236,33.813710155322383,34.796296862526212,35.778883569730546,36.761470276935391,37.744056984140713,38.635072847791264,39.284671521931607,39.934270196072411,40.583868870213735,41.233467544355484,41.796487859962163,42.157489277825121,42.518490695688548,42.879492113552423,43.240493531416782,43.52196955358815,43.638275133372332,43.754580713156926,43.870886292942068,43.987191872727642,44.032325866678455,43.945282136302268,43.858238405926528,43.771194675551243,43.684150945176469,43.53489620063899,43.281954864429025,43.029013528219586,42.776072192010616,42.523130855802066,42.216967636111605,41.830970333550063,41.444973030989111,41.058975728428578,40.672978425868529,40.24233765844847,39.751295916276447,39.260254174104944,38.76921243193388,38.278170689763364,37.7503536490335,37.177588248721769,36.6048228484105,36.032057448099792,35.459292047789539,34.856734858958411,34.22124931103523,33.585763763112517,32.950278215190323,32.314792667268648,30.28951275157058,29.606497805026727,28.923482858483414,28.221780225048477,27.503169347972417,26.784558470896879,26.065947593821875,25.347336716747414,24.614223171105369,23.869243556488524,23.124263941872186,22.379284327256425,21.634304712641178,20.878206185290011,20.113889148356435,19.349572111423463,18.585255074491052,17.820938037559195,17.04819050143357,16.269822499702332,15.491454497971674,14.71308649624161,13.934718494512131,13.15002182879358,12.361527868971075,11.57303390914918,10.784539949327916,9.99604598950726,9.2028423442191389,8.4071026459619578,7.6113629477054507,6.8156232494495779,6.0198835511943267,5.2206639884483055,4.41976888666328,3.6188737848789474,2.8179786830952804,2.0170835813122965,1.2136304263102555,0.40908092824478715,-0.39546856981999584,-1.2000180678840526,-2.0045675659474322,-2.8109929592877436,-3.6181299235687328,-4.425266887849,-5.2324038521285114,-6.0395408164073023,-6.8480553927970993,-7.6570291905851757,-8.466002988372459,-9.2749767861589856,-10.083950583944725,-10.893942793678784,-11.704230683818048,-12.514518573956506,-13.324806464094177,-14.135094354231013,-14.946145540024062,-15.757387558748945,-16.568629577472983,-17.379871596196164,-18.191113614918493,-19.002941338229554,-19.814893308617673,-20.626845279004918,-21.438797249391243,-22.250749219776687,-23.063161961348758,-23.875656020606254,-24.688150079862773,-25.500644139118389,-26.313138198373014,-27.126027694759596,-27.938973686435784,-28.751919678111086,-29.5648656697853,-30.377811661458594,-31.191062442637779,-32.004347092517655,-32.817631742396458,-33.630916392274159,-34.444201042150823,-35.25783788108432,-36.0715032794852,-36.885168677885,-37.698834076283838,-38.512499474681611,-39.32641824998899,-40.140350363443041,-40.954282476895941,-41.768214590347647,-42.582146703798109,-43.396373913797142,-44.210608693233908,-45.024843472669467,-45.839078252103796,-46.653313031536882,0.078148116507829754,0.078148116507829754,0.078148116507829754,0.078148116507829754,0.078148116507829754,0.078148116507829754,0.078148116507829754,0.078148116507829754,0.078148116507829754,0.078148116507829754,0.078148116507829754,0.078148116507829754
DP 110,161.14342294781127,0.0054944972947705119,-424.64124292773226,-410.16545445043687,-395.6896659731384,-381.21387749583721,-366.73808901853317,-352.26919706913424,-338.0692723156435,-323.8693475621497,-309.669422808653,-295.46949805515357,-281.29764402806416,-267.65913910938042,-254.02063419069376,-240.38212927200465,-226.74362435331329,-213.16552422448791,-200.33242411675505,-187.49932400901918,-174.66622390128111,-161.83312379354038,-149.10095912492594,-137.27722294901031,-125.45348677309227,-113.629750597172,-101.80601442124933,-90.12793990823387,-79.469508050071241,-68.811076191906238,-58.152644333739019,-47.494212475569469,-37.026296604203964,-27.637983329933146,-18.249670055660093,-8.8613567813848491,0.52695649289261293,9.6835475651571912,17.747721454980123,25.811895344805212,33.876069234632396,41.940243124461738,49.738177537644496,56.471141461605853,63.204105385569321,69.937069309534934,76.67003323350248,83.111035549829154,88.54638006358978,93.981724577352537,99.417069091117156,104.85241360488389,109.97994346348415,114.18401771858521,118.38809197368828,122.59216622879313,126.79624048390006,130.68663246321259,133.75003311557285,136.81343376793492,139.87683442029896,142.94023507266508,145.69338089086014,147.72258898744275,149.75179708402706,151.78100518061342,153.8102132772016,155.54060575814606,156.65037250063259,157.76013924312107,158.86990598561138,159.97967272810359,160.80844422908345,161.11535983582863,161.4222754425758,161.72919104932487,162.0361066560759,162.08445209817592,161.70184074843249,161.31922939869136,160.93661804895163,160.55400669921423,159.93812649370088,158.97233749231577,158.00654849093243,157.04075948955102,156.0749704881716,154.90252559293054,153.45048283344195,151.99844007395544,150.54639731447074,149.09435455498797,147.46227401544056,145.61014351861988,143.75801302180125,141.90588252498461,140.05375202817007,138.04718340677528,135.86991694291586,133.69265047905836,131.51538401520284,129.33811755134946,122.15336896433134,119.71492232856208,117.27647569279482,114.72907033736234,112.08308132149001,109.4370923056199,106.79110328975199,104.14511427388605,101.40933622313571,98.6000928734878,95.79084952384207,92.9816061741986,90.1723628245574,87.289976672043579,84.353527245487427,81.417077818933691,78.480628392382144,75.544178965833083,72.548782362755162,69.514086713367135,66.479391063981438,63.444695414598137,60.409999765217258,57.328265760278626,54.218308030627696,51.108350300979339,47.998392571333504,44.888434841690149,41.741280800456387,38.574097435161896,35.406914069870055,32.239730704580793,29.072547339293997,25.876190639987339,22.6657871120807,19.45538358417684,16.24498005627574,13.034576528377427,9.8014557594046376,6.5585987232220493,3.3157416870422631,0.0728846508654512,-3.1699723853085828,-6.4304133349570538,-9.6975242741353966,-12.964635213310769,-16.231746152483058,-19.498857091652411,-22.779518259174349,-26.064696340249395,-29.349874421321175,-32.635052502389868,-35.920230583455307,-39.215824904323924,-42.514443421849549,-45.813061939371892,-49.111680456890873,-52.410298974406572,-55.716927122293121,-59.025557772404412,-62.334188422512383,-65.64281907261676,-68.951449722717683,-72.266267469763193,-75.5823977021955,-78.898527934624042,-82.214658167048967,-85.53078839947014,-88.8517282843233,-92.1735169848512,-95.495305685375016,-98.817094385895132,-102.13888308641131,-105.4645445123777,-108.79075922666831,-112.11697394095496,-115.44318865523748,-118.76940336951614,-122.09861250952983,-125.42815439495865,-128.75769628038316,-132.08723816580292,-135.41678005121847,-138.74915127893368,-142.08175194168919,-145.41435260444041,-148.74695326718742,-152.0795539299302,-155.4143282965299,-158.74921709021839,-162.0841058839022,-165.41899467758088,-168.75388347125474,-172.09098924601935,-175.42815188794034,-178.7653145298564,-182.10247717176745,-185.43963981367327,0.32107768954795085,0.32107768954795085,0.32107768954795085,0.32107768954795085,0.32107768954795085,0.32107768954795085,0.32107768954795085,0.32107768954795085,0.32107768954795085,0.32107768954795085,0.32107768954795085,0.32107768954795085
DP 111,190.44640033751605,0.0015542106520531843,-128.43796616710176,-123.85604684076188,-119.27412751442147,-114.69220818808004,-110.11028886173797,-105.53087348682281,-101.04911316429866,-96.5673528417738,-92.085592519247953,-87.603832196721456,-83.1322082191608,-78.853176712167439,-74.574145205173437,-70.295113698178724,-66.016082191183287,-61.758687708402086,-57.768152584482792,-53.77761746056278,-49.78708233664203,-45.796547212720562,-41.841761791517747,-38.2087270738937,-34.575692356268966,-30.942657638643659,-27.309622921017649,-23.727455490269271,-20.501362914096163,-17.275270337922422,-14.049177761748048,-10.82308518557304,-7.6624072545821935,-4.8724164350163157,-2.0824256154498473,0.70756520411722656,3.497556023684901,6.2095223839114242,8.5536549358344729,10.897787487758116,13.241920039682347,15.58605259160713,17.842487093606085,19.748125251240275,21.653763408875029,23.559401566510356,25.465039724146237,27.276806729535004,28.765235822600751,30.253664915667027,31.74209400873389,33.230523101801282,34.622551827345049,35.725375805568007,36.8281997837915,37.931023762015563,39.033847740240155,40.0411623144337,40.796676086124286,41.552189857815335,42.307703629506953,43.06321740119909,43.727046979890943,44.176943886217174,44.626840792543966,45.076737698871213,45.526634605199007,45.89096211281533,46.077566072917996,46.264170033021223,46.45077399312494,46.637377953229191,46.746117390599345,46.710249182936735,46.67438097527468,46.638512767613172,46.6026445599521,46.497531540662543,46.277008756632782,46.056485972603546,45.835963188574851,45.615440404546618,45.334615219636241,44.963335008439955,44.592054797244188,44.220774586048933,43.849494374854181,43.426698709285411,42.934204518551994,42.441710327819109,41.949216137086772,41.456721946354946,40.920990060824259,40.332411195678304,39.743832330532896,39.155253465387965,38.566674600243623,37.942393374645853,37.278650934941354,36.614908495237373,35.951166055533967,35.287423615831067,33.151004456768831,32.429185171296723,31.707365885825148,30.962257031825526,30.196076244137586,29.429895456450264,28.663714668763497,27.897533881077319,27.112914744424462,26.313209369014878,25.513503993605823,24.713798618197437,23.914093242789594,23.099964258512916,22.275174108840186,21.450383959168118,20.625593809496653,19.8008036598258,18.964854204120385,18.121465035260492,17.278075866401267,16.434686697542688,15.591297528684743,14.739360753483368,13.882295285207624,13.025229816932537,12.168164348658131,11.311098880384385,10.447544617611079,9.58049629421093,8.7134479708115062,7.8463996474127891,6.9793513240147487,6.107414921479748,5.2331249309122922,4.3588349403455835,3.4845449497796106,2.6102549592143873,1.7323052467793689,0.85278703269766254,-0.026731181383289945,-0.9062493954634474,-1.785767609542859,-2.6680145672878131,-3.5512966013086884,-4.4345786353287711,-5.3178606693480237,-6.201142703366493,-7.0864565628981975,-7.9724477232071376,-8.858438883515209,-9.7444300438224456,-10.630421204128822,-11.517928851808627,-12.405876788511019,-13.29382472521254,-14.181772661913167,-15.069720598612902,-15.958808948128588,-16.848182414321681,-17.737555880513849,-18.626929346705065,-19.516302812895365,-20.406546843514434,-21.296975549288728,-22.18740425506201,-23.077832960834339,-23.968261666605667,-24.859366309919928,-25.750590243845693,-26.641814177770382,-27.533038111694061,-28.424262045616675,-29.316046939912582,-30.207911977463446,-31.099777015013267,-31.991642052561975,-32.88350709010961,-33.775801618987181,-34.668143873633227,-35.560486128278093,-36.452828382921737,-37.345170637564273,-38.237972254895659,-39.13081112254347,-40.023649990190123,-40.916488857835688,-41.809327725480095,-42.702502112714846,-43.59569416221234,-44.488886211708618,-45.3820782612036,-46.275270310697245,-47.1688360203779,-48.062411314710232,-48.955986609041133,-49.849561903370741,-50.743137197698935,0.085823756699539525,0.085823756699539525,0.085823756699539525,0.085823756699539525,0.085823756699539525,0.085823756699539525,0.085823756699539525,0.085823756699539525,0.085823756699539525,0.085823756699539525,0.085823756699539525,0.085823756699539525
DP 112,62.649133150992554,0.0011406846588198065,-52.239802488469891,-50.800519849963536,-49.361237211456583,-47.921954572949019,-46.482671934440788,-45.043734214533551,-43.618248450497447,-42.1927626864607,-40.767276922423385,-39.341791158385426,-37.917744029156928,-36.521031233282955,-35.124318437408448,-33.72760564153338,-32.33089284565775,-30.937363171700355,-29.583092402570259,-28.228821633439622,-26.874550864308393,-25.520280095176627,-24.171543893669586,-22.87261932392375,-21.5736947541774,-20.274770184430544,-18.975845614683156,-17.685304787128192,-16.453450788876147,-15.2215967906236,-13.989742792370532,-12.757888794116967,-11.537662602899964,-10.383328050941685,-9.2289934989829074,-8.0746589470236483,-6.9203243950639024,-5.7811267160151125,-4.71328939826543,-3.6454520805152764,-2.5776147627646449,-1.5097774450135459,-0.4607230238608484,0.51319892320643645,1.4871208702741838,2.4610428173423959,3.4349647644110624,4.3864505624394585,5.26065534902112,6.1348601356032368,7.0090649221858046,7.8832697087688315,8.7314989747457936,9.5018006968094486,10.272102418873544,11.042404140938089,11.812705863003085,12.553718319789624,13.217512615948936,13.881306912108659,14.545101208268857,15.208895504429471,15.840406574677678,16.396589100647393,16.952771626617551,17.508954152588139,18.065136678559202,18.586437602131518,19.035291106245115,19.484144610359149,19.932998114473641,20.381851618588541,20.793678082550318,21.136739043416721,21.479800004283558,21.822860965150852,22.165921926018608,22.470298577312086,22.710200404252543,22.950102231193473,23.190004058134836,23.429905885076625,23.629971323702577,23.770281238509668,23.910591153317217,24.05090106812521,24.191210982933676,24.291034864889728,24.336082625507732,24.381130386126173,24.426178146745112,24.471225907364513,24.475622991584277,24.430335061905058,24.385047132226358,24.33975920254813,24.294471272870368,24.208822001030317,24.0785620215375,23.948302042045153,23.818042062553321,23.687782083061983,23.098695166784783,22.88911224622062,22.679529325656912,22.431348108092049,22.14824392688735,21.865139745683223,21.582035564479611,21.298931383276535,20.978597886616154,20.627803401135196,20.277008915654793,19.926214430174984,19.575419944695714,19.189015662447463,18.77629051026102,18.363565358075185,17.950840205889918,17.538115053705237,17.091591183425372,16.62253430196694,16.153477420509091,15.684420539051883,15.215363657595285,14.714455609912706,14.194436380797677,13.674417151683295,13.154397922569572,12.634378693456467,12.084538565975553,11.51864059803475,10.952742630094649,10.386844662155241,9.8209466942164916,9.2272916866810135,8.6202717899141383,8.0132518931479861,7.40623199638254,6.7992120996178178,6.1664881080035867,5.5227477286573832,4.8790073493119195,4.2352669699672205,3.5915265906232494,2.9240842132055973,2.2476511137138431,1.5712180142228669,0.89478491473269273,0.21835181524328515,-0.47986715281216696,-1.1853483516189067,-1.8908295504247952,-2.5963107492298723,-3.3017919480341078,-4.0272590560569217,-4.7585287685734556,-5.4897984810891245,-6.2210681936039176,-6.952337906117835,-7.7019363958689384,-8.4561172964855587,-9.2102981971012863,-9.9644790977160724,-10.718659998329963,-11.489678526500136,-12.264268865546411,-13.038859204591692,-13.813449543636018,-14.588039882679373,-15.378157568118128,-16.171015546174239,-16.963873524229292,-17.756731502283337,-18.549589480336369,-19.356889795269655,-20.166253457196916,-20.975617119123161,-21.784980781048308,-22.594344442972407,-23.417219752615484,-24.241596498352418,-25.065973244088195,-25.89034998982277,-26.71472673555618,-27.552062309495206,-28.390448731653422,-29.228835153810472,-30.067221575966443,-30.905607998121248,-31.75645291084837,-32.607953657561147,-33.459454404272641,-34.3109551509828,-35.162455897691665,-36.0263527492214,-36.890567569765018,-37.754782390307263,-38.6189972108482,-39.483212031387758,0.084933048897519445,0.084933048897519445,0.084933048897519445,0.084933048897519445,0.084933048897519445,0.084933048897519445,0.084933048897519445,0.084933048897519445,0.084933048897519445,0.084933048897519445,0.084933048897519445,0.084933048897519445
DP 113,74.5583479923597,0.0012420720618632223,-63.906837976728752,-62.085325205880636,-60.263812435031923,-58.442299664182464,-56.620786893332294,-54.799763238089568,-52.997815276492673,-51.19586731489504,-49.393919353296752,-47.591971391697783,-45.7920544892695,-44.030728095053384,-42.269401700836681,-40.508075306619361,-38.746748912401472,-36.989900180080539,-35.288276508808252,-33.586652837535283,-31.885029166261731,-30.183405494987529,-28.489527866534338,-26.865365355640726,-25.241202844746521,-23.617040333851779,-21.992877822956451,-20.380378377554454,-18.849521272534595,-17.318664167514168,-15.787807062493178,-14.256949957471624,-12.742151445037464,-11.318352635852271,-9.8945538266665345,-8.4707550174802577,-7.0469562082934409,-5.6438856422306323,-4.3385350561874256,-3.0331844701436852,-1.7278338840994245,-0.42248329805464518,0.85739161990888235,2.0353626615512677,3.2133337031941664,4.391304744837579,5.5692757864814872,6.7171414075945357,7.7613093155005428,8.8054772234070491,9.8496451313140554,10.893813039221561,11.903536073978461,12.809923186975231,13.716310299972482,14.622697412970226,15.529084525968461,16.39712976110135,17.164090545818485,17.931051330536146,18.698012115254233,19.464972899972857,20.190253882260532,20.81828067900155,21.446307475743051,22.074334272485029,22.702361069227496,23.286016550804284,23.777514933489954,24.269013316176103,24.760511698862729,25.252010081549827,25.69714326700127,26.056168405446055,26.415193543891291,26.774218682337061,27.133243820783257,27.44462698790198,27.676605668628653,27.908584349355809,28.140563030083484,28.372541710811657,28.55630624867122,28.667748432914138,28.779190617157514,28.89063280140142,29.002074985645809,29.065402404588276,29.063632306272449,29.061862207957144,29.060092109642312,29.058322011328041,29.009149091512121,28.902038394179289,28.79492769684693,28.687816999515114,28.580706302183824,28.427447494808639,28.223181963285946,28.018916431763753,27.8146509002421,27.610385368720998,26.775428638508476,26.482298884739315,26.189169130970669,25.853698501831985,25.47991869933842,25.10613889684543,24.73235909435299,24.35857929186113,23.944837949241315,23.498400114297208,23.051962279353678,22.605524444410772,22.159086609468432,21.675270444278429,21.163826203159253,20.652381962040714,20.140937720922793,19.629493479805511,19.0833791568026,18.514150899700486,17.944922642599039,17.375694385498225,16.806466128398071,16.205329961690058,15.585048566662355,14.9647671716353,14.344485776608963,13.724204381583274,13.074768065252403,12.409632521179782,11.744496977107916,11.079361433036754,10.414225888966294,9.7226257865947758,9.0182831188997117,8.3139404512054078,7.6095977835118553,6.9052551158190685,6.1770312285561593,5.4385722104382088,4.7001131923210391,3.9616541742046767,3.2231951560890852,2.4632951527765612,1.6952620824416056,0.927229012107471,0.15919594177418708,-0.6088371285582892,-1.396041769967989,-2.1896371766851854,-2.983232583401477,-3.7768279901169142,-4.5704233968314627,-5.3811126755044763,-6.1967648996784277,-7.0124171238514705,-7.8280693480235923,-8.6437215721947886,-9.4745973234479575,-10.309279136338859,-11.143960949228818,-11.978642762117786,-12.813324575005797,-13.661578408519491,-14.512711310994431,-15.363844213468315,-16.214977115941192,-17.066110018413045,-17.929384897719871,-18.794802613840556,-19.660220329960119,-20.52563804607864,-21.391055762196043,-22.267439935670339,-23.145390864373034,-24.023341793074668,-24.901292721775114,-25.779243650474491,-26.66715549293216,-27.556174208196971,-28.445192923460539,-29.334211638722856,-30.22323035398394,-31.121593947087504,-32.020715328478623,-32.919836709868569,-33.818958091257272,-34.718079472644874,-35.625975545916461,-36.534333532379932,-37.442691518842011,-38.351049505302733,-39.259407491762047,-40.176402843567487,-41.093619750012529,-42.010836656456149,-42.928053562898384,-43.845270469339148,0.089602867788720786,0.089602867788720786,0.089602867788720786,0.089602867788720786,0.089602867788720786,0.089602867788720786,0.089602867788720786,0.089602867788720786,0.089602867788720786,0.089602867788720786,0.089602867788720786,0.089602867788720786
DP 114,99.800094810117386,0.0036599979498849185,-224.20262553272471,-217.40465271751555,-210.60667990230419,-203.80870708709085,-197.01073427187529,-190.21500006836231,-183.50657256771612,-176.79814506706816,-170.08971756641802,-163.38129006576582,-156.6820915368076,-150.15824521473641,-143.6343988926636,-137.11055257058885,-130.58670624851234,-124.08306303088885,-117.82859398103409,-111.57412493117764,-105.31965588131919,-99.065186831459059,-92.845302131764072,-86.936679852527192,-81.028057573288535,-75.119435294048159,-69.210813014806135,-63.353617024242517,-57.856408943136131,-52.35920086202804,-46.861992780918293,-41.364784699806968,-35.937313129465814,-30.905019514547018,-25.872725899626662,-20.840432284704711,-15.808138669781181,-10.864287544054916,-6.33738435865699,-1.810481173257513,2.7164220121434837,7.2433251975460005,11.663690717636293,15.657900541442441,19.652110365250081,23.646320189059235,27.640530012869821,31.511621873554972,34.958635578026289,38.405649282499006,41.852662986973279,45.29967669144893,48.609242243996185,51.506458144053347,54.403674044111995,57.300889944172056,60.198105844233538,62.946340383915292,65.30180076190814,67.657261139902531,70.012721517898186,72.368181895895333,74.566259777527748,76.397106875651033,78.227953973775541,80.058801071901584,81.889648170028849,83.557976857364551,84.888762580309219,86.219548303255223,87.5503340262026,88.881119749151523,90.047468110451518,90.908428359316275,91.76938860818241,92.630348857049881,93.491309105918816,94.188928913687789,94.614310535857442,95.039692158028345,95.465073780200868,95.8904554023747,96.156290169859716,96.1828008851749,96.2093116004914,96.23582231580933,96.262333031128691,96.135385793131974,95.800815558291674,95.4662453234527,95.1316750886152,94.797104853779189,94.317020044984119,93.659081033750212,93.001142022517868,92.343203011287045,91.685264000057671,90.891148883877065,89.946520626115458,89.001892368355243,88.057264110596691,87.112635852839574,83.649333110908813,82.452937189747871,81.256541268588393,79.945102210282826,78.529574432844484,77.114046655407748,75.698518877972617,74.2829911005391,72.763445077992273,71.158791430913425,69.554137783836126,67.949484136760617,66.3448304896867,64.647063369535488,62.880471716903578,61.113880064273417,59.347288411645032,57.580696759018409,55.731532064153086,53.827317373646942,51.923102683142652,50.018887992640082,48.1146733021394,46.13787193330154,44.11751745970659,42.097162986113517,40.076808512522369,38.056454038933126,35.972810973615282,33.8550885155049,31.737366057396624,29.619643599290342,27.50192114118602,25.329434281333938,23.130578609324356,20.93172293731693,18.732867265311551,16.534011593308321,14.28809449350954,12.02200757490024,9.7559206562931,7.4898337376882145,5.2237468190854459,2.9174680270327578,0.59594351760686348,-1.7255809918167713,-4.0471055012380415,-6.3686300106570872,-8.7242979416086932,-11.091347443372635,-13.458396945134073,-15.825446446893162,-18.192495948649768,-20.588430513333996,-22.992751416317496,-25.397072319298477,-27.801393222276918,-30.205714125252833,-32.634408743800286,-35.069197079217268,-37.503985414631622,-39.938773750043275,-42.373562085452228,-44.8289125414566,-47.28862489498551,-49.748337248511461,-52.208049602034677,-54.667761955555065,-57.14485883185062,-59.625023758422174,-62.105188684990679,-64.585353611556258,-67.065518538118866,-69.560549325888644,-72.057703968701034,-74.554858611510511,-77.052013254316734,-79.549167897119844,-82.059043840786046,-84.570333395926255,-87.081622951063153,-89.592912506196541,-92.104202061326632,-94.626978569927232,-97.150686570510345,-99.674394571089977,-102.1981025716665,-104.72181057223976,-107.25572674006617,-109.7901802814166,-112.32463382276345,-114.85908736410633,-117.39354090544552,-119.93786017970353,-122.48243251711148,-125.02700485451577,-127.57157719191599,-130.11614952931245,0.24668004592385998,0.24668004592385998,0.24668004592385998,0.24668004592385998,0.24668004592385998,0.24668004592385998,0.24668004592385998,0.24668004592385998,0.24668004592385998,0.24668004592385998,0.24668004592385998,0.24668004592385998
DP 115,57.844823183493567,0.0010226062055106108,-44.269579000839691,-43.067999664041089,-41.866420327241983,-40.664840990442308,-39.463261653642057,-38.261956197792657,-37.071332202596608,-35.880708207400019,-34.690084212202876,-33.499460217005222,-32.309980877875347,-31.142250220432508,-29.974519562989219,-28.806788905545393,-27.639058248101144,-26.473863983840079,-25.339952221834942,-24.206040459829328,-23.07212869782316,-21.938216935816556,-20.808724982864987,-19.719011729178952,-18.629298475492451,-17.539585221805524,-16.449871968118106,-15.366870103195414,-14.330848467122941,-13.29482683105004,-12.258805194976675,-11.222783558902877,-10.196098029502769,-9.2223176928953841,-8.2485373562875814,-7.2747570196793427,-6.30097668307067,-5.3393912958419891,-4.4352970429382061,-3.5312027900339991,-2.6271085371293754,-1.7230142842243332,-0.83411237839636687,-0.0059805788769311131,0.82215122064291546,1.6502830201631737,2.4784148196838336,3.2883198601942634,4.0354430761955085,4.7825662921971466,5.5296895081991932,6.27681272420164,7.0027319096645337,7.665038201816369,8.32734449396861,8.9896507861212225,9.6519570782742576,10.290227704254383,10.865130747822361,11.44003379139073,12.01493683495949,12.58983987852865,13.138099674803621,13.624191054608428,14.110282434413618,14.596373814219222,15.0824651940252,15.539593495636899,15.936566869422371,16.333540243208226,16.730513616994486,17.12748699078114,17.493515859015382,17.802075524106474,18.110635189198,18.419194854289888,18.727754519382202,19.003762869465149,19.225518207389218,19.447273545313678,19.669028883238518,19.890784221163806,20.078776496823039,20.216123381252636,20.353470265682628,20.490817150113042,20.628164034543861,20.730937140449154,20.78693318883111,20.842929237213514,20.898925285596306,20.954921333979538,20.975928732117897,20.954171489475574,20.9324142468337,20.910657004192267,20.888899761551254,20.832116743517489,20.736620329381193,20.64112391524537,20.545627501109948,20.450131086975013,19.990077527344507,19.8251552550771,19.660232982810165,19.461228889592817,19.231388249524919,19.001547609457475,18.771706969390543,18.541866329324076,18.2788514673086,17.9886934899415,17.698535512574942,17.408377535208871,17.118219557843279,16.796029127738208,16.450162010348816,16.104294892959977,15.75842777557164,15.412560658183832,15.035992262658862,14.638955864722876,14.241919466787435,13.844883068852551,13.447846670918221,13.021584897650596,12.577787457196932,12.133990016743843,11.690192576291349,11.246395135839416,10.774948776630767,10.288614136029404,9.8022794954286709,9.3159448548285564,8.8296102142290565,8.317261601811774,7.7923873794279848,7.267513157044843,6.74263893466235,6.217764712280502,5.6685306326243854,5.1088562852054791,4.5491819377872309,3.9895075903696835,3.4298332429527907,2.8474360447450913,2.2564195379222793,1.6654030311001675,1.0743865242787869,0.48337001745809893,-0.12878275564699668,-0.74798121722273758,-1.367179678797706,-1.9863781403719383,-2.6055766019454083,-3.2444048503125731,-3.8889323084487315,-4.5334597665841017,-5.1779872247186862,-5.8225146828524714,-6.4852725109149834,-7.1525881468532848,-7.8199037827907683,-8.4872194187273919,-9.1545350546632065,-9.8388133904681858,-10.526690069072904,-11.214566747676734,-11.902443426279689,-12.590320104881764,-13.294040827338018,-14.000557733720262,-14.70707464010156,-15.413591546481943,-16.120108452861384,-16.841543980301729,-17.565110900478366,-18.288677820654083,-19.012244740828805,-19.735811661002554,-20.473503463292868,-21.212764845272797,-21.952026227251675,-22.691287609229455,-23.430548991206219,-24.183481866803369,-24.937523381584402,-25.691564896364444,-26.445606411143473,-27.199647925921472,-27.9669512023747,-28.73495259823239,-29.502953994088884,-30.270955389944248,-31.038956785798351,-31.820211683985324,-32.601806544049914,-33.383401404113243,-34.164996264175372,-34.9465911242363,0.077052471226958075,0.077052471226958075,0.077052471226958075,0.077052471226958075,0.077052471226958075,0.077052471226958075,0.077052471226958075,0.077052471226958075,0.077052471226958075,0.077052471226958075,0.077052471226958075,0.077052471226958075
DP 116,194.01787369473448,0.0040771944646305321,-339.31745039198228,-327.14954674525092,-314.981643098517,-302.81373945178126,-290.64583580504353,-278.4846854660118,-266.58691668093837,-254.68914789586285,-242.7913791107853,-230.89361032570594,-219.02316200156542,-207.67180760003137,-196.32045319849561,-184.96909879695795,-173.61774439541867,-162.32465272522933,-151.75014208446638,-141.17563144370177,-130.60112080293521,-120.02661016216695,-109.54822916854916,-99.935024085592957,-90.321819002635152,-80.708613919675628,-71.095408836714412,-61.618753282488377,-53.097954754875495,-44.577156227260993,-36.056357699644835,-27.535559172027057,-19.190000267837352,-11.837476938982338,-4.4849536101257437,2.8675697187324185,10.220093047592144,17.3640904484003,23.525025782609035,29.685961116819275,35.846896451031057,42.007831785244306,47.935006185269238,52.927125800861788,57.919245416455894,62.911365032051343,67.903484647648284,72.646120529022539,76.529413067409664,80.412705605798052,84.295998144188033,88.179290682579364,91.807183954339038,94.668869769949538,97.530555585561743,100.3922414011752,103.25392721679002,105.86342947295346,107.80807549540752,109.75272151786295,111.69736754031966,113.64201356277783,115.34544124311044,116.48601852507262,117.62659580703624,118.76717308900108,119.90775037096736,120.82404307116464,121.27450742472364,121.72497177828409,122.1754361318457,122.62590048540883,122.87307375315996,122.74270094288775,122.6123281326169,122.4819553223475,122.35158251207945,122.0411585077407,121.43064464164685,120.8201307755543,120.20961690946319,119.59910304337345,118.83244739350741,117.83157537830284,116.83070336309962,115.82983134789779,114.82895933269735,113.69527242796566,112.3818918365004,111.06851124503667,109.75513065357427,108.44175006211326,107.01738823271975,105.45738033694916,103.89737244117975,102.33736454541183,100.77735664964534,99.126122080478609,97.37405621484956,95.621990349221889,93.86992448359554,92.117858617970654,86.492369973728657,84.592587409914913,82.69280484610259,80.734061876663688,78.721972716800465,76.709883556938678,74.697794397078425,72.6857052372197,70.627157428451383,68.530597199425884,66.4340369704019,64.337476741379533,62.240916512358723,60.108186442008765,57.948721546535523,55.789256651063916,53.629791755593828,51.470326860125439,49.28301173806463,47.077129359537132,44.871246981011346,42.665364602487251,40.459482223964841,38.232369664283247,35.992518674834969,33.752667685388396,31.512816695943673,29.2729657065006,27.017074321187572,24.752545566382977,22.488016811580305,20.223488056779441,17.958959301980322,15.682403098220551,13.400055732095892,11.117708365973185,8.8353609998523979,6.55301363373356,4.2617010911148752,1.9665462089406447,-0.32860867323162052,-2.6237635554018119,-4.9189184375700608,-7.2207306269070619,-9.5250680885144661,-11.829405550119796,-14.133743011722956,-16.4380804733241,-18.747357556248783,-21.058281241866357,-23.369204927481647,-25.680128613094769,-27.991052298705643,-30.30565302831366,-32.621321331668568,-34.936989635021185,-37.252657938371485,-39.568326241719468,-41.886755929418058,-44.205875995828571,-46.524996062236724,-48.844116128642341,-51.163236195045606,-53.484465180320143,-55.806141536182146,-58.127817892041485,-60.449494247898315,-62.7711706037525,-65.094488028523458,-67.418095071938183,-69.741702115350208,-72.06530915875959,-74.388916202166143,-76.713894469419145,-79.03906864060319,-81.36424281178445,-83.689416982962868,-86.014591154138515,-88.340816111501979,-90.667157833919163,-92.993499556333418,-95.319841278744363,-97.6461830011524,-99.973669052725839,-102.30124789943588,-104.62882674614274,-106.95640559284682,-109.28398443954792,-111.61239551574376,-113.94085040176898,-116.26930528779077,-118.59776017380909,-120.92621505982426,-123.25560698552584,-125.5850229469669,-127.91443890840439,-130.24385486983834,-132.57327083126881,0.22369027429096108,0.22369027429096108,0.22369027429096108,0.22369027429096108,0.22369027429096108,0.22369027429096108,0.22369027429096108,0.22369027429096108,0.22369027429096108,0.22369027429096108,0.22369027429096108,0.22369027429096108
DP 117,91.799013444299334,0.0050368549592891268,-294.28345652764835,-285.52343184328038,-276.76340715890927,-268.0033824745355,-259.24335779015911,-250.4860494731158,-241.83468050921294,-233.18331154530759,-224.53194258139914,-215.8805736174879,-207.24042539563297,-198.81347339409407,-190.38652139255308,-181.95956939100915,-173.53261738946304,-165.13028489680264,-157.03159611651625,-148.93290733622732,-140.83421855593591,-132.73552977564191,-124.67912094067495,-117.00323561002376,-109.32735027937019,-101.65146494871423,-93.975579618056116,-86.362814280929982,-79.191893671482674,-72.020973062033079,-64.850052452581323,-57.679131843127209,-50.594217122730406,-43.996674526586411,-37.399131930440241,-30.801589334291915,-24.204046738141358,-17.716185852980335,-11.745401815202701,-5.7746177774229084,0.19616626035898868,6.1669502981429867,12.004772235752252,17.310739488791754,22.616706741833298,27.922673994876948,33.22864124792256,38.379869648514457,42.998102167941177,47.616334687369879,52.2345672068006,56.852799726233364,61.29694929293602,65.218843419637182,69.140737546340347,73.062631673045516,76.984525799752589,80.716143774646241,83.946118081986313,87.176092389328332,90.406066696672369,93.636041004018267,96.663201082225712,99.217121569031463,101.77104205583903,104.32496254264866,106.8788830294602,109.2213665954125,111.12470579180788,113.0280449882052,114.93138418460437,116.83472338100563,118.52196461552677,119.80787522774945,121.0937858399741,122.37969645220069,123.66560706442914,124.73458302217958,125.44199575449052,126.14940848680351,126.85682121911844,127.56423395143531,128.05740007871398,128.229191235728,128.40098239274406,128.57277354976205,128.74456470678209,128.70791079704844,128.38923833759821,128.07056587815018,127.75189341870416,127.43322095926003,126.91453310006722,126.1513777732532,125.38822244644135,124.62506711963142,123.86191179282355,122.90927297647778,121.74720126955026,120.58512956262479,119.42305785570159,118.2609861487803,113.88786726292078,112.37103337932076,110.85419949572278,109.17315134971682,107.34352543834892,105.51389952698327,103.6842736156199,101.85464770425868,99.874568755045914,97.771389280139473,95.66820980523535,93.565030330333641,91.461850855434264,89.222159929582546,86.881566991599357,84.5409740536187,82.20038111564044,79.85978817766464,77.3964568446196,74.851297981301343,72.30613911798568,69.760980254672489,67.215821391361814,64.5612427259886,61.841010524582146,59.120778323178335,56.400546121777317,53.6803139203789,50.863305916319149,47.994186457388523,45.125066998460731,42.255947539535718,39.386828080613412,36.432740398418346,33.437740900384178,30.442741402353064,27.44774190432485,24.452742406299603,21.383638540054879,18.28277465822887,15.181910776405875,12.081046894586041,8.980183012769194,5.8150714460808013,2.6255892302693771,-0.56389298553887379,-3.7533752013438093,-6.9428574171456123,-10.187762446829936,-13.451142446289396,-16.714522445745352,-19.97790244519798,-23.241282444647169,-26.55228992801273,-29.877125326293378,-33.20196072457049,-36.526796122844061,-39.851631521114037,-43.217303848979284,-46.593185891734159,-49.969067934485359,-53.344949977232794,-56.720832019976434,-60.131731358659493,-63.550059009796,-66.9683866609284,-70.386714312056966,-73.8050419631815,-77.253474321482031,-80.707219609931315,-84.160964898376292,-87.614710186817163,-91.0684554752539,-94.548359192023938,-98.032000109697577,-101.51564102736697,-104.99928194503183,-108.48292286269253,-111.98936002619247,-115.49833034530644,-119.0073006644156,-122.51627098351985,-126.02524130261956,-129.555008427081,-133.08646199151224,-136.61791555593879,-140.14936912036089,-143.68082268477841,-147.23109517407312,-150.78235832033351,-154.33362146658874,-157.8848846128387,-161.43614775908313,-165.00568444008988,-168.57568985041698,-172.14569526073839,-175.71570067105461,-179.28570608136485,0.34675045882266325,0.34675045882266325,0.34675045882266325,0.34675045882266325,0.34675045882266325,0.34675045882266325,0.34675045882266325,0.34675045882266325,0.34675045882266325,0.34675045882266325,0.34675045882266325,0.34675045882266325
DP 118,197.56628651829277,0.0010998135018872987,-92.154774979777926,-88.833235013911917,-85.511695048045354,-82.190155082178165,-78.8686151163104,-75.5489467610359,-72.3022719265448,-69.055597092053091,-65.808922257560937,-62.562247423068193,-59.323139601468476,-56.227806455333422,-53.1324733091979,-50.037140163061885,-46.941807016925353,-43.86259446359756,-40.982204586567264,-38.101814709536548,-35.221424832505249,-32.341034955473539,-29.487207870564447,-26.872448425510772,-24.257688980456585,-21.642929535402011,-19.02817009034694,-16.451077475621062,-14.13765552145238,-11.824233567283258,-9.5108116131136828,-7.1973896589436741,-4.9322092376115245,-2.9404005422595567,-0.94859184690716492,1.0432168484456463,3.03502554379888,4.9695637856878072,6.6341096536606594,8.2986555216339219,9.9632013896075833,11.627747257581664,13.228260761401868,14.572641782399513,15.917022803397561,17.261403824395995,18.605784845394812,19.882023681873982,20.923547686839012,21.965071691804397,23.006595696770191,24.048119701736347,25.020104400108835,25.7834685495259,26.546832698943341,27.310196848361169,28.073560997779353,28.768490536208752,29.282999202570313,29.79750786893225,30.312016535294518,30.826525201657194,31.275806835148707,31.57289000349629,31.86997317184424,32.16705634019258,32.464139508541244,32.700799801287268,32.811964672015741,32.923129542744633,33.034294413473859,33.145459284203426,33.202069368489568,33.157361947500668,33.112654526512145,33.06794710552397,33.023239684536158,32.930408067309855,32.757368243351891,32.584328419394296,32.411288595437071,32.238248771480194,32.02364838192323,31.746706161878212,31.469763941833605,31.192821721789389,30.915879501745508,30.603736242584585,30.243967265267266,29.884198287950287,29.524429310633689,29.16466033331746,28.775605381548349,28.350755845860625,27.925906310173282,27.501056774486326,27.076207238799718,26.627391855798628,26.152087427812386,25.676782999826525,25.201478571841012,24.726174143855907,23.20368506887332,22.689750251450874,22.175815434028824,21.646532452044251,21.103362759126863,20.560193066209866,20.0170233732933,19.473853680377108,18.918646495455025,18.353590246565116,17.788533997675607,17.223477748786536,16.658421499897859,16.084037586704909,15.50275915960697,14.921480732509472,14.340202305412404,13.758923878315779,13.170497181533003,12.577304859015912,11.984112536499264,11.390920213983067,10.79772789146733,10.199112082793468,9.5972421004035109,8.99537211801402,8.39350213562501,7.79163215323647,7.1856835481862591,6.5775387023929444,5.9693938566001306,5.3612490108078061,4.7531041650159604,4.1419149446693346,3.529259871721401,2.9166047987739891,2.3039497258270951,1.6912946528807196,1.0763801162974636,0.46049720764632213,-0.15538570100429375,-0.77126860965435373,-1.3871515183038929,-2.0047056335233595,-2.6228936764709672,-3.2410817194180197,-3.8592697623644927,-4.4774578053104195,-5.096881740407337,-5.7167176551299228,-6.3365535698518887,-6.9563894845732808,-7.5762253992940769,-8.1969791004162467,-8.8179992668480534,-9.4390194332792472,-10.06003959970981,-10.68105976613977,-11.302768491132531,-11.924649363900897,-12.546530236668611,-13.168411109435663,-13.790291982202081,-14.412699170443299,-15.035218007390469,-15.657736844336959,-16.280255681282767,-16.902774518227897,-17.525704034826809,-18.148706028872056,-18.771708022916549,-19.394710016960328,-20.01771201100339,-20.64105971775178,-21.264456815763371,-21.887853913774237,-22.511251011784317,-23.13464810979368,-23.758310471963853,-24.382002310714807,-25.005694149464983,-25.629385988214317,-26.253077826962809,-26.877063818821657,-27.501073663937785,-28.125083509053091,-28.749093354167645,-29.373103199281438,-29.997326150363978,-30.621560319669534,-31.2457944889742,-31.870028658277967,-32.4942628275808,-33.118739520068566,-33.743222433449738,-34.367705346829972,-34.992188260209282,-35.616671173587569,0.0599580483583542,0.0599580483583542,0.0599580483583542,0.0599580483583542,0.0599580483583542,0.0599580483583542,0.0599580483583542,0.0599580483583542,0.0599580483583542,0.0599580483583542,0.0599580483583542,0.0599580483583542
DP 119,101.17587726596436,0.0046899324532055564,-289.47170167405932,-280.6677058749346,-271.86371007580721,-263.05971427667686,-254.25571847754443,-245.45465112307059,-236.76779421761353,-228.08093731215368,-219.39408040669107,-210.7072235012262,-202.03243480401517,-193.58694434508334,-185.14145388614932,-176.69596342721272,-168.25047296827395,-159.83139058030528,-151.73801106249283,-143.644631544678,-135.55125202686062,-127.457872509041,-119.40967500478138,-111.76811989323998,-104.12656478169639,-96.485009670150617,-88.8434545586028,-81.269038898236886,-74.164604473036889,-67.06017004783476,-59.955735622630506,-52.851301197424171,-45.837834355642556,-39.339856218851722,-32.841878082058862,-26.34389994526402,-19.845921808467118,-13.463204080319207,-7.6238630755516,-1.7845220707820084,4.0548189339895382,9.8941599387630248,15.594809475121206,20.74068658317465,25.886563691229991,31.032440799287272,36.178317907346383,41.164111206511691,45.598497994458171,50.032884782406477,54.467271570356672,58.901658358308694,63.157564025712006,66.878019583370374,70.598475141030576,74.318930698692682,78.039386256356579,81.566662618180047,84.584641732961842,87.602620847745413,90.620599962530775,93.638579077318028,96.452796270953016,98.791562561962465,101.13032885297382,103.46909514398688,105.80786143500177,107.93655755982986,109.62894799917103,111.32133843851393,113.01372887785867,114.70611931720526,116.18632531754126,117.27246877231059,118.35861222708179,119.44475568185473,120.53089913662943,121.40665341590038,121.93175376633883,122.45685411677908,122.98195446722109,123.50705481766498,123.82703638391199,123.83933492684923,123.85163346978857,123.86393201272935,123.87623055567221,123.69162331647362,123.24060975749373,122.78959619851577,122.33858263953968,121.8875690805653,121.25021908691616,120.38512064805822,119.52002220920204,118.65492377034782,117.78982533149541,116.75071069156159,115.51925889291579,114.28780709427184,113.05635529562987,111.82490349699007,107.32795002994695,105.77545839596603,104.22296676198708,102.52410019930586,100.69279654198586,98.8614928846679,97.030189227352082,95.198885570038271,93.235529922635877,91.164129468489108,89.0927290143443,87.021328560201781,84.949928106061279,82.760590616650916,80.484080336382675,78.207570056116765,75.931059775853058,73.654549495591567,71.273695894149583,68.823278434814014,66.372860975480677,63.92244351614972,61.472026056821115,58.930101807783373,56.333272101029749,53.736442394278491,51.139612687529805,48.542782980783436,45.866360614795006,43.1470795056489,40.427798396505523,37.708517287364607,34.989236178226243,32.201250975075617,29.380185060885786,26.55911914669867,23.738053232514204,20.916987318332438,18.03702777508666,15.131827309859661,12.226626844635396,9.3214263794140191,6.4162259141953486,3.460855250941032,0.48645385848319833,-2.4879475339717492,-5.4623489264236813,-8.4367503188727664,-11.453662479546917,-14.484745432049197,-17.5158283845483,-20.546911337044385,-23.577994289537326,-26.64494728671616,-29.722314605314292,-32.799681923909191,-35.877049242500895,-38.954416561089275,-42.061971409441838,-45.177073496902395,-48.292175584359626,-51.407277671813333,-54.522379759263757,-57.662879937269075,-60.808767880014024,-63.95465582275525,-67.100543765493,-70.246431708227121,-73.413733773236444,-76.58481503912499,-79.755896305009571,-82.926977570890443,-86.098058836767422,-89.287404012331919,-92.4793585151426,-95.671313017949444,-98.863267520752188,-102.05522202355104,-105.26275790928069,-108.47202522341772,-111.68129253755032,-114.89055985167843,-118.09982716580222,-121.32314252542798,-124.54759705931609,-127.7720515932001,-130.99650612707987,-134.22096066095554,-137.45785998514958,-140.69541442212349,-143.93296885909263,-147.17052329605696,-150.4080777330164,-153.65765135523293,-156.90753327820175,-160.15741520116558,-163.4072971241246,-166.65717904707844,0.31496322419188927,0.31496322419188927,0.31496322419188927,0.31496322419188927,0.31496322419188927,0.31496322419188927,0.31496322419188927,0.31496322419188927,0.31496322419188927,0.31496322419188927,0.31496322419188927,0.31496322419188927
DP 120,167.98925075072441,0.0018558703924303039,-145.93369325133563,-140.90336733653376,-135.87304142173079,-130.84271550692682,-125.81238959212199,-120.78454269781516,-115.85337854025452,-110.92221438269294,-105.99105022513038,-101.05988606756698,-96.1387985769707,-91.409169663687365,-86.679540750403348,-81.949911837118378,-77.220282923832571,-72.5122976192357,-68.071252882852647,-63.630208146468895,-59.189163410084092,-54.748118673698592,-50.343144417030466,-46.2628078872526,-42.182471357473986,-38.102134827694542,-34.0217982979143,-29.993343210271743,-26.328062140713229,-22.662781071153947,-18.99750000159391,-15.33221893203309,-11.734527047089765,-8.51984480072117,-5.3051625543518286,-2.0904803079817489,1.1242019383890687,4.2570526477663835,7.0041216914217914,9.7511907350779179,12.498259778734772,15.245328822392317,17.898861675954969,20.178245348562392,22.457629021170543,24.737012693779338,27.016396366388882,29.19378981463473,31.019879316634047,32.845968818634041,34.672058320634726,36.498147822636085,38.21737352065216,39.616003766355981,41.014634012060526,42.413264257765661,43.811894503471486,45.102346114150293,46.107595786969384,47.112845459789078,48.118095132609369,49.123344805430385,50.022350675232595,50.673450990562394,51.324551305892868,51.975651621223953,52.626751936555777,53.176285027663923,53.514867853000055,53.853450678336856,54.192033503674253,54.530616329012268,54.774430133294146,54.842241767707335,54.910053402121193,54.97786503653564,55.045676670950684,55.026985970581009,54.864122531890345,54.701259093200392,54.538395654511049,54.3755322158223,54.135282529579754,53.778951643347732,53.4226207571163,53.066289870885576,52.709958984655486,52.285660615525209,51.769404728503439,51.253148841482336,50.7368929544619,50.220637067442112,49.645691164588058,48.999011787393222,48.352332410199033,47.705653033005476,47.058973655812629,46.362404607776192,45.6106933518333,44.858982095891108,44.107270839949535,43.355559584008709,40.891442619393764,40.056137926711649,39.220833234030295,38.350982647516517,37.449875630332407,36.548768613148994,35.647661595966277,34.74655457878427,33.817250724066369,32.864876244965359,31.912501765865077,30.960127286765516,30.007752807666684,29.0326305298502,28.040694287738734,27.04875804562807,26.056821803518151,25.064885561409032,24.054794864879753,23.032600912740872,22.010406960602758,20.988213008465472,19.966019056328996,18.929480130062373,17.884334002373581,16.839187874685631,15.794041746998547,14.748895619312252,13.692517057137543,12.630090097669141,11.56766313820161,10.505236178734958,9.4428092192691171,8.3716583300608125,7.2963069080739755,6.2209554860880782,5.1456040641030913,4.0702526421190344,2.9881729579817349,1.9032096420704359,0.81824632616007009,-0.26671698974930613,-1.3516803056577553,-2.441803214567948,-3.5338832777457991,-4.6259633409226666,-5.7180434040985029,-6.8101234672733586,-7.9061446325168552,-9.0034795481181877,-10.100814463718413,-11.19814937931762,-12.295484294915754,-13.395824618071961,-14.497037515560248,-15.598250413047444,-16.699463310533531,-17.800676208018476,-18.9041844964556,-20.008266659750149,-21.112348823043597,-22.21643098633584,-23.32051314962694,-24.426359565466072,-25.532580236906437,-26.638800908345562,-27.745021579783497,-28.851242251220171,-29.9588301130784,-31.066659259036829,-32.174488404993951,-33.2823175509498,-34.39014669690431,-35.499079878869026,-36.608170792188808,-37.71726170550739,-38.826352618824544,-39.935443532140368,-41.045383834953689,-42.155418523297122,-43.265453211639084,-44.375487899979547,-45.485522588318538,-46.596379079750534,-47.707302212262086,-48.818225344772188,-49.92914847728094,-51.040071609788249,-52.151617350842749,-53.263195866961219,-54.374774383078027,-55.486352899193193,-56.5979314153068,-57.710156829322123,-58.822398836732845,-59.934640844141782,-61.046882851549206,-62.159124858954861,0.10696230130272198,0.10696230130272198,0.10696230130272198,0.10696230130272198,0.10696230130272198,0.10696230130272198,0.10696230130272198,0.10696230130272198,0.10696230130272198,0.10696230130272198,0.10696230130272198,0.10696230130272198
DP 121,79.654400887146252,0.0019052013169753533,-102.21496336912607,-99.26215680146332,-96.309350233799478,-93.356543666134428,-90.4037370984683,-87.451759783523059,-84.532123638262561,-81.612487493001,-78.692851347738412,-75.773215202474759,-72.857016333705289,-70.006126368135781,-67.155236402565336,-64.304346436993939,-61.453456471421674,-58.610134680149727,-55.860154659064577,-53.110174637978439,-50.360194616891341,-47.610214595803271,-44.8732972634599,-42.253945364527169,-39.634593465593554,-37.015241566659014,-34.395889667723623,-31.796156976602855,-29.333760223734057,-26.871363470864402,-24.408966717993874,-21.946569965122492,-19.511102032666763,-17.2282324461327,-14.945362859597825,-12.662493273062097,-10.379623686525553,-8.1313910270550078,-6.0464486088545,-3.9615061906531874,-1.8765637724510711,0.20837864575184445,2.2509267612525732,4.1238956623632914,5.9968645634747979,7.8698334645870851,9.7428023657001486,11.56589972585061,13.21721523872127,14.868530751592708,16.519846264464913,18.171161777337865,19.765702281901429,21.189915614960011,22.61412894801936,24.038342281079462,25.462555614140332,26.823912440299019,28.019554496889878,29.215196553481494,30.410838610073846,31.606480666666947,32.734194189436948,33.703405659725,34.672617130013847,35.641828600303405,36.611040070593717,37.5083869546959,38.256474531261759,39.004562107828384,39.752649684395749,40.500737260963859,41.174226357248806,41.709173404112583,42.244120450977121,42.77906749784237,43.314014544708392,43.772840503814187,44.104796064639253,44.436751625464993,44.768707186291522,45.100662747118811,45.356144994293487,45.496915463903562,45.637685933514355,45.778456403125908,45.919226872738214,45.984260244862227,45.946824094794877,45.909387944728316,45.871951794662536,45.834515644597445,45.723051479792879,45.521107075371049,45.319162670949972,45.117218266529669,44.915273862110205,44.641849290254335,44.289418900414127,43.936988510574757,43.584558120736183,43.232127730898426,41.833624388943747,41.344708872118694,40.855793355294516,40.302412081661011,39.690703486462127,39.078994891264124,38.467286296067023,37.855577700870739,37.183568664742872,36.462221867914081,35.740875071086208,35.01952827425923,34.298181477433189,33.520948794207484,32.70240823279179,31.883867671377079,31.065327109963263,30.246786548550425,29.376896175047207,28.472771784544008,27.568647394041804,26.664523003540587,25.760398613040355,24.809470189909398,23.830458639365478,22.851447088822578,21.872435538280765,20.893423987739954,19.872068536087536,18.827911906545975,17.783755277005529,16.739598647466174,15.695442017927874,14.613237752408587,13.512713721965266,12.41218969152307,11.311665661082031,10.21114163064216,9.0766402165762159,7.9275766078743191,6.7785129991736071,5.62944939047413,4.4803857817758139,3.3011425126123273,2.1104513925678323,0.91976027252458,-0.270930847517381,-1.4616219675581192,-2.6790018160771818,-3.9052782437744451,-5.1315546714703482,-6.3578310991649509,-7.5841075268582063,-8.8339109239172462,-10.090545018377489,-11.347179112836356,-12.603813207293834,-13.860447301749891,-15.137789442172654,-16.420308838754277,-17.702828235334444,-18.985347631913143,-20.267867028490382,-21.568626880049251,-22.873256128009977,-24.177885375969151,-25.482514623926765,-26.787143871882865,-28.107892091348237,-29.4314850144413,-30.755077937532675,-32.078670860622481,-33.402263783710609,-34.740242087156354,-36.080275600334225,-37.42030911351042,-38.760342626684867,-40.100376139857623,-41.453313774685462,-42.807685336330046,-44.162056897972811,-45.516428459613621,-46.870800021252613,-48.237170305126234,-49.604513580977468,-50.971856856826953,-52.339200132674534,-53.706543408520496,-55.08503449322739,-56.464112415630424,-57.843190338031462,-59.222268260430411,-60.601346182827307,-61.991349387807361,-63.381632834150956,-64.771916280492462,-66.162199726831787,-67.55248317316898,0.13554613931398382,0.13554613931398382,0.13554613931398382,0.13554613931398382,0.13554613931398382,0.13554613931398382,0.13554613931398382,0.13554613931398382,0.13554613931398382,0.13554613931398382,0.13554613931398382,0.13554613931398382
DP 122,76.801559267105375,0.0019771452097729634,-103.6713882993873,-100.69874678724882,-97.7261052751092,-94.753463762968508,-91.780822250826674,-88.808994952756734,-85.8689223113786,-82.928849669999451,-79.988777028619154,-77.048704387237791,-74.1120105925651,-71.239515524124386,-68.367020455682692,-65.494525387240017,-62.622030318796376,-59.756980307236454,-56.983753602207656,-54.210526897177864,-51.437300192147141,-48.664073487115274,-45.903712400987423,-43.2591431010769,-40.614573801165378,-37.970004501253,-35.325435201339651,-32.70021657564066,-30.210454132685875,-27.720691689730145,-25.230929246773581,-22.741166803816068,-20.278011355555936,-17.965630553867591,-15.653249752178372,-13.340868950488275,-11.028488148797342,-8.75039807159361,-6.6339661190894388,-4.5175341665844417,-2.4011022140786027,-0.28467026157194192,1.7896949963370263,3.6957914877568081,5.6018879791774046,7.5079844705988137,9.4140809620210231,11.270563915963454,12.956153712127565,14.641743508292464,16.327333304458179,18.012923100624679,19.641874733068867,21.100909732943151,22.559944732818234,24.0189797326941,25.478014732570752,26.874153202071753,28.104471384198966,29.334789566326982,30.565107748455759,31.795425930585335,32.957549549893869,33.960550374010388,34.963551198127654,35.966552022245686,36.969552846364479,37.900154400543194,38.680386134611865,39.460617868681275,40.240849602751446,41.0210813368224,41.7258821715592,42.290595013299807,42.8553078550412,43.420020696783347,43.984733538526314,44.472175337131617,44.83083011617525,45.189484895219586,45.548139674264746,45.906794453310717,46.187503332449872,46.351291519845454,46.515079707241796,46.678867894638941,46.842656082036896,46.928919145101908,46.910293551066744,46.891667957032347,46.873042362998717,46.854416768965962,46.759680673496312,46.571919033148419,46.384157392801384,46.1963957524551,46.008634112109739,45.747044629618394,45.403854484062656,45.060664338507827,44.717474192953865,44.374284047400756,42.990626287771185,42.505800945283653,42.020975602796987,41.468925743545412,40.856052492147491,40.243179240750493,39.630305989354426,39.01743273795924,38.341364039682745,37.613588889721171,36.885813739760593,36.158038589800924,35.430263439842193,34.643618035722881,33.813458867314566,32.983299698907182,32.153140530500792,31.32298136209543,30.438445299836051,29.517657118380455,28.596868936925897,27.676080755472341,26.755292574019858,25.784673596695036,24.784155388237473,23.783637179780992,22.783118971325607,21.782600762871304,20.736750980519059,19.66649122994691,18.596231479375934,17.525971728806081,16.4557119782373,15.344489201007569,14.213542911405526,13.082596621804694,11.95165033220505,10.820704042606618,9.6529639733695,8.4694546446041077,7.285945315839939,6.1024359870770635,4.9189266583154021,3.7025405861201732,2.4736835964102881,1.2448266067016966,0.015969616994456551,-1.2128873727115048,-2.4709970827025969,-3.7388580681209529,-5.006719053537882,-6.2745800389534576,-7.5424410243676192,-8.836252673456725,-10.137598702693541,-11.438944731928897,-12.740290761162798,-14.041636790395248,-15.365973720561884,-16.696058647601419,-18.02614357463947,-19.356228501675943,-20.686313428710907,-22.036785321861732,-23.39158195655077,-24.746378591238127,-26.101175225923924,-27.455971860608091,-28.828908011164149,-30.205045454468742,-31.581182897771612,-32.957320341072808,-34.333457784372271,-35.725891651271262,-37.120653754723556,-38.515415858174116,-39.910177961622828,-41.304940065069829,-42.714422903046831,-44.125541532794209,-45.536660162539661,-46.947778792283138,-48.358897422024668,-49.78377168968084,-51.2097614198903,-52.635751150097882,-54.06174088030366,-55.487730610507583,-56.926576900341765,-58.366099979124449,-59.80562305790496,-61.245146136683289,-62.684669215459479,-64.13682278007434,-65.589300325744148,-67.041777871411753,-68.494255417077113,-69.946732962740185,0.14176292300550741,0.14176292300550741,0.14176292300550741,0.14176292300550741,0.14176292300550741,0.14176292300550741,0.14176292300550741,0.14176292300550741,0.14176292300550741,0.14176292300550741,0.14176292300550741,0.14176292300550741
DP 123,116.38193555214211,0.0039494950303320051,-262.501859015417,-254.25558535262979,-246.0093116898405,-237.76303802704891,-229.51676436425521,-221.27353472890783,-213.14902331495767,-205.02451190100544,-196.90000048705107,-188.77548907309443,-180.66347860824177,-172.78898853960985,-164.91449847097633,-157.04000840234062,-149.16551833370332,-141.318267742167,-133.80697413451344,-126.29568052685788,-118.78438691920029,-111.27309331154085,-103.80811964701466,-96.760029848921519,-89.711940050826726,-82.6638502527301,-75.6157604546316,-68.635988579941625,-62.134447335113705,-55.632906090283932,-49.131364845452488,-42.629823600619318,-36.220013881345928,-30.330021920632948,-24.440029959918327,-18.550037999202004,-12.660046038484007,-6.8850697516892794,-1.6523164256335729,3.5804369004237779,8.8131902264827442,14.045943552543324,19.14193602514603,23.690878620516607,28.239821215888806,32.788763811262562,37.337706406637892,41.730865746430631,45.587431772629984,49.443997798830821,53.300563825033223,57.157129851237151,60.842505283498809,64.014302461479218,67.186099639461119,70.3578968174445,73.529693995429369,76.519077475882625,79.027545847587319,81.536014219293563,84.044482591001213,86.552950962710483,88.8722081468181,90.749966598369411,92.6277250499221,94.505483501476348,96.383241953032169,98.069368660077046,99.357485401368535,100.64560214266136,101.93371888395563,103.2218356252515,104.31998397496447,105.06532875287256,105.81067353078214,106.55601830869314,107.30136308660569,107.86200615595959,108.11480838885893,108.36761062175974,108.62041285466208,108.87321508756574,108.94958665764334,108.76130806437541,108.57302947110911,108.38475087784421,108.19647228458085,107.84238273286691,107.26395702027557,106.68553130768572,106.10710559509732,105.52867988251052,104.79674296004774,103.87717800105862,102.95761304207109,102.03804808308503,101.11848312410066,100.05875644337669,98.84411138636365,97.629466329352127,96.41482127234211,95.200176215333869,90.924589341786685,89.457283126140425,87.989976910495756,86.410171894400477,84.728580223895619,83.0469885533924,81.365396882890934,79.68380521239105,77.903152697659337,76.0414486988583,74.179744700058961,72.318040701261467,70.456336702465634,68.508318270003556,66.496500793782459,64.4846833175633,62.472865841345786,60.4610483651302,58.374760062695124,56.238823369603651,54.102886676514053,51.96694998342641,49.831013290340586,47.63141289351568,45.3936133116381,43.155813729762457,40.918014147888861,38.680214566017177,36.388455263946042,34.067639943255834,31.746824622567722,29.426009301881617,27.105193981197427,24.73900599203871,22.350971267886166,19.96293654373585,17.574901819587684,15.186867095441739,12.76095667782706,10.318813308719887,7.8766699396149615,5.434526570512368,2.9923832014119762,0.51882837112147662,-1.9666415608665326,-4.4521114928521985,-6.9375814248354075,-9.4230513568163126,-11.934425716249464,-14.454435211300295,-16.974444706348546,-19.494454201394358,-22.014463696437602,-24.555741274559455,-27.103193716835356,-29.650646159108589,-32.198098601379264,-34.745551043647218,-37.310415091510187,-39.879632246490104,-42.448849401467328,-45.018066556441767,-47.587283711413384,-50.170749032494193,-52.757236855080912,-55.343724677664753,-57.930212500245631,-60.516700322823596,-63.1148685250692,-65.7150981006703,-68.315327676268311,-70.915557251863262,-73.515786827455145,-76.125724943036531,-78.737050097775082,-81.348375252510479,-83.959700407242678,-86.571025561971538,-89.190372714353359,-91.810611284054076,-94.430849853751383,-97.051088423445037,-99.671326993135366,-102.29871713415973,-104.92668720539469,-107.55465727662616,-110.18262734785439,-112.81059741907931,-115.44467895847926,-118.07908221490159,-120.71348547132021,-123.34788872773476,-125.98229198414565,-128.62257914389116,-131.26301722999025,-133.90345531608537,-136.54389340217671,-139.18433148826392,0.25521147860430626,0.25521147860430626,0.25521147860430626,0.25521147860430626,0.25521147860430626,0.25521147860430626,0.25521147860430626,0.25521147860430626,0.25521147860430626,0.25521147860430626,0.25521147860430626,0.25521147860430626
DP 124,64.759606163751741,0.0026208261293175507,-122.79970129786624,-119.39495642484671,-115.99021155182572,-112.58546667880319,-109.18072180577937,-105.77681043791262,-102.40540608636658,-99.034001734819086,-95.6625973832702,-92.291193031719928,-88.923261541019812,-85.621315063018358,-82.319368585015667,-79.01742210701164,-75.715475629006434,-72.4212090382918,-69.221662025392291,-66.022115012491355,-62.822567999589154,-59.623020986685638,-56.436814313600586,-53.370671959836884,-50.30452960607203,-47.238387252305948,-44.172244898538665,-41.126289508662616,-38.221644392508829,-35.316999276353869,-32.412354160197673,-29.507709044040364,-26.631024843404138,-23.912787592658425,-21.194550341911619,-18.476313091163647,-15.758075840414577,-13.076183068220526,-10.565630515117247,-8.0550779620128736,-5.5445254089074085,-3.03397285580086,-0.56844229357837373,1.7169981773396752,4.0024386482587877,6.2878791191789762,8.573319590100219,10.805084093942659,12.851962456282733,14.898840818623846,16.945719180966027,18.992597543309223,20.977463887068193,22.776291830493818,24.57511977392047,26.373947717348138,28.172775660776846,29.901841238637477,31.446985454901622,32.992129671166786,34.537273887432988,36.082418103700185,37.550858175571129,38.840319493795505,40.129780812020911,41.419242130247277,42.708703448474715,43.91550719192989,44.950635106891973,45.985763021855064,47.020890936819171,48.056018851784359,49.003652372854134,49.788793942383791,50.573935511914442,51.359077081446181,52.144218650978893,52.838220841618323,53.38032177020964,53.922422698801974,54.46452362739543,55.006624555989831,55.455165333272227,55.7633636727339,56.071562012196608,56.379760351660423,56.6879586911252,56.901382530148446,56.986579937234794,57.0717773443222,57.156974751410722,57.242172158500345,57.232533883346925,57.106983337902356,56.981432792458882,56.855882247016474,56.730331701575217,56.5109540813658,56.187870985120369,55.864787888876023,55.541704792632764,55.218621696390706,53.7900699468512,53.283265518978141,52.776461091106214,52.1805976715944,51.504155465750578,50.827713259907924,50.151271054066576,49.47482884822638,48.712824554289639,47.880813445106462,47.048802335924542,46.2167912267439,45.384780117564553,44.471260289951296,43.497493547966592,42.523726805983237,41.549960064001155,40.576193322020529,39.525387266765037,38.423220455686753,37.321053644609883,36.218886833534413,35.116720022460349,33.942265670725185,32.724437701362334,31.506609732000989,30.288781762641147,29.070953793282751,27.78574729683179,26.464259075225215,25.142770853620288,23.821282632016946,22.499794410415149,21.115878894729217,19.701904918826674,18.287930942925772,16.873956967026494,15.459982991128879,13.988473395466785,12.492304900145557,10.996136404825988,9.49996790950819,8.0037994141920468,6.4548365459018635,4.8858475374943042,3.3168585290885106,1.7478695206845611,0.1788805122823606,-1.4383883344359212,-3.0717510690532577,-4.7051138036686435,-6.3384765382821833,-7.9718392728937939,-9.6492615716824233,-11.339475894205755,-13.029690216727106,-14.719904539246484,-16.410118861763841,-18.140522015979656,-19.880972852954834,-21.621423689927948,-23.361874526898966,-25.102325363867859,-26.879492980253005,-28.664449425059157,-30.449405869863032,-32.234362314664772,-34.019318759464269,-35.837948379489241,-37.662520699002116,-39.487093018512539,-41.311665338020717,-43.136237657526465,-44.991963637816731,-46.852140477608543,-48.712317317398011,-50.572494157185034,-52.43267099696962,-54.321841225401513,-56.214233245956905,-58.106625266509653,-59.999017287059651,-61.891409307606978,-63.811497493027076,-65.733831596447686,-67.6561656998657,-69.578499803281218,-71.500833906694112,-73.449687479974088,-75.399937078680864,-77.3501866773846,-79.300436276085449,-81.250685874783244,-83.227271193484157,-85.2045320423648,-87.181792891242324,-89.159053740116818,-91.136314588988256,0.19408268437823636,0.19408268437823636,0.19408268437823636,0.19408268437823636,0.19408268437823636,0.19408268437823636,0.19408268437823636,0.19408268437823636,0.19408268437823636,0.19408268437823636,0.19408268437823636,0.19408268437823636
DP 125,195.78138156999583,0.0034077232309412857,-284.56917761798019,-274.33858981354717,-264.10800200911245,-253.87741420467603,-243.64682640023773,-233.42195995854129,-223.42022882699015,-213.41849769543742,-203.41676656388313,-193.41503543232704,-183.43644193980592,-173.89746796297271,-164.3584939861382,-154.81952000930218,-145.28054603246474,-135.79088936298552,-126.9094856996571,-118.02808203632706,-109.14667837299545,-100.26527470966238,-91.465189786887464,-83.396981215495842,-75.328772644102713,-67.260564072708277,-59.19235550131242,-51.239557219984754,-44.094639696115074,-36.949722172244137,-29.80480464837175,-22.659887124498031,-15.662931096035559,-9.5044328652375274,-3.3459346344381937,2.8125635963624513,8.9710618271644034,14.953697452625663,20.107257011339811,25.26081657005523,30.414376128771902,35.567935687489843,40.524608963788104,44.693727805446173,48.862846647105478,53.031965488766026,57.201084330427733,61.160375572389114,64.396918489537143,67.633461406686521,70.870004323836952,74.106547240988675,77.128622432862031,79.5072863402051,81.885950247549417,84.264614154894787,86.6432780622414,88.8105263959234,90.420399132401286,92.030271868880362,93.640144605360661,95.250017341842025,96.6580238828614,97.595002940928367,98.5319819989964,99.4689610570657,100.40594011513605,101.15557087609882,101.516088186646,101.87660549719436,102.23712280774379,102.59764011829445,102.78867379595631,102.6649475783147,102.54122136067413,102.41749514303471,102.29376892539639,102.02023366477187,101.49701288980482,100.97379211483906,100.45057133987413,99.927350564910654,99.274483176956721,98.427142805931666,97.579802434907933,96.7324620638851,95.885121692863464,94.9277370735407,93.821466612044361,92.7151961505491,91.60892568905507,90.502655227562144,89.304630822433978,87.994460781155212,86.684290739877582,85.374120698601146,84.063950657325861,82.678526050217926,81.20992384652746,79.741321642838173,78.27271943915018,76.80411723546338,72.094364056248111,70.504182995468156,68.914001934689409,67.275404478940715,65.593000841767761,63.910597204595994,62.228193567425556,60.545789930256355,58.825324491041194,57.073716923308126,55.322109355576266,53.570501787845743,51.818894220116505,50.037723393224852,48.234700975761072,46.431678558298671,44.628656140837549,42.825633723377834,40.999901587200434,39.15902928078723,37.318156974375405,35.477284667964966,33.63641236155599,31.77826907568366,29.909762940938528,28.041256806194855,26.172750671452675,24.304244536711924,22.422719707231487,20.534184622039387,18.645649536848875,16.757114451659891,14.868579366472376,12.970304632307428,11.06734030113906,9.1643759699723173,7.26141163880716,5.358447307643635,3.4482387916123076,1.5349255271061075,-0.37838773739845716,-2.2917010019012913,-4.2050142664025145,-6.1236962642678385,-8.0444147482299826,-9.9651332321903983,-11.885851716149011,-13.806570200105925,-15.7312655293953,-17.657286523913747,-19.583307518430281,-21.509328512945032,-23.435349507457904,-25.36432722059401,-27.294163371970544,-29.223999523345221,-31.153835674717932,-33.083671826088711,-35.015727275568224,-36.948337575794611,-38.880947876019007,-40.813558176241386,-42.74616847646174,-44.68047426822374,-46.615139729130462,-48.549805190035038,-50.484470650937467,-52.419136111837744,-54.355122667478639,-56.291342372174412,-58.22756207686794,-60.163781781559237,-62.1000014862482,-64.0373290345531,-65.974814858197135,-67.91230068183873,-69.84978650547805,-71.787272329115055,-73.725607654506774,-75.664037377901693,-77.602467101294138,-79.540896824683983,-81.479326548071242,-83.418689659937584,-85.35812846148653,-87.297567263033045,-89.237006064577088,-91.176444866118615,-93.116561178186757,-95.05671315544194,-96.9968651326942,-98.937017109943767,-100.87716908719035,-102.81808806314673,-104.75902671316959,-106.69996536318951,-108.64090401320642,-110.58184266322041,0.18636964643933118,0.18636964643933118,0.18636964643933118,0.18636964643933118,0.18636964643933118,0.18636964643933118,0.18636964643933118,0.18636964643933118,0.18636964643933118,0.18636964643933118,0.18636964643933118,0.18636964643933118
DP 126,207.60137072432812,0.0014219772351396656,-121.34092049478663,-116.90551299291516,-112.47010549104297,-108.03469798916996,-103.59929048729649,-99.166488411648629,-94.835298943909891,-90.504109476170441,-86.172920008430339,-81.8417305406895,-77.521055859899192,-73.400164118922191,-69.279272377944565,-65.158380636966356,-61.037488895987558,-56.938936608782441,-53.115907066863542,-49.2928775249441,-45.469847983023975,-41.64681844110325,-37.860457793743549,-34.404120663426639,-30.947783533109167,-27.491446402791084,-24.03510927247244,-20.630520307293928,-17.588172411137148,-14.54582451497984,-11.503476618821942,-8.4611287226635,-5.4846780455074668,-2.881649095155371,-0.27862014480272951,2.3244088055504486,4.9274377559041627,7.4527514289298935,9.611688882699692,11.77062633647002,13.929563790240859,16.088501244012225,18.16118885058485,19.888872992144211,21.616557133704067,23.344241275264459,25.07192541682533,26.708568704544618,28.031623004459348,29.354677304374551,30.677731604290283,32.000785904206445,33.23174687068677,34.186424354952031,35.141101839217775,36.095779323484,37.050456807750706,37.91535381624832,38.543553757298895,39.171753698349939,39.799953639401458,40.428153580453454,40.9716286028864,41.317409479109592,41.663190355333256,42.008971231557389,42.35475210778197,42.622864410785368,42.729662802845681,42.8364611949065,42.943259586967713,43.050057979029411,43.087490340217727,42.996098199339421,42.904706058461542,42.813313917584182,42.721921776707269,42.570026766105954,42.317292114284179,42.064557462462894,41.811822810642056,41.559088158821687,41.254707168050444,40.872855448435431,40.491003728820949,40.109152009206866,39.727300289593295,39.302224951137276,38.818669637648583,38.335114324160322,37.851559010672545,37.368003697185259,36.848925248468817,36.286428888319818,35.723932528171311,35.161436168023222,34.598939807875652,34.00773415468008,33.384796606297918,32.761859057916254,32.138921509535081,31.515983961154408,29.53294096398109,28.864311188411904,28.195681412843228,27.509130147946923,26.806363879571602,26.103597611196815,25.400831342822531,24.698065074448738,23.981425055128351,23.253433546604136,22.525442038080442,21.797450529557263,21.0694590210346,20.330857190545323,19.584412773750486,18.837968356956225,18.0915239401625,17.345079523369346,16.59061026802269,15.830790993887829,15.070971719753544,14.31115244561984,13.551333171486688,12.78550466817282,12.016070536470943,11.246636404769644,10.477202273068979,9.7077681413688826,8.9338729288561147,8.1575755310342881,7.3812781332131188,6.6049807353925631,5.828683337572623,5.0490975060690877,4.2679283085958062,3.4867591111231953,2.705589913651234,1.9244207161799414,1.1408394741936152,0.35622446627427284,-0.42839054164440038,-1.2130055495623657,-1.9976205574796706,-2.7840009694876224,-3.571051040545774,-4.3581011116032222,-5.1451511826599363,-5.9322012537159514,-6.7205458380605361,-7.5093219431486515,-8.29809804823599,-9.0868741533226043,-9.8756502584084451,-10.665382528960803,-11.455392407599982,-12.245402286238376,-13.035412164875982,-13.825422043512786,-14.616148600923854,-15.407054336495456,-16.197960072066248,-16.988865807636223,-17.779771543205353,-18.57122789821242,-19.362801057589881,-20.154374216966453,-20.945947376342168,-21.737520535716992,-22.529527918692391,-23.321611934189882,-24.113695949686452,-24.905779965182095,-25.697863980676804,-26.490322438179838,-27.282834391442407,-28.075346344704041,-28.867858297964695,-29.660370251224361,-30.453171238958848,-31.246004344669519,-32.038837450379162,-32.831670556087737,-33.624503661795238,-34.417674006306818,-35.210871697950417,-36.004069389592978,-36.797267081234509,-37.590464772875109,-38.3839046977306,-39.177357374111686,-39.970810050491622,-40.764262726870371,-41.55771540324799,-42.351451709426193,-43.145195290911786,-43.938938872396228,-44.732682453879463,-45.526426035361489,0.076175186156658678,0.076175186156658678,0.076175186156658678,0.076175186156658678,0.076175186156658678,0.076175186156658678,0.076175186156658678,0.076175186156658678,0.076175186156658678,0.076175186156658678,0.076175186156658678,0.076175186156658678
DP 54,117.77885854083407,0.0053835111610941273,-359.98230192695451,-348.64165780765074,-337.30101368834352,-325.96036956903367,-314.61972544972065,-303.28330542002311,-292.111626482524,-280.93994754502205,-269.76826860751726,-258.59658967000973,-247.44225397355902,-236.61744313585604,-225.79263229815038,-214.96782146044245,-204.14301062273157,-193.35597435735556,-183.03482924480124,-172.71368413224428,-162.39253901968468,-152.07139390712246,-141.81444842290361,-132.13530566202624,-122.4561629011463,-112.77702014026389,-103.09787737937907,-93.513358194800546,-84.591211199525219,-75.669064204247633,-66.74691720896746,-57.824770213685063,-49.029572701870364,-40.953763595992037,-32.877954490111421,-24.802145384228528,-16.72633627834335,-8.80954340140474,-1.6424070497365733,5.5247293019338315,12.69186565360644,19.859002005281241,26.837258738329371,33.059988070306,39.282717402284746,45.505446734265711,51.728176066248771,57.736015157324587,63.003667724527439,68.271320291732465,73.538972858939474,78.806625426148614,83.838445724163165,88.162760298136646,92.48707487211216,96.811389446089734,101.13570402006927,105.20908338312566,108.62089765604335,112.03271192896304,115.4445262018847,118.85634047480839,122.00826430351516,124.55376890733427,127.09927351115543,129.64477811497838,132.19028271880353,134.47299758759644,136.2099107484957,137.94682390939707,139.68373707030037,141.42065023120574,142.89749562318835,143.89135099234252,144.88520636149892,145.87906173065747,146.87291709981773,147.6143643139778,147.93512490769652,148.2558855014172,148.57664609514003,148.89740668886483,148.97750730567228,148.69661227024147,148.41571723481275,148.13482219938604,147.85392716396115,147.3472917402645,146.535237829556,145.72318391884971,144.91113000814542,144.09907609744315,143.07843985725637,141.8028652776033,140.52729069795225,139.25171611830331,137.97614153865663,136.51051023286325,134.83481244777698,133.159114662693,131.48341687761129,129.80771909253147,123.92590200456695,121.90831408009008,119.89072615561534,117.72123445012805,115.41430325551305,113.10737206090013,110.80044086628965,108.49350967168134,106.053110304702,103.50350741204544,100.95390451939112,98.404301626739382,95.854698734089823,93.189058874597848,90.437650653885242,87.6862424331752,84.934834212467351,82.183425991762277,79.332128135351965,76.414235614859692,73.4963430943699,70.578450573882733,67.66055805339812,64.657466268115115,61.6032536354538,58.549041002795143,55.494828370139288,52.440615737485992,49.314357350649608,46.149304048509116,42.984250746371458,39.819197444236544,36.6541441421043,33.428651476122951,30.174057529357544,26.919463582595135,23.664869635835629,20.41027568907916,17.105347590676079,13.778847033335275,10.452346475997498,7.1258459186629048,3.7993453613312975,0.43119986394569865,-2.9527425329513708,-6.3366849298452621,-9.7206273267358174,-13.10456972362323,-16.522774251666682,-19.952399921892379,-23.382025592114552,-26.811651262333445,-30.241276932548821,-33.6989655853421,-37.164801897919006,-40.630638210492371,-44.096474523062142,-47.562310835628331,-51.05106698393292,-54.54555336197005,-58.040039740003479,-61.534526118033121,-65.029012496059011,-68.542210388590078,-72.059377604635173,-75.576544820676219,-79.093712036713328,-82.610879252746486,-86.143349598926321,-89.678520667654524,-93.21369173637828,-96.748862805098085,-100.28403387381363,-103.831898611841,-107.38157686831698,-110.93125512478889,-114.48093338125618,-118.0306116377193,-121.59074941953854,-125.15204948068687,-128.71334954183067,-132.27464960296942,-135.83594966410357,-139.40657049248233,-142.97794715398589,-146.54932381548463,-150.12070047697921,-153.692077138469,-157.27139189792959,-160.85112453099578,-164.43085716405682,-168.0105897971124,-171.59032243016279,-175.17769891094594,-178.76527146192242,-182.35284401289371,-185.94041656385934,-189.52798911481955,0.34668541370635897,0.34668541370635897,0.34668541370635897,0.34668541370635897,0.34668541370635897,0.34668541370635897,0.34668541370635897,0.34668541370635897,0.34668541370635897,0.34668541370635897,0.34668541370635897,0.34668541370635897
DP 55,127.131518666717,0.0015448894310770447,-107.27688237687215,-103.83436432388915,-100.39184627090526,-96.9493282179206,-93.506810164935,-90.065651774816061,-86.677520750597452,-83.289389726378033,-79.9012587021578,-76.513127677936779,-73.130567373871557,-69.853851805885583,-66.5771362378989,-63.300420669911482,-60.023705101923319,-56.759090861806769,-53.64372785722518,-50.528364852642852,-47.413001848059764,-44.297638843475916,-41.202767827171435,-38.292326642315238,-35.381885457458324,-32.471444272600714,-29.561003087742421,-26.680626409544555,-24.010703551359533,-21.340780693173851,-18.670857834987508,-16.000934976800469,-13.37112485477201,-10.968622765313508,-8.5661206758543535,-6.163618586394553,-3.7611164969341018,-1.4085399310706501,0.708670755536761,2.825881442144806,4.9430921287534781,7.0603028153627747,9.118641547778596,10.941489681096659,12.764337814415317,14.587185947734609,16.4100340810545,18.166438521988397,19.693978564554122,21.221518607120441,22.749058649687356,24.276598692254858,25.731857539849319,26.970270069683203,28.208682599517704,29.44709512935281,30.685507659188485,31.847735510564814,32.809110227434317,33.770484944304407,34.731859661175044,35.693234378046256,36.576501097160104,37.277513360554082,37.978525623948656,38.67953788734377,39.38055015073946,40.003425876627333,40.464015752135829,40.9246056276449,41.385195503154513,41.845785378664772,42.229915201623754,42.472045719247333,42.714176236871481,42.956306754496211,43.198437272121488,43.367230226033818,43.413792058571495,43.46035389110969,43.506915723648504,43.553477556187843,43.530968235495649,43.404850552785405,43.27873287007575,43.152615187366671,43.02649750465816,42.836407965147444,42.559766843682667,42.283125722218486,42.006484600754924,41.729843479291915,41.394862505624459,40.98857604274108,40.582289579858227,40.176003116975991,39.769716654094381,39.310982956488296,38.79428021895086,38.277577481413992,37.760874743877793,37.244172006342204,35.461430760119839,34.851674633230566,34.241918506341868,33.591397358041085,32.903992837385644,32.216588316730878,31.529183796076754,30.84177927542326,30.119068552700277,29.367470330615074,28.615872108530468,27.864273886446551,27.11267566436328,26.33082821007002,25.526622130371063,24.722416050672862,23.918209970975344,23.114003891278493,22.284141766631944,21.437175207846273,20.59020864906131,19.743242090277057,18.896275531493551,18.027752946296019,17.146296419250486,16.264839892205725,15.383383365161754,14.501926838118496,13.602517335070834,12.693440583877283,11.784363832684551,10.875287081492576,9.9662103303013527,9.0423021107920789,8.1112526062580645,7.1802031017248895,6.2491535971925387,5.3181040926610361,4.3748920548902737,3.4264673386438607,2.4780426223982963,1.5296179061536264,0.58119318990979663,-0.37713977905945473,-1.3392311799638039,-2.3013225808672577,-3.2634139817697787,-4.2255053826714146,-5.1956232638403419,-6.1684167395872773,-7.1412102153332189,-8.1140036910782349,-9.086797166822274,-10.066064326218541,-11.047211021113027,-12.028357716006518,-13.009504410898996,-13.990651105790468,-14.977005024153955,-15.964660809908636,-16.952316595662296,-17.939972381414886,-18.927628167166418,-19.919472054561972,-20.912204375137314,-21.904936695711555,-22.897669016284709,-23.890401336856716,-24.886508685104488,-25.883211664001294,-26.879914642896907,-27.876617621791368,-28.873320600684632,-29.87278884152644,-30.872652149659885,-31.872515457792158,-32.872378765923166,-33.872242074053013,-34.874344449633419,-35.87669563400037,-36.879046818366021,-37.881398002730279,-38.883749187093208,-39.888096113056179,-40.892604876297931,-41.897113639538389,-42.901622402777605,-43.906131166015527,-44.912301339923744,-45.918558973027721,-46.924816606130214,-47.931074239231229,-48.937331872330759,-49.945194732841564,-50.953098768589911,-51.961002804336765,-52.968906840082141,-53.976810875825912,0.097278202173807241,0.097278202173807241,0.097278202173807241,0.097278202173807241,0.097278202173807241,0.097278202173807241,0.097278202173807241,0.097278202173807241,0.097278202173807241,0.097278202173807241,0.097278202173807241,0.097278202173807241
DP 56,187.31491531180265,0.0024873868883960623,-204.25215211975581,-196.9991479820568,-189.74614384435654,-182.493139706655,-175.24013556895238,-167.99104082631547,-160.89441396938818,-153.79778711245942,-146.7011602555294,-139.60453339859833,-132.52374115445042,-125.74380954662374,-118.96387793879609,-112.18394633096723,-105.40401472313722,-98.657913896240885,-92.329063631174975,-86.000213366107943,-79.671363101039688,-73.3425128359704,-67.069625046831916,-61.300404830722059,-55.531184614611206,-49.7619643984993,-43.9927441823864,-38.303272229734723,-33.172044151637273,-28.0408160735388,-22.909587995439331,-17.778359917338854,-12.749871301941237,-8.3035794492330854,-3.8572875965239755,0.58900425618610641,5.0352961088971542,9.3587891807148758,13.103367081412658,16.847944982111414,20.592522882811089,24.337100783511687,27.943332190598397,30.996171084892932,34.049009979188376,37.101848873484727,40.154687767781965,43.059063155665328,45.452058006814042,47.845052857963672,50.238047709114191,52.631042560265584,54.871148471591418,56.652581782944388,58.434015094298353,60.215448405653113,61.996881717008762,63.626388462054258,64.855356310364812,66.084324158676111,67.313292006988334,68.542259855301353,69.624925496842337,70.366214713031326,71.10750392922111,71.848793145411747,72.59008236160328,73.194374150246475,73.514128835780966,73.833883521316352,74.15363820685252,74.473392892389555,74.668054174583531,74.630395758006145,74.592737341429441,74.555078924853674,74.517420508278761,74.368117150576168,74.03273607691267,73.6973550032501,73.361973929588231,73.026592855927319,72.593624409776908,72.014272598875735,71.434920787975372,70.8555689770758,70.276217166177133,69.61317976330217,68.836918815975721,68.060657868650068,67.284396921325339,66.50813597400132,65.661362160255919,64.728404473116385,63.795446785977759,62.862489098840072,61.929531411703131,60.938117140439694,59.882091797166652,58.8260664538945,57.77004111062319,56.714015767352748,53.307246493771473,52.15574367250349,51.0042408512364,49.814292198934154,48.589558531134983,47.36482486333675,46.140091195539469,44.915357527743055,43.660059102139691,42.37975262214637,41.099446142153923,39.819139662162527,38.53883318217202,37.234516086357829,35.912451618933318,34.590387151509795,33.268322684087231,31.946258216665729,30.605538302478134,29.2523811298913,27.8992239573055,26.546066784720754,25.192909612137029,23.825402446843409,22.449285068903972,21.073167690965597,19.697050313028349,18.320932935092156,16.933876094800656,15.540928615701437,14.147981136603406,12.755033657506482,11.362086178410651,9.9608638936845129,8.5556573274120087,7.1504507611407178,5.745244194870601,4.3400376286016984,2.9286111497927134,1.5145189101940821,0.10042667059666081,-1.3136655689994785,-2.727757808594423,-4.1465047730296352,-5.5670173834337406,-6.9875299938365885,-8.4080426042380783,-9.8285552146383228,-11.252544919072772,-12.677693698672238,-14.102842478270276,-15.527991257867019,-16.953140037462337,-18.380890508886583,-19.809396341926526,-21.237902174965047,-22.666408008002144,-24.094913841037773,-25.525379052124162,-26.956334130872321,-28.387289209619041,-29.818244288364234,-31.249199367107916,-32.68165013578848,-34.114418189166429,-35.547186242542743,-36.979954295917551,-38.412722349290746,-39.846650009094411,-41.280782318220595,-42.714914627345081,-44.149046936467954,-45.583179245589093,-47.01826868035495,-48.453494857693428,-49.888721035030258,-51.3239472123653,-52.759173389698638,-54.195132012435245,-55.631172025685139,-57.06721203893315,-58.503252052179185,-59.939292065423352,-61.376103576054412,-62.8129776484095,-64.249851720762734,-65.6867257931142,-67.123599865463845,-68.561039641618,-69.998509197283113,-71.4359787529461,-72.873448308607067,-74.310917864265789,-75.7490114034301,-77.187120948218492,-78.62523049300475,-80.063340037788947,-81.501449582570856,0.13814577648599302,0.13814577648599302,0.13814577648599302,0.13814577648599302,0.13814577648599302,0.13814577648599302,0.13814577648599302,0.13814577648599302,0.13814577648599302,0.13814577648599302,0.13814577648599302,0.13814577648599302
DP 57,192.30897352443517,0.0026978184373469957,-223.77111937935013,-215.76654216070426,-207.76196494205703,-199.75738772340884,-191.75281050475888,-183.75264342122344,-175.92447327460894,-168.09630312799277,-160.26813298137535,-152.43996283475667,-144.6296389910344,-137.1583982760794,-129.68715756112334,-122.21591684616598,-114.74467613120744,-107.31151026536682,-100.34793900383721,-93.384367742306452,-86.4207964807744,-79.457225219241067,-72.556518042536069,-66.221593571283961,-59.886669100030758,-53.551744628776454,-47.216820157521042,-40.97126394345365,-35.35129228746257,-29.731320631470432,-24.111348975477195,-18.491377319482883,-12.986209189801802,-8.1316016101422388,-3.2769940304816325,1.577613549180015,6.432221128842702,11.150064494461917,15.223154892665084,19.296245290869273,23.369335689074475,27.442426087280658,31.36200672833824,34.6675410858402,37.973075443343085,41.278609800846965,44.584144158351833,47.725615018904755,50.301971386634477,52.878327754365166,55.4546841220968,58.031040489829415,60.43918948790094,62.3427100173272,64.246230546754447,66.14975107618254,68.053271605611656,69.790433656026252,71.089008543804866,72.38758343158446,73.686158319364921,74.984733207146277,76.123910276101029,76.89115407897242,77.658397881844579,78.425641684717846,79.19288548759188,79.811654971384883,80.12205039740607,80.432445823428154,80.742841249451061,81.053236675474892,81.228802406712873,81.153966492132454,81.079130577552917,81.0042946629742,80.929458748396527,80.734974079101789,80.3410718027893,79.947169526477666,79.55326725016711,79.159364973857265,78.661493910624813,78.007667210197,77.35384050976991,76.700013809343815,76.046187108918559,75.303741281657452,74.44139701776443,73.57905275387229,72.716708489981045,71.854364226090809,70.917812471880836,69.89056111524151,68.863309758603009,67.836058401965474,66.808807045328962,65.720425205864316,64.564476879458937,63.408528553054595,62.252580226651133,61.096631900248688,57.380782378066421,56.125632046943608,54.870481715821867,53.575647045657178,52.244906782833375,50.914166520010518,49.5834262571887,48.252685994367845,46.890605133157791,45.502881425566315,44.115157717975862,42.727434010386467,41.339710302798068,39.927531109208218,38.497275719607181,37.06702033000726,35.636764940408355,34.20650955081058,32.75738064224349,31.295669090373018,29.833957538503643,28.372245986635388,26.910534434768255,25.43440267823814,23.949618580828592,22.464834483420194,20.980050386013016,19.49526628860697,17.999562390004776,16.497978439658823,14.99639448931414,13.494810538970663,11.993226588628366,10.483436583057257,8.969695398947712,7.4559542148394691,5.9422130307324936,4.4284718466268158,2.9086010047926725,1.3861030840211968,-0.13639483674897704,-1.6588927575177737,-3.1813906782852834,-4.70844916887845,-6.237237590241862,-7.7660260116038939,-9.2948144329645022,-10.823602854323747,-12.3557807940831,-13.889088616025656,-15.42239643796672,-16.955704259906323,-18.489012081844443,-20.02484615677848,-21.561413690811381,-23.097981224842759,-24.634548758872565,-26.171116292900884,-27.709582165256812,-29.24852264462255,-30.787463123986708,-32.326403603349171,-33.865344082710067,-35.405733971281315,-36.946431326895805,-38.487128682508491,-40.027826038119564,-41.568523393728931,-43.110347332244636,-44.652370092034872,-46.194392851823252,-47.736415611609864,-49.278438371394692,-50.821399353236906,-52.364494376935014,-53.907589400631352,-55.450684424325743,-56.993779448018287,-58.537593019772935,-60.081486437745738,-61.625379855716517,-63.169273273685207,-64.713166691651878,-66.257836039051512,-67.8025683075755,-69.347300576097439,-70.892032844617532,-72.436765113135692,-73.982062736531063,-75.527390121069374,-77.072717505605326,-78.618044890139046,-80.163372274670479,-81.709332875962659,-83.255309719718412,-84.801286563471834,-86.347263407222869,-87.893240250971616,0.14847017264096141,0.14847017264096141,0.14847017264096141,0.14847017264096141,0.14847017264096141,0.14847017264096141,0.14847017264096141,0.14847017264096141,0.14847017264096141,0.14847017264096141,0.14847017264096141,0.14847017264096141
DP 58,159.56550205546307,0.0022720926307096025,-174.87033428764596,-168.92459709180795,-162.97885989596878,-157.03312270012839,-151.08738550428669,-145.14445884854595,-139.31114431940813,-133.47782979026917,-127.64451526112894,-121.8112007319877,-115.98932723258393,-110.38483546105682,-104.78034368952866,-99.175851917999466,-93.57136014646926,-87.991500759488559,-82.715443886341887,-77.439387013194136,-72.16333014004536,-66.887273266895434,-61.652400751426406,-56.788191347889054,-51.923981944350558,-47.059772540811217,-42.195563137270845,-37.390833516456688,-33.0024668724106,-28.6141002283636,-24.225733584315631,-19.8373669402667,-15.526866842107594,-11.657615410685823,-7.7883639792631545,-3.9191125478395636,-0.049861116415062016,3.7245812331477479,7.0520613616650367,10.379541490183222,13.707021618702294,17.034501747222222,20.252920393511356,23.035087956567043,25.817255519623583,28.599423082680982,31.381590645739198,34.044002307928132,36.293916391802917,38.543830475678554,40.793744559555059,43.043658643432295,45.1671328140546,46.911282464412551,48.655432114771315,50.3995817651309,52.14373141549131,53.758832790146279,55.033711547835644,56.308590305525847,57.583469063216832,58.858347820908662,60.005379187730263,60.854095947760875,61.70281270779234,62.551529467824558,63.400246227857657,64.12561668580679,64.594802775171658,65.063988864537308,65.533174953903739,66.002361043270966,66.355347299684283,66.492530728228772,66.6297141567742,66.766897585320237,66.904081013867213,66.934137157199146,66.785645124961562,66.637153092724887,66.488661060488951,66.340169028253825,66.094843670308222,65.704266035598152,65.3136884008889,64.923110766180471,64.532533131472846,64.055997690928379,63.463164483703864,62.870331276480215,62.277498069257291,61.684664862035213,61.016791010361743,60.257199239264366,59.497607468167814,58.738015697072129,57.978423925977154,57.154325647351591,56.25892941888128,55.363533190411808,54.468136961943088,53.572740733475328,50.613236858960711,49.608514348178943,48.603791837398028,47.553360776215449,46.461573536969958,45.369786297725362,44.277999058481754,43.186211819238885,42.056673739408609,40.89624795941593,39.735822179424105,38.575396399433259,37.414970619443295,36.223723336447634,35.0096944358772,33.795665535307748,32.581636634739219,31.367607734171671,30.128682577817735,28.873159525403018,27.617636472989297,26.362113420576584,25.106590368164859,23.8311551635028,22.543772366351995,21.256389569202234,19.969006772053561,18.6816239749059,17.378459155967885,16.066796095799532,14.755133035632285,13.443469975466126,12.131806915300988,10.807737561100794,9.4776946323426756,8.1476517035857032,6.8176087748298748,5.4875658460752055,4.1478403608949606,2.8039650779322876,1.460089794970777,0.11621451201049897,-1.2276607709486258,-2.579047173950614,-3.9332827204107237,-5.2875182668696068,-6.6417538133272078,-7.9959893597835965,-9.3560251405938839,-10.717994405953883,-12.07996367131252,-13.441932936669881,-14.803902202025895,-16.170338773647138,-17.538072359635262,-18.90580594562201,-20.273539531607387,-21.641273117591378,-23.012447706945572,-24.384482587797105,-25.756517468647203,-27.128552349495848,-28.500587230343061,-29.875283597184893,-31.250544552153681,-32.625805507120916,-34.001066462086669,-35.376327417050881,-36.753659322658784,-38.131356713172949,-39.509054103685457,-40.88675149419641,-42.264448884705708,-43.643813271166387,-45.023415817911939,-46.4030183646558,-47.782620911398041,-49.162223458138584,-50.54311668704009,-51.92415333862408,-53.3051899902063,-54.6862266417866,-56.067263293365151,-57.449513487636331,-58.831862089660021,-60.2142106916819,-61.596559293702022,-62.978907895720475,-64.36219205342,-65.745525460198579,-67.1288588669752,-68.512192273749719,-69.895525680522269,-71.279809447631,-72.664117592164757,-74.0484257366964,-75.432733881225914,-76.817042025753324,0.13320316535788118,0.13320316535788118,0.13320316535788118,0.13320316535788118,0.13320316535788118,0.13320316535788118,0.13320316535788118,0.13320316535788118,0.13320316535788118,0.13320316535788118,0.13320316535788118,0.13320316535788118
DP 59,177.97888759478445,0.0014028419966075265,-112.91412231794256,-108.96058957029075,-105.00705682263835,-101.05352407498509,-97.099991327331139,-93.148501469697521,-89.276685095270366,-85.404868720842515,-81.53305234641401,-77.661235971984681,-73.797707774879257,-70.091656513757911,-66.385605252635884,-62.679553991513259,-58.97350273039001,-55.285204478943712,-51.815862250902349,-48.346520022860375,-44.877177794817726,-41.407835566774466,-37.967966456233455,-34.793358189053,-31.618749921871974,-28.44414165469037,-25.269533387508112,-22.137113750384533,-19.300017713849737,-16.46292167731438,-13.625825640778411,-10.788729604241903,-8.0062784288156124,-5.5334849097470311,-3.0606913906778952,-0.58789787160820617,1.8848956474620338,4.2919689113748838,6.3892145655694259,8.4864602197645,10.58370587396011,12.680951528156244,14.7036381170658,16.428084921123656,18.15253172518204,19.876978529240944,21.601425333300348,23.245243999826958,24.611340138822065,25.97743627781767,27.343532416813783,28.709628555810411,29.991999059142788,31.023189489944553,32.054379920746854,33.08557035154962,34.116760782352863,35.064007058832267,35.789943134094933,36.515879209358104,37.241815284621794,37.967751359885909,38.612083279491287,39.066002931453518,39.519922583416239,39.973842235379443,40.4277618873431,40.804503941154159,41.02095181575163,41.237399690349562,41.453847564947964,41.670295439546841,41.815536416779551,41.828534090173079,41.841531763567119,41.854529436961663,41.867527110356633,41.816284624455072,41.657973587178645,41.499662549902737,41.341351512627284,41.183040475352307,40.967949169578816,40.667686119323825,40.367423069069375,40.067160018815386,39.76689696856188,39.417381334777687,39.001228757296765,38.585076179816411,38.1689236023365,37.752771024857061,37.294628177771905,36.785163008064941,36.275697838358418,35.766232668652428,35.256767498946928,34.712071381616077,34.128435094790241,33.544798807964945,32.961162521140139,32.377526234315837,30.480990185758568,29.8391029135834,29.197215641408793,28.531579265128261,27.844455176601155,27.157331088074564,26.470206999548516,25.783082911023008,25.076838817608213,24.354950755239852,23.633062692872024,22.91117463050475,22.189286568138012,21.452186239208736,20.703841811015046,19.955497382821967,19.207152954629425,18.458808526437473,17.698492353214277,16.930194828040026,16.161897302866397,15.393599777693332,14.625302252520887,13.847677104317865,13.064455241231647,12.281233378146039,11.498011515061069,10.714789651976703,9.9243657793013824,9.1300637967324842,8.3357618141642345,7.5414598315966277,6.7471578490296338,5.9473393536921151,5.1448646823651645,4.3423900110389084,3.5399153397133265,2.7374406683884414,1.9307687245769811,1.1222978930244836,0.31382706147268041,-0.49464377007838806,-1.3031146016287691,-2.1147625885618568,-2.9276157448200788,-3.74046890107757,-4.5533220573342943,-5.3661752135903029,-6.1814262092946564,-6.9974765150341467,-7.8135268207728279,-8.62957712651074,-9.44562743224786,-10.263487125755072,-11.081872147456242,-11.900257169156594,-12.718642190856128,-13.537027212554834,-14.356782777256083,-15.17688099390039,-15.996979210543888,-16.8170774271865,-17.637175643828254,-18.458322071335161,-19.2796908586101,-20.1010596458841,-20.922428433157222,-21.743797220429411,-22.565976999494833,-23.388299903776613,-24.210622808057408,-25.032945712337259,-25.85526861661614,-26.678252180988608,-27.501330132510276,-28.324408084030967,-29.147486035550681,-29.97056398706939,-30.794147964316775,-31.617788171958573,-32.441428379599294,-33.265068587238872,-34.088708794877419,-34.912859170293643,-35.737050915877028,-36.561242661459332,-37.385434407040606,-38.209626152620828,-39.034197386990904,-39.858788598229737,-40.6833798094674,-41.507971020703785,-42.332562231938986,-43.157559745281795,-43.982567680564991,-44.807575615846936,-45.632583551127638,-46.4575914864071,0.07929119368022948,0.07929119368022948,0.07929119368022948,0.07929119368022948,0.07929119368022948,0.07929119368022948,0.07929119368022948,0.07929119368022948,0.07929119368022948,0.07929119368022948,0.07929119368022948,0.07929119368022948
DP 60,55.315602026499974,0.003869000986556727,-162.17405357868665,-157.80842991087226,-153.44280624305577,-149.07718257523717,-144.71155890741662,-140.34690317327244,-136.01999721854995,-131.69309126382538,-127.36618530909878,-123.03927935437025,-118.71642406513122,-114.47053218598064,-110.22464030682823,-105.97874842767405,-101.73285654851809,-97.495946863896961,-93.369818710569874,-89.243690557241,-85.1175624039101,-80.991434250577413,-76.88097654611822,-72.91155436272571,-68.942132179331509,-64.972709995935546,-61.003287812537863,-57.0576919744506,-53.27888235522181,-49.500072735991331,-45.721263116759125,-41.942453497525335,-38.196839869451068,-34.6393389497715,-31.081838030090275,-27.524337110407462,-23.966836190722983,-20.452776028472528,-17.1435103547432,-13.834244681012292,-10.524979007279788,-7.21571333354574,-3.9606785302621814,-0.92256977176709021,2.1155389867295451,5.15364774522772,8.1917565037274169,11.16465154901632,13.912918842542155,16.6611861360695,19.409453429598383,22.157720723128737,24.829928103073911,27.2739528665527,29.71797763003304,32.162002393514847,34.606027156998167,36.963596290737939,39.093233974466642,41.222871658196915,43.352509341928581,45.48214702566176,47.515657529980679,49.3248682536482,51.134078977317159,52.943289700987592,54.752500424659551,56.456875438024937,57.943511696386409,59.430147954749316,60.91678421311375,62.403420471479663,63.777664315873153,64.943176356186413,66.108688396501179,67.274200436817466,68.439712477135245,69.486563448289317,70.335642979909451,71.184722511531135,72.03380204315431,72.882881574779,73.608410461645747,74.14861046183907,74.688810462033857,75.229010462230193,75.769210462428092,76.182383061818456,76.423692234993169,76.665001408169587,76.906310581347441,77.147619754526971,77.259833510813763,77.2142612681777,77.16868902554323,77.1231167829105,77.07754454027932,76.902170349101013,76.583328263418153,76.264486177737012,75.945644092057577,75.626802006379847,74.024134300956931,73.446835147337922,72.869535993720518,72.164753261948547,71.3446259499628,70.524498637978922,69.704371325996973,68.884244014016758,67.9394157290524,66.892557232215438,65.84569873538031,64.798840238547228,63.75198174171593,62.584100550833142,61.326765814052322,60.06943107727345,58.8120963404966,57.554761603721751,56.180820828435,54.729140857185925,53.277460885938957,51.825780914694072,50.37410094345131,48.810813523633634,47.180559946790716,45.550306369949965,43.920052793111438,42.289799216275121,40.553359547248682,38.7597412075324,36.966122867818591,35.172504528107112,33.378886188397935,31.4847756440032,29.542278556815891,27.599781469631068,25.657284382448669,23.71478729526876,21.67761606865891,19.599868932480568,17.522121796304749,15.444374660131578,13.36662752396091,11.200012920923685,8.99968880978734,6.79936469865368,4.5990405875227776,2.398716476394525,0.11519341094744007,-2.1960636878112716,-4.5073207865670444,-6.818577885320023,-9.1298349840700936,-11.518877334643559,-13.930503448949979,-16.342129563253415,-18.753755677553858,-21.16538179185126,-23.649741768777247,-26.15228607071818,-28.654830372656011,-31.15737467459061,-33.659918976522029,-36.2306064126909,-38.81574923381195,-41.40089205492955,-43.986034876043888,-46.571177697154894,-49.220406234959214,-51.880944729524266,-54.541483224085738,-57.202021718643792,-59.862560213198158,-62.583834483430984,-65.313785949135848,-68.043737414837224,-70.77368888053465,-73.503640346228579,-76.291457548912575,-79.085704885650628,-81.879952222384745,-84.674199559114584,-87.468446895840628,-90.318972273910248,-93.17406131148654,-96.029150349058781,-98.884239386627328,-101.73932842419207,-104.64925940080509,-107.56207734091313,-110.47489528101667,-113.38771322111566,-116.30053116121007,-119.26828157678224,-122.23744104990325,-125.20660052301955,-128.17575999613132,-131.14491946923823,0.29324867011648076,0.29324867011648076,0.29324867011648076,0.29324867011648076,0.29324867011648076,0.29324867011648076,0.29324867011648076,0.29324867011648076,0.29324867011648076,0.29324867011648076,0.29324867011648076,0.29324867011648076
DP 61,190.56923969295289,0.0032499193467691112,-268.63519256926844,-259.0501275442241,-249.46506251917836,-239.879997494131,-230.29493246908214,-220.71510850917036,-211.33968807125348,-201.9642676333352,-192.5888471954151,-183.21342675749349,-173.85922148606295,-164.90810838856211,-155.95699529105977,-147.00588219355598,-138.05476909605096,-129.14894095787884,-120.80163302535327,-112.45432509282629,-104.10701716029773,-95.759709227767672,-87.487219388325812,-79.8880994585859,-72.28897952884455,-64.689859599101922,-57.090739669357859,-49.598071200845162,-42.850571010492438,-36.103070820138463,-29.355570629783138,-22.608070439426541,-15.997454430314292,-10.162524073893755,-4.3275937174719612,1.5073366389510887,7.3422669953753914,13.013939423390767,17.915958513856904,22.817977604324255,27.719996694792851,32.62201578526264,37.340551540145846,41.325145281152494,45.309739022160272,49.29433276316923,53.278926504179381,57.067143002961849,60.178940751045673,63.290738499130576,66.4025362472166,69.514333995303872,72.42448379681862,74.7296821346171,77.034880472416589,79.340078810217278,81.645277148019076,83.750715547028889,85.329507241391568,86.90829893575534,88.487090630120193,90.065882324486111,91.452937606357082,92.392601884691516,93.332266163026972,94.271930441363637,95.211594719701282,95.9723339696851,96.361454495488786,96.750575021293514,97.139695547099379,97.528816072906352,97.755143815127283,97.679137705729033,97.603131596331863,97.527125486935844,97.451119377540721,97.230362760947884,96.7683516504972,96.306340540047586,95.844329429598986,95.38231831915148,94.794268194947819,94.017156571772873,93.240044948599092,92.462933325426334,91.6858217022547,90.801052716156917,89.770627256477766,88.740201796799923,87.709776337123159,86.679350877447334,85.558580753313137,84.327387474956879,83.09619419660163,81.865000918247489,80.633807639894584,79.3280263715805,77.939804261701241,76.551582151823027,75.163360041945978,73.775137932070123,69.307190799730236,67.797656139441656,66.288121479154157,64.729946669624439,63.127763230300339,61.5255797909774,59.923396351655676,58.321212912335177,56.680527451580183,55.0083396752421,53.33615189890525,51.663964122569617,49.99177634623527,48.289474801442211,46.564914758851948,44.840354716263043,43.115794673675353,41.391234631089027,39.643379918331846,37.8799950584883,36.116610198646143,34.353225338805281,32.589840478965833,30.808615779109232,29.016686905444427,27.224758031780969,25.432829158118984,23.640900284458375,21.835430758741172,20.022669915782249,18.209909072824868,16.397148229868939,14.584387386914436,12.761427850576663,10.933557689426724,9.105687528278386,7.27781736713157,5.449947205986315,3.6144424351577911,1.7756655856615133,-0.063111263833185383,-1.9018881133262218,-3.740664962817704,-5.5851334927378549,-7.4317610101276719,-9.278388527515828,-11.125016044902251,-12.971643562287031,-14.822508578516635,-16.674786147764422,-18.527063717010378,-20.379341286254597,-22.231618855497015,-24.087058850808564,-25.943417008386017,-27.799775165961631,-29.656133323535375,-31.512491481107205,-33.371227714967034,-35.230558495994522,-37.0898892770201,-38.94922005804365,-40.808550839065333,-42.669696970568715,-44.531228197213707,-46.39275942385666,-48.25429065049758,-50.115821877136405,-51.978762715581162,-53.841952324723884,-55.70514193386439,-57.56833154300277,-59.431521152138913,-61.295880915629766,-63.16040785666695,-65.024934797701931,-66.889461738734624,-68.7539886797651,-70.61941136818325,-72.484933593494091,-74.35045581880253,-76.215978044108425,-78.08150026941189,-79.9479813694264,-81.814540225835287,-83.681099082241786,-85.54765793864587,-87.414216795047707,-89.2814758964686,-91.148771859855088,-93.01606782323887,-94.883363786619867,-96.75065974999815,-98.6187357394836,-100.48683173719773,-102.35492773490905,-104.22302373261753,-106.09111973032309,0.17942083937458139,0.17942083937458139,0.17942083937458139,0.17942083937458139,0.17942083937458139,0.17942083937458139,0.17942083937458139,0.17942083937458139,0.17942083937458139,0.17942083937458139,0.17942083937458139,0.17942083937458139
DP 62,243.79378919351285,0.0030211412927532112,-272.53623485926937,-262.0957036441788,-251.65517242908652,-241.21464121399308,-230.77410999889835,-220.340611121304,-210.18137606511274,-200.02214100891987,-189.86290595272584,-179.70367089653027,-169.57263822173462,-159.97745612501197,-150.38227402828829,-140.78709193156328,-131.19190983483696,-121.65605333027356,-112.85188660577111,-104.04771988126741,-95.2435531567625,-86.439386432256185,-77.731269083086445,-69.887605190660338,-62.043941298232916,-54.200277405804449,-46.356613513374761,-38.646184612301283,-31.868410725550053,-25.090636838797664,-18.312862952044121,-11.53508906528946,-4.923529172743339,0.74614094545631171,6.415811063657066,12.08548118185891,17.755151300061836,23.233368493947971,27.809011560991813,32.384654628036735,36.960297695082708,41.535940762129727,45.90463864686599,49.445546022009289,52.986453397153639,56.527360772299019,60.0682681474454,63.396962813588274,65.994693678233077,68.592424542878916,71.190155407525722,73.787886272173509,76.177550439099974,77.94300664618045,79.708462853261935,81.473919060344414,83.239375267427874,84.808629861805514,85.860618915340268,86.912607968875946,87.964597022412633,89.016586075950329,89.889813539098867,90.345924992422766,90.802036445747788,91.258147899073634,91.714259352400433,92.0124152747725,91.98250511588887,91.9525949570061,91.922684798124251,91.892774639243356,91.727088055683851,91.309241588080653,90.891395120478336,90.473548652877042,90.055702185276672,89.5240215184347,88.802614316926963,88.081207115420241,87.359799913914287,86.638392712409342,85.823692558657754,84.869050771997507,83.914408985338113,82.959767198679614,82.005125412022068,80.975598520576909,79.844754821895478,78.713911123214984,77.583067424535443,76.452223725856868,75.262406762921955,74.0005101271806,72.7386134914402,71.476716855700786,70.214820219962348,68.907289422412319,67.5493199589882,66.1913504955651,64.8333810321429,63.4754115687218,59.227772010031778,57.800309947872563,56.37284788571435,54.919320736978506,53.442210421586637,51.9651001061959,50.487989790806076,49.01087947541734,47.514480837740827,46.002300513983009,44.490120190226172,42.977939866470486,41.465759542715844,39.939481049365142,38.402781938039489,36.866082826715022,35.329383715391607,33.792684604069322,32.245793586635379,30.69210780456914,29.138422022504042,27.58473624044009,26.031050458377305,24.470065333532311,22.904700492627803,21.339335651724497,19.773970810822451,18.20860596992155,16.638051310918261,15.064702059007,13.491352807097055,11.918003555188346,10.344654303280837,8.767631475343622,7.1888398371363929,5.6100481989305075,4.03125656072593,2.4524649225226933,0.8710738953279068,-0.71143119081911121,-2.2939362769647866,-3.8764413631090391,-5.4589464492519681,-7.0433009807697049,-8.6283570501613571,-10.213413119551586,-11.798469188940336,-13.383525258327708,-14.96991553492021,-16.556750564061556,-18.143585593201344,-19.730420622339654,-21.317255651476433,-22.905077263555636,-24.493185314972141,-26.081293366387104,-27.669401417800458,-29.257509469212209,-30.846375072091938,-32.435430071787877,-34.024485071482189,-35.61354007117481,-37.2025950708658,-38.792262440673426,-40.382059714187065,-41.971856987698935,-43.5616542612091,-45.151451534717495,-46.741766286738539,-48.332172364250049,-49.92257844175964,-51.512984519267413,-53.103390596773373,-54.694294499916737,-56.285269526384418,-57.87624455285016,-59.467219579313941,-61.0581946057758,-62.649568070756828,-64.240985810866988,-65.832403550975087,-67.423821291080969,-69.015239031184848,-70.607199608933385,-72.199204206090272,-73.791208803245084,-75.383213400397921,-76.975217997548739,-78.5676082153489,-80.160018732807245,-81.752429250263262,-83.344839767716891,-84.937250285168275,-86.530145119646164,-88.123052377202185,-89.715959634755876,-91.308866892307122,-92.901774149855925,0.15266935690816144,0.15266935690816144,0.15266935690816144,0.15266935690816144,0.15266935690816144,0.15266935690816144,0.15266935690816144,0.15266935690816144,0.15266935690816144,0.15266935690816144,0.15266935690816144,0.15266935690816144
DP 63,53.941885120645388,0.0011647408983520718,-47.932900961716925,-46.648499436492308,-45.364097911267,-44.07969638604105,-42.79529486081455,-41.511173871295505,-40.237993880459889,-38.964813889623656,-37.691633898786847,-36.41845390794942,-35.146448144568836,-33.896752924859236,-32.647057705149066,-31.397362485438414,-30.14766726572719,-28.900577220169875,-27.685617984175749,-26.470658748181005,-25.255699512185782,-24.040740276189929,-22.830329260690924,-21.660852659571113,-20.491376058450786,-19.32189945732997,-18.152422856208617,-16.989866330906803,-15.875750859619865,-14.761635388332445,-13.647519917044507,-12.533404445756066,-11.428938370246277,-10.379152812199127,-9.3293672541515029,-8.2795816961033832,-7.2297961380547955,-6.1926512305764465,-5.2150986442505287,-4.237546057924142,-3.2599934715972805,-2.2824408852699523,-1.3206856642461351,-0.42212065103024526,0.47644436218610686,1.3750093754029196,2.2735743886201876,3.1531183606412205,3.9671446139227196,4.7811708672046711,5.5951971204870734,6.4092233737699278,7.2010342019460172,7.9261979148700235,8.65136162779449,9.3765253407194038,10.101689053644755,10.801562148710534,11.434759109237572,12.067956069765071,12.701153030292996,13.334349990821373,13.939380884438224,14.478690067831495,15.017999251225215,15.55730843461938,16.096617618013997,16.605155384931145,17.049782391918072,17.494409398905447,17.939036405893283,18.383663412881571,18.795238496386098,19.145430543676277,19.4956225909669,19.845814638257977,20.196006685549495,20.511233884884003,20.768185456312185,21.025137027740836,21.282088599169914,21.539040170599478,21.7595092118961,21.925253595900895,22.090997979906142,22.256742363911854,22.422486747918029,22.550639340702787,22.627931615195365,22.705223889688437,22.78251616418196,22.859808438676012,22.898808715398861,22.891006857201006,22.883204999003627,22.875403140806746,22.867601282610345,22.821205290551738,22.732151856232679,22.643098421914136,22.554044987596093,22.464991553278555,22.005227899021325,21.83913297854323,21.673038058065657,21.468843952890797,21.23017847086096,20.991512988831655,20.752847506802929,20.514182024774726,20.238147657435025,19.9315381053591,19.62492855328378,19.318319001209005,19.011709449134813,18.6687318869742,18.2988730238726,17.929014160771612,17.559155297671211,17.189296434571414,16.78429428428322,16.355862722239298,15.92743116019601,15.498999598153365,15.07056803611137,14.608398691669612,14.125986167559159,13.643573643449384,13.161161119340298,12.678748595231845,12.164136704319775,11.632186224587695,11.100235744856356,10.56828526512572,10.036334785395784,9.4738127473975133,8.8965706421361421,8.31932853687553,7.742086431615653,7.1648443263565156,6.5587042985758854,5.9401790566490282,5.3216538147229322,4.7031285727976346,4.0846033308730938,3.4388582957929419,2.7827881567102954,2.1267180176284533,1.4706478785474495,0.81457773946724288,0.13293282829530798,-0.55723732922061409,-1.2474074867356497,-1.9375776442498391,-2.6277478017631526,-3.3419168296447426,-4.0630535642001737,-4.7841902987547043,-5.5053270333083217,-6.2264637678610288,-6.9701248531496294,-7.7194172922496582,-8.4687097313487563,-9.2180021704468782,-9.9672946095440427,-10.737769680445917,-11.512738279572842,-12.287706878698726,-13.062675477823653,-13.83764407694752,-14.632608542821803,-15.431101913419496,-16.229595284016071,-17.028088654611629,-17.826582025206086,-18.644093194694218,-19.464321398032759,-20.284549601370223,-21.104777804706544,-21.925006008041755,-22.763414616392911,-23.603843460681496,-24.444272304968884,-25.284701149254982,-26.125129993539876,-26.983286790182188,-27.84288116951895,-28.702475548854476,-29.562069928188851,-30.421664307522061,-31.298576264772535,-32.176399845793696,-33.054223426813465,-33.932047007831912,-34.809870588848987,-35.705061833240258,-36.60069857070232,-37.496335308162955,-38.391972045622225,-39.287608783080017,0.0885514408468095,0.0885514408468095,0.0885514408468095,0.0885514408468095,0.0885514408468095,0.0885514408468095,0.0885514408468095,0.0885514408468095,0.0885514408468095,0.0885514408468095,0.0885514408468095,0.0885514408468095
DP 64,201.66374786775413,0.0036547518240968345,-308.5776851831248,-297.39089751586982,-286.2041098486128,-275.01732218135419,-263.83053451409364,-252.65015992818184,-241.71989793963402,-230.78963595108473,-219.85937396253362,-208.92911197398064,-198.02475830686672,-187.61266764490313,-177.200576982938,-166.78848632097129,-156.37639565900281,-146.01943772057106,-136.34245698739508,-126.66547625421741,-116.98849552103805,-107.31151478785704,-97.72523745906669,-88.955299343199258,-80.185361227330446,-71.415423111460228,-62.645484995588383,-54.003914066784937,-46.260923154201542,-38.517932241616727,-30.774941329030419,-23.031950416442669,-15.452980303131898,-8.8034717213544571,-2.1539631395756142,4.4955454422046213,11.145054023986242,17.600368972428274,23.140189160602269,28.680009348777634,34.219829536954329,39.759649725132363,45.083004407638839,49.54048683717231,53.997969266707138,58.455451696243287,62.912934125780666,67.140824482036,70.577888051958723,74.014951621882673,77.452015191807945,80.889078761734439,84.0926851342086,86.595911087668227,89.099137041128856,91.602362994590877,94.105588948054134,96.379951406168487,98.05093860111252,99.721925796057818,101.39291299100438,103.063900185952,104.51763751789524,105.4644516579266,106.41126579795896,107.35807993799278,108.30489407802767,109.05131972700678,109.38154806657811,109.7117764061508,110.04200474572465,110.3722330852996,110.52233933816008,110.3379282798809,110.15351722160284,109.9691061633261,109.78469510505043,109.44212725763485,108.83596077521054,108.22979429278735,107.62362781036538,107.01746132794457,106.27535888599813,105.3293492925585,104.38333969912004,103.43733010568259,102.49132051224656,101.43073887471074,100.21514545292725,98.999552031144958,97.7839586093639,96.568365187584163,95.25792927240802,93.831572762054648,92.405216251702484,90.978859741351641,89.55250323100195,88.048929649720918,86.4600093482226,84.871089046725544,83.282168745229782,81.693248443735314,76.616942940969508,74.904204566097945,73.191466191227676,71.429793231222916,69.623845241744164,67.817897252266647,66.01194926279058,64.206001273315792,62.361878907320829,60.486522304485391,58.61116570165111,56.735809098818365,54.860452495986976,52.955674325817839,51.029149296145661,49.102624266475004,47.1760992368057,45.249574207137876,43.300623596019555,41.336722243986394,39.372820891954738,37.408919539924554,35.44501818789589,33.4641937637525,31.473215240407079,29.4822367170632,27.491258193720892,25.500279670380092,23.496642136484539,21.486188028207284,19.475733919931731,17.465279811657805,15.454825703385442,13.434971337490193,11.410590789996244,9.3862102425040543,7.3618296950135553,5.337449147524775,3.3061259965856338,1.271827350422831,-0.76247129573823169,-2.7967699418974581,-4.8310685880549711,-6.8704797309161423,-8.9118301633173722,-10.953180595716765,-12.994531028114258,-15.035881460509939,-17.080998933819924,-19.127372134908711,-21.173745335995459,-23.22011853708031,-25.266491738163189,-27.315655551581969,-29.365629576809265,-31.415603602034547,-33.46557762725773,-35.515551652478884,-37.567617741238429,-39.620206870598906,-41.672795999957266,-43.725385129313409,-45.777974258667456,-47.832165145309617,-49.886695816999,-51.941226488686063,-53.995757160370886,-56.050287832053392,-58.106073029512373,-60.162079627821619,-62.218086226128442,-64.274092824432927,-66.330099422734961,-68.387172090290548,-70.444397064967745,-72.501622039642555,-74.558847014314736,-76.616071988984558,-78.674116538556831,-80.732252160612163,-82.790387782664808,-84.848523404714641,-86.906659026761815,-88.96572270019729,-91.024861630523532,-93.084000560847059,-95.143139491168085,-97.202278421486554,-99.262087182583059,-101.32193120459262,-103.38177522659916,-105.44161924860278,-107.50146327060327,-109.56207863138901,-111.62271377756691,-113.68334892374175,-115.74398406991358,-117.80461921608206,0.19780930328476362,0.19780930328476362,0.19780930328476362,0.19780930328476362,0.19780930328476362,0.19780930328476362,0.19780930328476362,0.19780930328476362,0.19780930328476362,0.19780930328476362,0.19780930328476362,0.19780930328476362
DP 65,80.8357218914135,0.003751039462759744,-203.09181017612852,-197.20701659748275,-191.32222301883468,-185.43742944018481,-179.55263586153259,-173.66951144640007,-167.85148503970652,-162.03345863301078,-156.2154322263128,-150.39740581961291,-144.58629721057761,-138.90662806496292,-133.22695891934649,-127.54728977372825,-121.86762062810814,-116.20317608039498,-110.72650349228587,-105.24983090417481,-99.773158316061853,-94.296485727946944,-88.846078985425649,-83.6320673359409,-78.418055686454451,-73.204044036966224,-67.990032387476333,-62.815447794602896,-57.91685557940869,-53.018263364212849,-48.119671149015225,-43.221078933815889,-38.376564604119785,-33.838495033285753,-29.300425462450068,-24.762355891612742,-20.224286320773789,-15.755712127066682,-11.614762750577947,-7.4738133740876034,-3.3328639975957022,0.80808537889777821,4.8640512440724866,8.580079047598284,12.296106851125632,16.012134654654513,19.728162458184944,23.34432246481288,26.616489197831473,29.88865593085157,33.160822663873212,36.432989396896296,39.591598467335125,42.409530256578435,45.227462045823231,48.045393835069476,50.863325624317191,53.555692399488173,55.917019821710269,58.278347243933879,60.639674666158847,63.001002088385277,65.22681575443292,67.136426386423835,69.046037018416186,70.955647650410043,72.86525828240535,74.63170849279453,76.100821356251714,77.569934219710333,79.039047083170388,80.508159946631878,81.82889436004892,82.874064787697264,83.9192352153471,84.964405642998457,86.0095760706512,86.9035815099745,87.545641491872146,88.187701473771412,88.829761455672141,89.4718214375743,89.96227325333227,90.2253092373306,90.4883452213303,90.75138120533164,91.014417189334324,91.127565707627724,91.037921968189,90.948278228751789,90.858634489316259,90.768990749882036,90.533109535979335,90.1184905593864,89.703871582794946,89.289252606205139,88.8746336296168,88.31907556745972,87.6077399219437,86.89640427642928,86.185068630916518,85.473732985405334,82.668256277692549,81.688332215971585,80.708408154252368,79.601875155647932,78.380788934677838,77.1597027137094,75.93861649274271,74.717530271777761,73.378258686754336,71.942287954590967,70.506317222429317,69.070346490269358,67.634375758111233,66.089102775099249,64.463039375131544,62.836975975165785,61.210912575201839,59.584849175239775,57.85857125845429,56.065482085056153,54.272392911659985,52.479303738265735,50.686214564873453,48.801984204934762,46.863067754706741,44.9241513044807,42.985234854256781,41.046318404034814,39.025131956625785,36.959645083616934,34.894158210610271,32.828671337605719,30.763184464603263,28.623945821963254,26.449196035262464,24.274446248563979,22.099696461867719,19.924946675173736,17.684491051069649,15.415874895136128,13.14725873920492,10.878642583276125,8.6100264273496272,6.283190376095046,3.9342701572338878,1.5853499383751615,-0.76357028048102882,-3.112490499334819,-5.5127673982797472,-7.9301638378251473,-10.347560277367874,-12.764956716908044,-15.182353156445584,-17.644905481866349,-20.120568131339258,-22.59623078080946,-25.07189343027693,-27.547556079741636,-30.062858917491408,-32.588072270664235,-35.113285623834294,-37.63849897700144,-40.163712330165694,-42.723747014484907,-45.291168440725428,-47.858589866962859,-50.426011293197277,-52.993432719428661,-55.591539961388548,-58.195062688528125,-60.798585415664434,-63.402108142797587,-66.005630869927487,-68.636464926288284,-71.271200896135781,-73.9059368659801,-76.540672835820942,-79.175408805658549,-81.8345735300298,-84.496452817016092,-87.158332103998816,-89.820211390977633,-92.482090677953039,-95.166639565961134,-97.853026761374778,-100.5394139567848,-103.22580115219137,-105.91218834759445,-108.61958475733468,-111.32808712422688,-114.03658949111514,-116.74509185799928,-119.45359422487917,-122.18266614467117,-124.91226568830346,-127.64186523193167,-130.37146477555555,-133.10106431917526,0.26601067942787038,0.26601067942787038,0.26601067942787038,0.26601067942787038,0.26601067942787038,0.26601067942787038,0.26601067942787038,0.26601067942787038,0.26601067942787038,0.26601067942787038,0.26601067942787038,0.26601067942787038
DP 66,76.087140339407412,0.0025616080386026388,-133.52238416093954,-129.70104582470341,-125.879707488466,-122.05836915222719,-118.23703081598684,-114.41673279059317,-110.63700728159984,-106.85728177260512,-103.07755626360908,-99.297830754611667,-95.5224220820229,-91.829034117293318,-88.135646152562529,-84.442258187830433,-80.748870223097157,-77.064996281657173,-73.498463159885688,-69.93193003811291,-66.365396916338923,-62.798863794563545,-59.248778242348351,-55.8467223708286,-52.444666499307708,-49.042610627785663,-45.640554756262389,-42.263245083650439,-39.059160674656361,-35.855076265661182,-32.6509918566648,-29.446907447667286,-26.276862401053929,-23.299709219582759,-20.322556038110495,-17.345402856637094,-14.368249675162588,-11.434989048126653,-8.7086528341768918,-5.9823166202260314,-3.2559804062741002,-0.52964419232109561,2.1428152135296372,4.5997648407194509,7.0567144679103126,9.5136640951022375,11.970613722295202,14.363980433562634,16.538336652226231,18.712692870890876,20.887049089556566,23.061405308223243,25.1631250769242,27.046932749454125,28.930740421985043,30.814548094516979,32.698355767049939,34.501439380603067,36.091702245888207,37.6819651111744,39.272227976461558,40.862490841749718,42.365157886913352,43.663431925233283,44.9617059635542,46.259980001876066,47.558254040198996,48.76344985980019,49.775326671945464,50.7872034840917,51.79908029623892,52.810957108387171,53.725767890714671,54.460310567720086,55.194853244726531,55.929395921733978,56.663938598742419,57.29894993545954,57.76807319627391,58.237196457089226,58.706319717905529,59.17544297872282,59.54406244182897,59.761923833435389,59.979785225042768,60.197646616651255,60.41550800826068,60.533301674234963,60.5157073682288,60.498113062223695,60.4805187562196,60.462924450216576,60.346978862369518,60.110824086430242,59.874669310492045,59.638514534554936,59.402359758618879,59.070693007889531,58.633458489673416,58.196223971458366,57.758989453244453,57.321754935031628,55.551422197587947,54.930735659456424,54.310049121326,53.602183699406282,52.815440574964214,52.028697450523225,51.241954326083551,50.455211201644957,49.586410445764336,48.650470217580889,47.7145299893987,46.778589761217752,45.842649533038028,44.830169512489867,43.761115343734943,42.6920611749813,41.623007006228889,40.553952837477823,39.414106941295621,38.227065444941196,37.040023948588086,35.852982452236347,34.665940955885951,33.413937668875469,32.122956325027992,30.831974981181947,29.540993637337337,28.250012293494063,26.899852108575129,25.517825533285535,24.135798957997405,22.753772382710743,21.371745807425484,19.936166828296116,18.474802608526957,17.013438388759361,15.552074168993316,14.090709949228842,12.581173339966874,11.050990770449038,9.520808200932807,7.9906256314182409,6.4604430619052495,4.8871514250475512,3.29750751096154,1.7078635968772071,0.11821968279463026,-1.4714242312862893,-3.0994852494470679,-4.7403524531300674,-6.3812196568112141,-8.022086860490603,-9.6629540641681615,-11.337956497901022,-13.02286957603544,-14.707782654167969,-16.39269573229862,-18.07760881042735,-19.792813783696005,-21.515592088650823,-23.238370393603716,-24.96114869855457,-26.683927003503445,-28.433612167500058,-30.189005155325127,-31.944398143148067,-33.699791130968912,-35.455184118787685,-37.234559234861351,-39.01816675789776,-40.801774280931888,-42.58538180396387,-44.368989326993557,-46.17417856465994,-47.982451137549759,-49.790723710437327,-51.598996283322556,-53.407268856205491,-55.235070725124622,-57.065042720926662,-58.895014716726116,-60.724986712523,-62.5549587083174,-64.403202372628513,-66.252927710282947,-68.1026530479348,-69.9523783855844,-71.802103723231511,-73.668932076040221,-75.536660757706812,-77.404389439370618,-79.2721181210316,-81.139846802689689,-83.024388119043,-84.909360691580332,-86.794333264114726,-88.67930583664635,-90.564278409174889,0.18402711809791727,0.18402711809791727,0.18402711809791727,0.18402711809791727,0.18402711809791727,0.18402711809791727,0.18402711809791727,0.18402711809791727,0.18402711809791727,0.18402711809791727,0.18402711809791727,0.18402711809791727
DP 67,181.19504884459616,0.0054175713097819071,-439.15305573202403,-423.70106411543122,-408.24907249883574,-392.79708088223742,-377.34508926563655,-361.90120079271304,-346.77333798701017,-331.64547518130468,-316.51761237559646,-301.38974956988545,-286.29474361284542,-271.82402399194723,-257.35330437104659,-242.88258475014328,-228.41186512923781,-214.01145921310297,-200.47826451735588,-186.94506982160632,-173.41187512585435,-159.87868043009979,-146.46207568307179,-134.094791494827,-121.7275073065798,-109.3602231183305,-96.992938930078836,-84.7922855617462,-73.7580605329715,-62.723835504194589,-51.68961047541557,-40.655385446634234,-29.836591071684232,-20.238583976958513,-10.640576882230658,-1.0425697875006823,8.5554373072314061,17.894906901445943,26.015542886203846,34.136178870963846,42.256814855725885,50.377450840489942,58.205480627087759,64.8630717922792,71.520662957472624,78.178254122668022,84.835845287865411,91.1778496989573,96.4328198105164,101.68778992207746,106.94276003364043,112.19773014520538,117.12593228524838,121.07381815613061,125.02170402701482,128.96958989790082,132.91747576878873,136.53874751230765,139.29893442114752,142.05912132998935,144.81930823883286,147.57949514767839,150.02320844856729,151.72847335974203,153.43373827091838,155.13900318209681,156.84426809327687,158.251252966893,159.0387244721008,159.82619597731079,160.61366748252257,161.40113898773612,161.91439244802373,161.91837641933489,161.92236039064781,161.92634436196246,161.93032833327914,161.68784378279349,161.03457215024261,160.38130051769338,159.728028885146,159.07475725260056,158.20447600468702,157.0086752057237,155.81287440676226,154.61707360780267,153.42127280884469,152.03797732384388,150.40100838779483,148.76403945174769,147.12707051570231,145.49010157965876,143.69393313374744,141.703184165172,139.71243519659853,137.72168622802687,135.73093725945722,133.60716919457695,131.33637737627708,129.0655855579792,126.79479373968317,124.52400192138917,117.1641161273343,114.67431975936725,112.1845233914021,109.60582170310126,106.94668026717693,104.28753883125462,101.62839739533443,98.969255959416216,96.238850136401027,93.45013586285458,90.66142158931028,87.8727073157681,85.083993042227931,82.238828774771463,79.35193967081814,76.465050566866964,73.578161462918047,70.691272358971375,67.7601551033502,64.7995517165315,61.838948329715116,58.878344942900917,55.917741556089084,52.922831402820705,49.907336670845424,46.891841938872417,43.876347206901954,40.860852474933786,37.818986082571229,34.762919181893075,31.706852281217518,28.650785380544388,25.594718479873606,22.518539754480237,19.432677276297113,16.346814798116672,13.26095231993882,10.175089841763633,7.0739899481498183,3.9663595278844839,0.8587291076218192,-2.2489013126380271,-5.3565317328952364,-8.4756499887334051,-11.59912584921674,-14.722601709697274,-17.84607757017486,-20.96955343064965,-24.101667738847631,-27.236661638486723,-30.371655538122713,-33.5066494377558,-36.641643337385815,-39.78313571919589,-42.926514836377649,-46.069893953556232,-49.213273070731752,-52.356652187904047,-55.5049428074547,-58.654461360627387,-61.803979913796859,-64.953498466962927,-68.103017020125719,-71.256288297499651,-74.410355650274624,-77.564423003046,-80.718490355813984,-83.872557708578384,-87.0295294806736,-90.1870138296512,-93.344498178625059,-96.501982527595231,-99.65946687656168,-102.8193265489116,-105.97952557882924,-109.13972460874317,-112.29992363865315,-115.46012266855942,-118.62214007233563,-121.78435953674649,-124.9465790011529,-128.1087984655552,-131.27101792995342,-134.43509727843451,-137.5993274473295,-140.7635576162204,-143.92778778510728,-147.09201795399011,-150.25762453992186,-153.42330358254642,-156.58898262516638,-159.75466166778173,-162.92034071039242,-166.08750850083959,-169.25471447873602,-172.42192045662748,-175.58912643451447,-178.75633241239663,0.30434371430048957,0.30434371430048957,0.30434371430048957,0.30434371430048957,0.30434371430048957,0.30434371430048957,0.30434371430048957,0.30434371430048957,0.30434371430048957,0.30434371430048957,0.30434371430048957,0.30434371430048957
DP 68,168.39691753588792,0.0010616258285247057,-83.562511869160616,-80.680240600090741,-77.797969331020283,-74.9156980619493,-72.033426792877719,-69.152578781954546,-66.327238376955648,-63.5018979719562,-60.676557566956205,-57.851217161955624,-55.031661444830057,-52.322015890888842,-49.612370336947194,-46.902724783005077,-44.193079229062462,-41.49585720832038,-38.951860329440763,-36.40786345056069,-33.863866571680141,-31.319869692799042,-28.796574019646386,-26.459591154756652,-24.122608289866466,-21.785625424975823,-19.448642560084735,-17.141429653605105,-15.042608707121497,-12.943787760637459,-10.844966814152958,-8.7461458676680373,-6.6860983793767348,-4.8457695974595154,-3.0054408155418741,-1.1651120336238061,0.67521674829468126,2.4686145855323542,4.0407640058631715,5.6129134261943969,7.1850628465260318,8.7572122668580761,10.275734024311554,11.579742595775711,12.883751167240291,14.187759738705248,15.49176831017062,16.737322344948851,17.781530519941782,18.82573869493509,19.869946869928796,20.914155044922868,21.897137985520434,22.696442908096209,23.495747830672375,24.295052753248953,25.094357675825876,25.831708347692764,26.40572295641979,26.97973756514715,27.553752173874916,28.127766782603047,28.640960916900507,29.012238694586138,29.383516472272113,29.754794249958461,30.126072027645179,30.439232086441677,30.631684423434489,30.824136760427617,31.016589097421129,31.209041434414996,31.347290904709734,31.384876444472777,31.422461984236193,31.460047523999954,31.497633063764127,31.4857678508432,31.391483470342934,31.297199089843026,31.202914709343471,31.108630328844313,30.970128353329887,30.76529894041844,30.560469527507411,30.355640114596714,30.150810701686382,29.907165411169775,29.61100365826336,29.314841905357337,29.018680152451676,28.7225183995464,28.39285670379844,28.022249929809078,27.65164315582005,27.281036381831438,26.910429607843167,26.511361323158706,26.080835012922943,25.650308702687557,25.219782392452572,24.789256082217982,23.378519995198833,22.900330732336521,22.422141469474557,21.924265981617054,21.408578792903825,20.892891604190996,20.377204415478598,19.861517226766598,19.329770901550447,18.78488500684422,18.2399991121384,17.695113217433015,17.150227322728057,16.592393174302586,16.024988364625823,15.457583554949551,14.89017874527366,14.322773935598235,13.745041407352385,13.160423570695169,12.575805734038433,11.991187897382162,11.406570060726331,10.813796369346546,10.216129041788534,9.6184617142309943,9.0207943866739591,8.4231270591173839,7.8190772391165817,7.2115905996029337,6.6041039600897848,5.9966173205771316,5.3891306810649509,4.7766897615688393,4.1618633786312751,3.5470369956942402,2.932210612757729,2.317384229821752,1.6987390656077506,1.0784572292813275,0.45817539295543919,-0.1621064433698825,-0.78238827969467517,-1.4055969675550557,-2.0299158786388061,-2.6542347897219942,-3.2785537008045917,-3.9028726118866315,-4.5294260354255265,-5.1567243246107841,-5.7840226137954147,-6.4113209029794715,-7.0386191921629031,-7.6676206948756773,-8.2971166997080612,-8.926612704539826,-9.556108709370946,-10.185604714201427,-10.816401055576609,-11.447522496451095,-12.078643937324932,-12.709765378198076,-13.340886819070585,-13.973007464359801,-14.605340073548495,-15.237672682736473,-15.87000529192378,-16.502337901110376,-17.1354447123526,-17.768688156095624,-18.4019315998379,-19.035175043579468,-19.668418487320263,-20.302287284420803,-20.936245424470247,-21.570203564518952,-22.204161704566836,-22.838119844613992,-23.472558968259435,-24.107051539577565,-24.741544110894896,-25.376036682211343,-26.010529253526975,-26.645487926406474,-27.280484396066811,-27.915480865726305,-28.550477335385029,-29.185473805042914,-29.820823110426669,-30.456190989621462,-31.09155886881533,-31.726926748008271,-32.362294627200257,-32.998029476324845,-33.6337737384915,-34.269518000657207,-34.90526226282195,-35.541006524985711,0.06113676870831089,0.06113676870831089,0.06113676870831089,0.06113676870831089,0.06113676870831089,0.06113676870831089,0.06113676870831089,0.06113676870831089,0.06113676870831089,0.06113676870831089,0.06113676870831089,0.06113676870831089
DP 69,114.82854548175939,0.004851817480330649,-320.27127309087695,-310.24214516481,-300.21301723874035,-290.183889312668,-280.15476138659261,-270.12929831532671,-260.24676596734344,-250.36423361935732,-240.48170127136871,-230.59916892337745,-220.73169212084949,-211.15027352831285,-201.56885493577406,-191.98743634323282,-182.40601775068919,-172.85741769845464,-163.71358377945506,-154.56974986045313,-145.42591594144878,-136.28208202244195,-127.19409205575263,-118.60870293837768,-110.02331382100047,-101.43792470362106,-92.852535586239384,-84.349572149311115,-76.423594708346769,-68.497617267380321,-60.5716398264116,-52.6456623854408,-44.8304632751071,-37.643015018991207,-30.455566762873243,-23.268118506753233,-16.080670250631147,-9.0322653993181,-2.639358394995031,3.7535486093300596,10.146455613657141,16.539362617986203,22.766738408277817,28.331981519314269,33.897224630352667,39.462467741393013,45.027710852435291,50.40414308368306,55.130218797135669,59.856294510590239,64.58237022404667,69.308445937505084,73.8267337659127,77.721650083025949,81.616566400141238,85.511482717258261,89.406399034377088,93.079552608614051,96.16805132933608,99.256550050059872,102.3450487707856,105.433547491513,108.29162982530848,110.61206666318837,112.93250350107007,115.25294033895358,117.57337717683885,119.66003037534983,121.26112613900763,122.86222190266706,124.46331766632829,126.06441342999142,127.4333149917245,128.37099247922805,129.30866996673336,130.24634745424052,131.1840249417493,131.89549663333344,132.22995296338183,132.56440929343213,132.89886562348434,133.23332195353817,133.35125834083556,133.14440969757115,132.93756105430839,132.7307124110477,132.52386376778858,132.11309092142102,131.42641608846057,130.73974125550208,130.05306642254541,129.36639158959056,128.49050296815327,127.38334907530465,126.27619518245776,125.16904128961278,124.06188739676999,122.78158118417888,121.30989264627716,119.83820410837744,118.36651557047954,116.89482703258375,111.69761620016233,109.91306898334686,108.12852176653332,106.20434031121826,104.15382060232905,102.10330089344187,100.05278118455691,98.002261475673919,95.828487581448073,93.553867235556552,91.279246889667149,89.004626543779864,86.7300061978949,84.347725055784991,81.885866772775984,79.424008489769349,76.962150206764846,74.500291923762674,71.945311446850937,69.3282480403318,66.711184633814938,64.094121227300391,61.477057820788211,58.780182818702308,56.035419652252564,53.290656485805165,50.545893319360331,47.801130152917857,44.988545846457775,42.139441478369548,39.290337110283936,36.441232742200789,33.592128374120065,30.685846667748734,27.752034331170247,24.8182219945945,21.884409658021433,18.950597321451053,15.968929275685808,12.966750994071253,9.96457271245943,6.9623944308504981,3.96021614924429,0.91824425786416686,-2.1388222801641716,-5.1958888181896166,-8.25295535621205,-11.310021894231621,-14.39999308193922,-17.500932900898547,-20.601872719854647,-23.70281253880777,-26.803752357757734,-29.931779924276896,-33.067672005941247,-36.203564087602373,-39.339456169260245,-42.47534825091482,-45.633475784165427,-48.797162443027119,-51.960849101885451,-55.124535760740322,-58.288222419591875,-61.470153073402827,-64.655953874558946,-67.8417546757114,-71.027555476860257,-74.21335627800562,-77.41415318823,-80.617596637400368,-83.8210400865669,-87.02448353572963,-90.227926984888654,-93.443864274578388,-96.6615865335898,-99.879308792597371,-103.09703105160089,-106.31475331060052,-109.5428311610747,-112.77205974157793,-116.00128832207685,-119.23051690257117,-122.45974548306138,-125.69821164332524,-128.93742689093426,-132.17664213853891,-135.41585738613961,-138.65507263373621,-141.90221145810992,-145.14976739167196,-148.39732332522925,-151.64487925878183,-154.89243519232951,-158.147619162475,-161.40299879724756,-164.65837843201513,-167.91375806677746,-171.16913770153536,0.314722868403419,0.314722868403419,0.314722868403419,0.314722868403419,0.314722868403419,0.314722868403419,0.314722868403419,0.314722868403419,0.314722868403419,0.314722868403419,0.314722868403419,0.314722868403419
DP 70,265.99672609166726,0.0033339303129862651,-309.29743156514843,-297.13338431702743,-284.96933706890439,-272.80528982078033,-260.64124257265439,-248.48602958226508,-236.67535598375142,-224.86468238523656,-213.05400878672009,-201.2433351882022,-189.46795677446778,-178.36319354393891,-167.25843031340847,-156.15366708287681,-145.04890385234384,-134.01793639864022,-123.89712615954011,-113.77631592043871,-103.65550568133592,-93.5346954422317,-83.532364689775363,-74.596360515985992,-65.660356342195328,-56.724352168403414,-47.788347994610255,-39.014977494055046,-31.380055004032783,-23.7451325140093,-16.110210023984585,-8.47528753395865,-1.0407380445615433,5.2583518149412383,11.557441674445204,17.85653153395036,24.155621393456641,30.227187621894892,35.226130157694442,40.2250726934951,45.224015229296931,50.222957765099871,54.979855066470776,58.7685599909149,62.557264915360207,66.345969839806514,70.134674764253944,73.679460453081248,76.384069638980847,79.088678824881626,81.7932880107835,84.497897196686367,86.967795173649165,88.7335506497217,90.499306125795442,92.265061601870144,94.030817077945983,95.579613104638838,96.556417671229838,97.533222237821732,98.5100268044147,99.486831371008748,100.27006539986462,100.60162874182929,100.93319208379486,101.26475542576154,101.59631876772917,101.76054750846083,101.57723028765407,101.39391306684828,101.2105958460434,101.02727862523967,100.70335496448364,100.11830126087895,99.533247557275331,98.9481938536726,98.363140150070961,97.6629351416637,96.770808389451844,95.878681637240931,94.986554885031182,94.094428132822486,93.110175280000078,91.9877310992917,90.865286918584417,89.742842737878121,88.620398557172862,87.425806512434278,86.133601047063252,84.841395581693163,83.549190116324084,82.256984650955985,80.909372097890554,79.49403860716383,78.07870511643813,76.663371625713467,75.248038134989812,73.790911925592056,72.287592932334576,70.784273939078233,69.280954945822913,67.777635952568616,63.112641175056915,61.547306945470893,59.981972715885945,58.39397859477986,56.785482259090422,55.176985923402015,53.568489587714758,51.959993252028568,50.335163764992373,48.696970509792294,47.05877725459333,45.420583999395518,43.782390744198828,42.13256874913013,40.474151407345595,38.815734065562296,37.157316723780156,35.498899381999209,33.832290622957885,32.160220790033179,30.488150957109632,28.816081124187328,27.144011291266263,25.466220507086486,23.78499706563197,22.103773624178693,20.422550182726766,18.741326741276069,17.056130378189287,15.368794691833672,13.681459005479461,11.994123319126571,10.306787632774983,8.6166972146024232,6.9252804054974719,5.23386359639396,3.5424467872918388,1.8510299781911546,0.15769421167426734,-1.5364639910746261,-3.2306221938220792,-4.924780396568023,-6.6189385993125391,-8.3144517480831883,-10.010478859562237,-11.706505971039791,-13.402533082515747,-15.098560193990231,-16.795569013721167,-18.492905081908859,-20.190241150094892,-21.88757721827934,-23.584913286462118,-25.282989971795978,-26.981281684043921,-28.679573396290174,-30.377865108534724,-32.076156820777591,-33.775038755010939,-35.47406825171408,-37.173097748415422,-38.87212724511501,-40.571156741812828,-42.270688843456334,-43.97032756402708,-45.669966284595944,-47.369605005162931,-49.069243725728072,-50.769331086426355,-52.46949762390021,-54.16966416137204,-55.869830698841966,-57.569997236309838,-59.27062437163741,-60.971317311632959,-62.672010251626482,-64.37270319161793,-66.073396131607382,-67.774466313737221,-69.475578415620319,-71.1766905175012,-72.877802619379764,-74.578914721256183,-76.280572524268109,-77.982274578892415,-79.683976633514419,-81.385678688134419,-83.087380742752174,-84.789470915989966,-86.491581520382567,-88.193692124772824,-89.895802729160508,-91.59791333354562,-93.300521584428651,-95.0031426003002,-96.705763616169108,-98.408384632035478,-100.11100564789922,0.16307982359556764,0.16307982359556764,0.16307982359556764,0.16307982359556764,0.16307982359556764,0.16307982359556764,0.16307982359556764,0.16307982359556764,0.16307982359556764,0.16307982359556764,0.16307982359556764,0.16307982359556764
DP 71,65.486513732706825,0.0036093629932930915,-170.41273671498729,-165.67774130795573,-160.94274590092215,-156.20775049388649,-151.47275508684891,-146.73892702905388,-142.05062603315088,-137.36232503724602,-132.67402404133909,-127.98572304543028,-123.30228610101969,-118.71126705462181,-114.12024800822245,-109.52922896182122,-104.9382099154183,-100.35794140048074,-95.910264128507038,-91.462586856531615,-87.014909584554275,-82.567232312575271,-78.138227234021116,-73.877273661225388,-69.616320088427941,-65.35536651562893,-61.094412942828221,-56.86170160078985,-52.826688009688986,-48.791674418586531,-44.756660827482463,-40.721647236376704,-36.725736231256967,-32.951409010746033,-29.177081790233526,-25.402754569719455,-21.628427349203832,-17.904899085785434,-14.420854363874923,-10.936809641962897,-7.4527649200493666,-3.9687201981343332,-0.54756561348834065,2.6220254498533144,5.7916165131964386,8.9612075765410459,12.13079863988709,15.225458581938161,18.062019291713835,20.898580001490942,23.735140711269516,26.57170142104949,29.321757747338843,31.812297652556527,34.302837557775632,36.793377462996183,39.283917368218106,41.677217878123926,43.814156639947811,45.951095401773124,48.088034163599794,50.224972925427963,52.255086359513065,54.035937329779514,55.816788300047349,57.597639270316606,59.378490240587269,61.044332722839336,62.471308077442,63.898283432046071,65.325258786651574,66.7522341412584,68.057585470393931,69.137060324784784,70.216535179177086,71.296010033570766,72.375484887965953,73.328400196658478,74.070379739166114,74.812359281675214,75.5543388241858,76.296318366697818,76.9085151005559,77.326034554628933,77.743554008703285,78.161073462779243,78.578592916856579,78.864793521892238,78.973324528246636,79.081855534602511,79.1903865409598,79.2989175473187,79.2761981370124,79.093058793907716,78.909919450804551,78.7267801077029,78.543640764602813,78.2308053555375,77.77461908219172,77.318432808847419,76.8622465355047,76.406060262163635,74.403408578222013,73.693584679838523,72.983760781456724,72.151146747709248,71.20743466648662,70.263722585265668,69.3200105040464,68.376298422828839,67.314776019861227,66.156861328996442,64.998946638133447,63.841031947272157,62.683117256412721,61.4131290996991,60.060302191127271,58.707475282557347,57.354648373989171,56.001821465422921,54.543217861353774,53.014094793928486,51.484971726505115,49.955848659083685,48.426725591664272,46.798496593720131,45.11080253864592,43.42310848357377,41.735414428503695,40.04772037343556,38.267790755644292,36.438194493586678,34.608598231531346,32.779001969478074,30.949405707426941,29.034485852565556,27.078483073037056,25.122480293510794,23.166477513986802,21.210474734465063,19.175961386972041,17.107799593078148,15.039637799186549,12.971476005297351,10.903314211410462,8.7632317772978663,6.5958681626852487,4.4285045480750647,2.2611409334674044,0.093777318862152861,-2.1392428839808426,-4.394149443692184,-6.6490560034008421,-8.9039625631069548,-11.158869122810428,-13.473586403863367,-15.805668817354212,-18.13775123084233,-20.469833644327743,-22.801916057810367,-25.188454164306364,-27.588606837454659,-29.988759510600126,-32.388912183742704,-34.789064856882369,-37.238875761463014,-39.699220799225607,-42.159565836985088,-44.619910874741578,-47.080255912495012,-49.58605652295158,-52.099879210530837,-54.613701898106711,-57.127524585679481,-59.641347273248925,-62.197148061882764,-64.7589461755587,-67.3207442892315,-69.882542402900839,-72.444340516566882,-75.045135037715966,-77.650262902580039,-80.25539076744046,-82.860518632297044,-85.46564649715009,-88.1079751482878,-90.753320459527629,-93.398665770763742,-96.044011081996473,-98.68935639322568,-101.37027172851182,-104.05305952423025,-106.73584731994474,-109.41863511565505,-112.1014229113613,-114.81951103914038,-117.53850464585305,-120.25749825256158,-122.97649185926602,-125.69548546596604,0.266781368174113,0.266781368174113,0.266781368174113,0.266781368174113,0.266781368174113,0.266781368174113,0.266781368174113,0.266781368174113,0.266781368174113,0.266781368174113,0.266781368174113,0.266781368174113
DP 72,293.86644760729996,0.0014609472506675557,-139.70769590364,-134.04201341904528,-128.37633093444978,-122.71064844985374,-117.04496596525708,-111.3837720974372,-105.89763598101962,-100.41149986460142,-94.925363748182619,-89.439227631763046,-83.9709414053495,-78.841806463449217,-73.7126715215484,-68.583536579646932,-63.454401637744937,-58.362303312936369,-53.726994599949336,-49.091685886961749,-44.456377173973607,-39.821068460984826,-35.244603674798753,-31.19773979184146,-27.150875908883609,-23.104012025925226,-19.057148142966312,-15.090005883721281,-11.680921018781277,-8.2718361538407752,-4.8627512888997364,-1.4536664239581831,1.8587116966479937,4.6230788387956787,7.3874459809438617,10.151813123092559,12.916180265241746,15.572669929346738,17.720588513124586,19.868507096902885,22.016425680681703,24.164344264460986,26.199745650404491,27.78507292737682,29.370400204349568,30.955727481322825,32.541054758296525,34.015410329489775,35.107525363361326,36.199640397233381,37.291755431105848,38.383870464978791,39.371644089791715,40.046389542436536,40.721134995081805,41.395880447727492,42.070625900373606,42.6512587792845,42.983773456301506,43.316288133318871,43.648802810336761,43.981317487355021,44.232000687943014,44.291741198592163,44.351481709241796,44.411222219891826,44.470962730542318,44.461836834079136,44.309678704585856,44.157520575093081,44.005362445600717,43.853204316108723,43.644766197513938,43.331806579257005,43.018846961000463,42.705887342744425,42.392927724488764,42.035178064951729,41.602777207650931,41.170376350350494,40.737975493050584,40.305574635751036,39.838376724876262,39.318982411374471,38.799588097873063,38.280193784372116,37.760799470871589,37.214959524304362,36.633339603665512,36.051719683027073,35.470099762389033,34.88847984175149,34.28716170854981,33.661767568459211,33.036373428369082,32.410979288279407,31.78558514819014,31.145786648225481,30.4900672533425,29.83434785845996,29.178628463577866,28.522909068696247,26.503965774942255,25.827532297259758,25.151098819577705,24.467332075273891,23.776930338665025,23.086528602056593,22.396126865448654,21.70572512884117,21.010202294769176,20.310489383853245,19.610776472937797,18.911063562022832,18.211350651108351,17.508104383063973,16.802246445145116,16.09638850722677,15.390530569308932,14.684672631391603,13.976400819461093,13.26651972016165,12.556638620862742,11.846757521564351,11.136876422266486,10.425357541134428,9.7128559661333185,9.00035439113276,8.287852816132748,7.5753512411332693,6.8617411723269628,6.1475342061209117,5.4333272399154513,4.7191202737105584,4.0049133075062056,3.2899529155268805,2.5746297524392037,1.8593065893521379,1.1439834262656599,0.4286602631797885,-0.2871823899578137,-1.0032476887033046,-1.7193129874481887,-2.4353782861924294,-3.1514435849360738,-3.8678773829242163,-4.5844509612917239,-5.3010245396585969,-6.0175981180247993,-6.7341716963903719,-7.4510189610850563,-8.1679574580048886,-8.8848959549240085,-9.601834451842473,-10.318772948760243,-11.035927833397356,-11.75314554291416,-12.470363252430252,-13.187580961945638,-13.9047986714603,-14.622200419704667,-15.339648179805303,-16.057095939905217,-16.774543700004365,-17.491991460102764,-18.209607703378293,-18.927259687439303,-19.644911671499504,-20.362563655558944,-21.08021563961757,-21.79802795781098,-22.515868572045729,-23.233709186279633,-23.951549800512719,-24.669390414744953,-25.387406241747346,-26.10544710103742,-26.823487960326684,-27.541528819615042,-28.259569678902537,-28.977757172976393,-29.695960961343431,-30.414164749709531,-31.132368538074669,-31.850572326438865,-32.568997786722591,-33.287441222669479,-34.005884658615543,-34.724328094560654,-35.442771530504857,-36.161373006362361,-36.879982801681422,-37.598592596999488,-38.3172023923165,-39.035812187632459,-39.754627393091582,-40.473447867467733,-41.192268341842791,-41.9110888162168,-42.629909290589737,0.068802898771758117,0.068802898771758117,0.068802898771758117,0.068802898771758117,0.068802898771758117,0.068802898771758117,0.068802898771758117,0.068802898771758117,0.068802898771758117,0.068802898771758117,0.068802898771758117,0.068802898771758117
DP 73,231.69522029975377,0.0042875748587221469,-380.24686660191594,-365.89797072302889,-351.54907484413968,-337.20017896524809,-322.85128308635467,-308.5116391910218,-294.53282615268012,-280.55401311433673,-266.57520007599146,-252.59638703764367,-238.65475640699984,-225.41959855182355,-212.18444069664565,-198.94928284146579,-185.71412498628408,-172.55744139684919,-160.36861697495797,-148.17979255306508,-135.99096813117026,-123.80214370927366,-111.74095600593563,-100.82851083401815,-89.916065662098973,-79.003620490178164,-68.0911753182556,-57.35679913416876,-47.868919329972158,-38.381039525773936,-28.893159721574026,-19.405279917372525,-10.141070493358253,-2.144340651468077,5.8523891904236871,13.849119032317015,21.845848874211917,29.582915684557673,36.095842749793462,42.608769815030747,49.12169688026956,55.634623945509887,61.864405862838851,66.961593806917492,72.058781750997639,77.1559696950792,82.253157639162225,87.057193480972458,90.85147087758547,94.64574827419996,98.440025670815928,102.23430306743317,105.73816782419084,108.37078368131395,111.00339953843852,113.63601539556454,116.26863125269178,118.62436200906112,120.25011343743337,121.87586486580692,123.50161629418209,125.12736772255826,126.49790064412616,127.27291567529254,128.04793070646028,128.82294573762934,129.59796076879991,130.14470641705083,130.21734747730585,130.28998853756212,130.36262959781982,130.43527065807879,130.30920405713096,129.81410357620686,129.31900309528402,128.82390261436274,128.32880213344254,127.66492054948893,126.71973287291111,125.77454519633461,124.82935751975953,123.88416984318583,122.79879078734079,121.50312134982731,120.20745191231502,118.91178247480428,117.6161130372948,116.20635770938983,114.64224834541399,113.07813898143944,111.51402961746638,109.94992025349462,108.29469792309521,106.52811338659535,104.76152885009697,102.99494431360003,101.22835977710434,99.390257604975332,97.473108201898711,95.555958798823511,93.638809395749718,91.721659992677388,85.693970264809991,83.666324045396209,81.638677825983876,79.568975339922147,77.461221188757946,75.3534670375951,73.245712886433864,71.13795873527404,68.998619934613274,66.833438605194544,64.668257275777322,62.503075946361655,60.33789461694753,58.149283683854392,55.943354832461118,53.7374259810695,51.531497129679366,49.325568278290959,47.1024507055911,44.86787371456807,42.633296723546728,40.398719732527056,38.164142741509046,35.917076671424589,33.662516965023961,31.4079572586251,29.153397552227979,26.8988378458326,24.635274880993521,22.366863876839727,20.09845287268783,17.830041868537744,15.561630864389391,13.286765566988572,11.008792556531322,8.7308195460760132,6.4528465356225837,4.1748735251710967,1.8922841347003649,-0.39228376668381659,-2.6768516680660572,-4.9614195694462468,-7.2459874708245184,-9.5338647762601649,-11.822997416034688,-14.112130055807183,-16.401262695577518,-18.690395335345858,-20.981921659245572,-23.274245908021491,-25.566570156795162,-27.858894405566698,-30.151218654336027,-32.44530513971057,-34.739903263655073,-37.034501387597288,-39.329099511537265,-41.623697635474862,-43.919631211812941,-46.21589866702773,-48.512166122240217,-50.808433577450252,-53.104701032657886,-55.402024059542939,-57.699571007663515,-59.997117955781519,-62.294664903897036,-64.592211852010024,-66.890626576506733,-69.189194447660057,-71.48776231881061,-73.786330189958562,-76.0848980611038,-78.384269465529272,-80.68375566910106,-82.983241872670092,-85.2827280762363,-87.582214279799842,-89.882335080953524,-92.18252639961257,-94.482717718268546,-96.7829090369216,-99.083100355571446,-101.3841185859014,-103.68520387157149,-105.98628915723846,-108.28737444290275,-110.5884597285641,-112.89013331272936,-115.19183786582374,-117.49354241891473,-119.79524697200232,-122.09695152508671,-124.39938173010175,-126.70183054860817,-129.00427936711105,-131.30672818561038,-133.60917700410627,0.2207618260963862,0.2207618260963862,0.2207618260963862,0.2207618260963862,0.2207618260963862,0.2207618260963862,0.2207618260963862,0.2207618260963862,0.2207618260963862,0.2207618260963862,0.2207618260963862,0.2207618260963862
DP 74,81.26978090043275,0.00583055111798274,-316.72790497428974,-307.54020242878357,-298.352499883274,-289.16479733776106,-279.97709479224505,-270.79200817474691,-261.70894373913916,-252.62587930352794,-243.54281486791359,-234.45975043229606,-225.38752422290588,-216.52122636077863,-207.6549284986485,-198.78863063651571,-189.92233277438012,-181.07988702120886,-172.53162028467307,-163.98335354813429,-155.43508681159256,-146.88682007504769,-138.37969426021505,-130.24284062950468,-122.10598699879174,-113.9691333680759,-105.83227973735761,-97.757168463368387,-90.114258355268248,-82.471348247165324,-74.828438139059912,-67.1855280309518,-59.627279382262728,-52.548784338493128,-45.47028929472097,-38.391794250946305,-31.313299207169159,-24.34357435134617,-17.886629113651175,-11.429683875953673,-4.9727386382537162,1.4842065994486742,7.8081898176675564,13.600318674084392,19.392447530503627,25.184576386925261,30.976705243349272,36.612645731065882,41.710597498516393,46.808549265969248,51.90650103342449,57.004452800882014,61.924878707440172,66.312720319317322,70.700561931196944,75.08840354307867,79.476245154962839,83.667883787846648,87.342253277789439,91.016622767734489,94.690992257681756,98.3653617476313,101.82808416791433,104.7969567572661,107.76582934662012,110.73470193597645,113.70357452533511,116.4489790772238,118.7302512059192,121.01152333461695,123.29279546331688,125.57406759201905,127.62385359956241,129.24373055914444,130.86360751872874,132.48348447831523,134.1033614379042,135.4875442471749,136.47889753176165,137.4702508163507,138.46160410094191,139.45295738553546,140.20807216282921,140.60882359679127,141.00957503075551,141.41032646472232,141.81107789869137,141.97842080104354,141.82997049896483,141.6815201968883,141.53306989481413,141.38461959274227,141.00859788518054,140.35442856861951,139.7002592520611,139.04608993550488,138.39192061895113,137.51857564632328,136.40297953451352,135.28738342270631,134.17178731090141,133.05619119909909,128.66593489113538,127.1329508012825,125.59996671143227,123.87037667208905,121.96290151969804,120.05542636730978,118.14795121492428,116.24047606254123,114.14961291609843,111.90870189560115,109.66779087510666,107.42687985461487,105.18596883412587,102.77558514565328,100.23993626454259,97.704287383434789,95.1686385023298,92.632989621227836,89.942081208894962,87.147663996525822,84.353246784159765,81.558829571796721,78.764412359436676,75.8289057438813,72.808743352662177,69.788580961446073,66.768418570233379,63.748256179023684,60.60084385956938,57.384910497553641,54.16897713554129,50.953043773532229,47.737110411526416,44.407198465854144,41.022406346806868,37.637614227763137,34.252822108722881,30.868029989686125,27.38178205520283,23.852051687000102,20.322321318800984,16.792590950605604,13.262860582413785,9.64331311738879,5.989695927414572,2.33607873744413,-1.3175384525223715,-4.9711556424851455,-8.7039292657380756,-12.463089364345187,-16.222249462948128,-19.981409561547149,-23.74056966014205,-27.569263320636662,-31.418144992310168,-35.267026663979472,-39.115908335644519,-42.964790007305318,-46.874652703679409,-50.799761376727218,-54.724870049770708,-58.649978722809628,-62.575087395844136,-66.553710724685843,-70.543686260302607,-74.5336617959145,-78.523637331521783,-82.513612867124323,-86.550699295505225,-90.596099934722048,-94.641500573933854,-98.686901213140686,-102.73230185234247,-106.8195910956302,-110.91286487770917,-115.00613865978313,-119.09941244185174,-123.1926862239153,-127.32338830318048,-131.45824947521427,-135.5931106472425,-139.72797181926484,-143.86283299128141,-148.03240156772819,-152.20478461270011,-156.37716765766635,-160.54955070262747,-164.72193374758305,-168.92645284109383,-173.1326636253153,-177.33887440953063,-181.54508519373954,-185.75129597794214,-189.98895894156041,-194.22742867622335,-198.46589841087976,-202.70436814552926,-206.94283788017256,0.41299350142146363,0.41299350142146363,0.41299350142146363,0.41299350142146363,0.41299350142146363,0.41299350142146363,0.41299350142146363,0.41299350142146363,0.41299350142146363,0.41299350142146363,0.41299350142146363,0.41299350142146363
DP 75,203.26184242936498,0.0031464792180596526,-266.4359078574289,-256.75522523971432,-247.07454262199826,-237.39386000428038,-227.71317738656134,-218.03808130989029,-208.58086244634703,-199.12364358280223,-189.66642471925584,-180.20920585570818,-170.77454954036091,-161.76858590613372,-152.76262227190523,-143.75665863767537,-134.75069500344418,-125.79272436915544,-117.42667344931921,-109.06062252948176,-100.69457160964289,-92.328520689802588,-84.041378011790869,-76.464416968750939,-68.887455925709588,-61.310494882667015,-53.733533839623242,-46.268162108563786,-39.5839239994448,-32.8996858903246,-26.215447781203146,-19.531209672080415,-12.98942327448888,-7.2548722187136,-1.5203211629371034,4.2142298928405877,9.9487809486194738,15.514851197630149,20.286645686156593,25.058440174684204,29.830234663212973,34.602029151742876,39.186242790571981,43.020124165416931,46.854005540263,50.6878869151102,54.521768289958537,58.156950904542278,61.107718330996939,64.058485757452758,67.009253183909593,69.960020610367536,72.709027633413129,74.85274581797097,76.996464002529777,79.140182187089792,81.283900371650759,83.230124506825277,84.65567572366713,86.08122694051,87.506778157353878,88.932329374198844,90.170705288028316,90.972332930813948,91.7739605736006,92.575588216388226,93.377215859176957,94.006482964557378,94.2777654794087,94.549047994261159,94.820330509114527,95.091613023968918,95.208234867191592,95.037625572040255,94.867016276889871,94.696406981740623,94.5257976865923,94.219632147432236,93.68753611813797,93.15544008884477,92.623344059552508,92.091248030261312,91.442856948726785,90.620020540742445,89.79718413275917,88.974347724776862,88.1515113167955,87.230843576993564,86.177813624227639,85.12478367146268,84.0717537186988,83.018723765936016,81.884866771137112,80.6522194716583,79.41957217218048,78.1869248727037,76.954277573228026,75.65595488040799,74.285042288057738,72.914129695708439,71.54321710336032,70.1723045110133,65.796821478481931,64.320810585262322,62.844799692043843,61.3273377809196,59.7723718215959,58.217405862273331,56.662439902951938,55.107473943631661,53.520238630905922,51.906600565369587,50.292962499834353,48.679324434300362,47.065686368767572,45.427229764261917,43.770428614276504,42.113627464292385,40.456826314309396,38.800025164327735,37.124346600013453,35.436082795425577,33.747818990839015,32.059555186253668,30.371291381669675,28.668811823182825,26.957802597364779,25.246793371548033,23.535784145732663,21.824774919918585,20.103153676032129,18.375818114251977,16.648482552473297,14.921146990695965,13.19381142892,11.458611372376554,9.7196245971145938,7.9806378218541223,6.2416510465950967,4.5026642713375713,2.7578800201104809,1.0106110580425951,-0.73665790402379971,-2.4839268660886171,-4.2311958281519626,-5.9827268642212248,-7.7358746046166766,-9.4890223450105573,-11.24217008540281,-12.9953178257935,-14.751601735814374,-16.508931075235456,-18.266260414654791,-20.0235897540725,-21.7809190934885,-23.540569691994246,-25.300894232738667,-27.061218773481333,-28.821543314222247,-30.581867854961381,-32.343932366883735,-34.10643189215839,-35.868931417431234,-37.631430942702195,-39.393930467971344,-41.157763150345048,-42.921878638892323,-44.685994127437624,-46.450109615980985,-48.214225104522384,-49.979386609963427,-51.744732718252173,-53.510078826538908,-55.275424934823604,-57.040771043106162,-58.807009375827072,-60.57337517881831,-62.3397409818075,-64.106106784794548,-65.872472587779427,-67.639524982652858,-69.406653672722513,-71.173782362790021,-72.940911052855043,-74.7080397429177,-76.475952278045852,-78.243928376186844,-80.011904474325689,-81.779880572462247,-83.5478566705966,-85.316397660403354,-87.084968386968612,-88.853539113531482,-90.622109840091611,-92.390680566649209,-94.159904863858955,-95.929145925623843,-97.698386987386087,-99.4676280491456,-101.23686911090242,0.169825057250655,0.169825057250655,0.169825057250655,0.169825057250655,0.169825057250655,0.169825057250655,0.169825057250655,0.169825057250655,0.169825057250655,0.169825057250655,0.169825057250655,0.169825057250655
DP 76,157.33985349824533,0.0027594783887183558,-211.1172092127793,-203.96558492425146,-196.81396063572245,-189.66233634719185,-182.51071205865972,-175.36242995919403,-168.34449449700421,-161.32655903481296,-154.30862357262029,-147.29068811042615,-140.2863652145351,-133.54068365178048,-126.79500208902463,-120.04932052626735,-113.30363896350903,-106.58728132673949,-100.2325891394938,-93.877896952246758,-87.523204764998283,-81.168512577748672,-74.862893363372152,-68.998935543301343,-63.13497772322944,-57.271019903156308,-51.407062083081939,-45.614051264201834,-40.317674818483425,-35.02129837276388,-29.724921927043145,-24.428545481321255,-19.225169308680222,-14.548800543831828,-9.8724317789823157,-5.196063014131691,-0.51969424927995067,4.0432699016110574,8.07160617574812,12.099942449886278,16.128278724025517,20.156614998165807,24.054278847270439,27.429246820576154,30.804214793882917,34.179182767190717,37.554150740499544,40.785364430494234,43.521418438928926,46.25747244736467,48.993526455801458,51.729580464239241,54.313550419817858,56.441262466754559,58.56897451369219,60.696686560630795,62.824398607570473,64.7965504981867,66.358583902595939,67.920617307006225,69.482650711417364,71.044684115829526,72.452247910541018,73.499377749069382,74.546507587598612,75.5936374261289,76.6407672646601,77.538502600776226,78.1259527023568,78.713402803938223,79.300852905520642,79.888303007104071,80.3346544622805,80.518961763614286,80.703269064949,80.887576366284719,81.071883667621393,81.125762217086915,80.962256225894365,80.798750234702737,80.635244243512034,80.471738252322425,80.190012389637374,79.730953926140714,79.271895462644878,78.81283699915015,78.353778535656332,77.789478914549491,77.082791857257291,76.376104799966129,75.669417742675932,74.9627306853867,74.1639007088293,73.252449673288325,72.34099863774837,71.429547602209354,70.518096566671389,69.527200722990514,68.448495878896722,67.3697910348039,66.29108619071215,65.212381346621427,61.638629782639754,60.424869870558233,59.211109958477827,57.940708980131006,56.619060303014614,55.297411625899286,53.975762948785118,52.654114271671929,51.285537884878096,49.878565292771377,48.471592700665838,47.064620108561414,45.657647516458084,44.212238430336853,42.738419129844381,41.264599829353152,39.790780528863024,38.316961228374147,36.811994265917996,35.286261704798925,33.7605291436811,32.234796582564464,30.709064021449088,29.15833837644907,27.592616503139052,26.026894629830302,24.461172756522867,22.895450883216647,21.309855346878738,19.713558318373504,18.117261289869639,16.520964261367073,14.924667232865767,13.312696709288071,11.693179468603841,10.073662227921021,8.4541449872395944,6.8346277465595762,5.2028387626946948,3.565790294617452,1.9287418265416345,0.29169335846731931,-1.34535510960559,-2.9919530336376314,-4.6421732896014731,-6.2923935455638214,-7.9426138015245984,-9.5928340574839,-11.250450674127368,-12.910532837546141,-14.570615000963231,-16.230697164378782,-17.890779327792675,-19.556574000857896,-21.2240272141371,-22.8914804274146,-24.558933640690455,-26.226386853964581,-27.898250997385048,-29.571217925456381,-31.244184853526079,-32.917151781593873,-34.590118709660004,-36.266503999219005,-37.943614434924434,-39.620724870627889,-41.297835306329596,-42.974945742029369,-44.654720030992706,-46.33496444132922,-48.015208851663736,-49.695453261996306,-51.375697672326844,-53.058085710720768,-54.740780004849718,-56.423474298976714,-58.106168593101636,-59.788862887224475,-61.473220450575305,-63.157762839084306,-64.842305227591112,-66.5268476160955,-68.211390004597874,-69.897486024675132,-71.583708030753868,-73.269930036830459,-74.956152042904975,-76.642374048977373,-78.329799640477731,-80.017288590552411,-81.7047775406245,-83.39226649069424,-85.079755440761446,-86.768460357841,-88.457196465347522,-90.145932572851535,-91.834668680353019,-93.52340478785186,0.16252288493424782,0.16252288493424782,0.16252288493424782,0.16252288493424782,0.16252288493424782,0.16252288493424782,0.16252288493424782,0.16252288493424782,0.16252288493424782,0.16252288493424782,0.16252288493424782,0.16252288493424782
DP 77,217.24278815897893,0.0020374934967468334,-176.7108484099966,-170.16664708040213,-163.62244575080686,-157.07824442121048,-150.53404309161311,-143.99383629530686,-137.60941780766098,-131.22499932001415,-124.84058083236631,-118.45616234471764,-112.0878374126975,-106.02529308000695,-99.962748747315558,-93.900204414623218,-87.83766008192994,-81.809217037059639,-76.201360839742833,-70.593504642425131,-64.9856484451066,-59.3777922477871,-53.825706108095517,-48.775555758516163,-43.725405408936005,-38.675255059354996,-33.625104709773204,-28.653297455574268,-24.229897793125065,-19.806498130675052,-15.383098468224253,-10.959698805772668,-6.6355157104587521,-2.8735660809718211,0.88838354851587276,4.6503331780043284,8.412282807493547,12.057959298291946,15.155484712246578,18.253010126201975,21.350535540158088,24.448060954114961,27.417454666145851,29.874315514893613,32.331176363642129,34.788037212391316,37.244898061141235,39.567556341278376,41.427955691756409,43.288355042235096,45.148754392714459,47.00915374319456,48.734935415265,50.056858962419021,51.378782509573718,52.700706056729068,54.022629603885143,55.214487057534157,56.063438521393593,56.91238998525364,57.761341449114411,58.610292912975879,59.337660541195717,59.781328722171047,60.224996903147023,60.668665084123646,61.112333265100965,61.445645565051286,61.5497539794952,61.6538623939398,61.757970808385096,61.862079222831,61.868642387392285,61.694047453571294,61.519452519750992,61.34485758593128,61.170262652112186,60.911492620721539,60.512428638357981,60.113364655995042,59.714300673632849,59.315236691271259,58.845107987796332,58.268380523372052,57.691653058948575,57.114925594525658,56.538198130103439,55.902665312746045,55.187571004159174,54.472476695572972,53.757382386987445,53.042288078402557,52.279421512247758,51.458165627843741,50.63690974344032,49.815653859037624,48.994397974635618,48.134986512131363,47.233402335617725,46.331818159104806,45.430233982592647,44.528649806081127,41.673893619458823,40.7123078666861,39.750722113914094,38.765887139492008,37.760016736426238,36.754146333361156,35.748275930296842,34.7424055272332,33.71875685978366,32.6805620341237,31.6423672084645,30.604172382806038,29.565977557148365,28.514353597142627,27.452803534473542,26.391253471805275,25.329703409137728,24.26815334647101,23.196571489820997,22.118301612479772,21.04003173513934,19.961761857799718,18.883491980460914,17.797801792942543,16.707659307096655,15.617516821251595,14.527374335407425,13.437231849564055,12.34164664704112,11.243130671775484,10.14461469651077,9.0460987212469313,7.9475827459839579,6.8451007395293981,5.74070910696475,4.6363174744010456,3.5319258418382562,2.4275342092764118,1.3202643070389162,0.21176082179001776,-0.89674266345793674,-2.0052461487048951,-3.1137496339509192,-4.2243406351567421,-5.3357234799762407,-6.4471063247947518,-7.5584891696122218,-8.66987201442871,-9.7827753460665257,-10.896185525806478,-12.009595705545356,-13.12300588528319,-14.23641606501995,-15.350945868420954,-16.465800737507916,-17.580655606593787,-18.695510475678535,-19.810365344762161,-20.926061134315216,-22.041967163920297,-23.157873193524232,-24.27377922312699,-25.389685252728562,-26.506242945337405,-27.622938876958454,-28.739634808578245,-29.856330740196825,-30.973026671814157,-32.090243799146315,-33.207552907987612,-34.324862016827552,-35.442171125666228,-36.559480234503624,-37.677251012728142,-38.795087748708205,-39.912924484687004,-41.030761220664417,-42.148597956640465,-43.266793937397992,-44.385029838013963,-45.503265738628464,-46.621501639241437,-47.739737539852946,-48.858412808681138,-49.977123706447763,-51.095834604212882,-52.214545501976623,-53.333256399739007,-54.452281191136457,-55.5713225063731,-56.690363821608152,-57.809405136841455,-58.928446452073167,-60.047864082092204,-61.167291364854911,-62.286718647615857,-63.406145930375132,-64.5255732131327,0.10738889604079216,0.10738889604079216,0.10738889604079216,0.10738889604079216,0.10738889604079216,0.10738889604079216,0.10738889604079216,0.10738889604079216,0.10738889604079216,0.10738889604079216,0.10738889604079216,0.10738889604079216
DP 78,282.30516269928347,0.0045634545343438762,-431.18985972651808,-413.91979871834434,-396.64973771016832,-379.37967670199043,-362.10961569381038,-344.8527644718493,-328.11109990693541,-311.36943534201964,-294.627770777102,-277.88610621218248,-261.19707444191448,-245.50807571990626,-229.81907699789664,-214.13007827588496,-198.44107955387153,-182.86163387049115,-168.63335613705777,-154.40507840362253,-140.17680067018568,-125.94852293674676,-111.89506000988855,-99.414946865978877,-86.934833722067509,-74.4547205781544,-61.974607434239665,-49.732622055888413,-39.157549042983277,-28.582476030076563,-18.007403017168166,-7.4323300042581231,2.8520179786915478,11.488905805413955,20.125793632137938,28.762681458863518,37.399569285590658,45.709759607793941,52.479786905905442,59.249814204018449,66.019841502132977,72.789868800249067,79.216353769318516,84.268653186191216,89.3209526030655,94.373252019941262,99.4255514368185,104.13600079593067,107.66895226182322,111.20190372771707,114.73485519361245,118.2678066595092,121.47625159807643,123.71116468556261,125.94607777305012,128.18099086053911,130.41590394802947,132.35514795363576,133.51489058082825,134.6746332080221,135.83437583521732,136.99411846241395,137.89403216883704,138.18767020701256,138.48130824518969,138.77494628336817,139.06858432154786,139.14112976444252,138.7544764639224,138.3678231634035,137.98116986288605,137.59451656236985,137.02510029359439,136.11626214806222,135.2074240025313,134.29858585700171,133.38974771147346,132.33373615773672,131.03243188071957,129.73112760370392,128.4298233266897,127.12851904967665,125.71148877024889,124.12086675256089,122.5302447348742,120.93962271718898,119.34900069950504,117.66933666436465,115.8692020370535,114.06906740974364,112.26893278243523,110.46879815512803,108.60150281884528,106.65212076090212,104.70273870296046,102.75335664502025,100.8039745870813,98.804852046681233,96.750752193766047,94.6966523408523,92.642552487939923,90.588452635029,84.245014969146126,82.1184597364075,79.991904503670369,77.839364106530226,75.6633128547119,73.487261602895174,71.3112103510799,69.135159099266062,66.940724758867859,64.731249393702655,62.521774028538985,60.312298663376851,58.102823298216222,55.88050075724346,53.648682266439515,51.416863775637154,49.185045284836463,46.953226794037327,44.712521704949452,42.465892077007837,40.219262449067855,37.972632821129508,35.726003193192874,33.473273604862214,31.216883948044007,28.960494291227423,26.704104634412683,24.447714977599539,22.187154884485242,19.924349111179655,17.661543337875937,15.398737564573995,13.1359317912738,10.87027047597747,8.6032342301048317,6.3361979842341309,4.0691617383652927,1.8021254924983743,-0.46688516719563644,-2.7367420309034105,-5.0065988946092634,-7.2764557583130776,-9.5463126220149981,-11.817564365006747,-14.089345218327228,-16.361126071645693,-18.632906924962032,-20.904687778276383,-23.177491200283665,-25.450635491407777,-27.723779782529633,-29.996924073649421,-32.270068364766971,-34.544003415246,-36.8181680506661,-39.092332686084021,-41.366497321499608,-43.640661956912922,-45.915480059702126,-48.19046153705424,-50.465443014404023,-52.740424491751355,-55.015405969096392,-57.290968108810418,-59.566653425980753,-61.842338743148524,-64.118024060313786,-66.393709377476569,-68.669933537603185,-70.946252793654452,-73.222572049703032,-75.498891305749055,-77.775210561792278,-80.052105375714049,-82.329082418404738,-84.606059461092926,-86.883036503778115,-89.1600135464607,-91.4374684241916,-93.714976399721124,-95.992484375247813,-98.2699923507714,-100.54750032629184,-102.82572007642571,-105.10399754528527,-107.3822750141418,-109.66055248299558,-111.93882995184639,-114.21761443508444,-116.49642560833169,-118.77523678157563,-121.05404795481601,-123.33285912805357,-125.61232618911453,-127.89181007416741,-130.1712939592166,-132.45077784426252,-134.73026172930489,0.21824244627465328,0.21824244627465328,0.21824244627465328,0.21824244627465328,0.21824244627465328,0.21824244627465328,0.21824244627465328,0.21824244627465328,0.21824244627465328,0.21824244627465328,0.21824244627465328,0.21824244627465328
DP 79,235.92460383383312,0.0038269931586798257,-341.48113929644626,-328.52618325738615,-315.57122721832485,-302.61627117926105,-289.66131514019594,-276.71484252060282,-264.09922646797133,-251.48361041533798,-238.86799436270252,-226.25237831006558,-213.67083151408374,-201.73660703512087,-189.80238255615629,-177.86815807719063,-165.93393359822312,-154.07152881098804,-143.09490927312183,-132.11828973525377,-121.14167019738403,-110.16505065951283,-99.305058053307619,-89.494718855830286,-79.684379658351347,-69.874040460871015,-60.063701263389127,-50.415744818612517,-41.904479921667296,-33.393215024720526,-24.881950127772335,-16.370685230822705,-8.0628990314150357,-0.90817160678001663,6.2465558178564162,13.401283242494241,20.556010667133481,27.475163311560895,33.283736411097692,39.092309510635879,44.900882610175373,50.709455709716195,56.261938318539158,60.790046861504486,65.318155404471185,69.846263947439112,74.374372490408334,78.638229665710512,81.991876584670862,85.345523503632421,88.699170422595316,92.052817341559589,95.145629398460869,97.455927007408221,99.766224616356908,102.0765222253069,104.38681983425809,106.44939168268037,107.85885982959113,109.26832797650322,110.6777961234166,112.08726427033098,113.26931931420555,113.92073661920479,114.57215392420525,115.2235712292069,115.87498853420978,116.32387124746769,116.35209930285541,116.38032735824439,116.40855541363462,116.43678346902591,116.28948452544191,115.81620212918662,115.34291973293233,114.86963733667923,114.39635494042734,113.77466220019024,112.90561514586707,112.03656809154512,111.1675210372244,110.29847398290492,109.3067345158871,108.13095353056589,106.95517254524577,105.77939155992698,104.60361057460933,103.32846505185796,101.91888294503778,100.50930083821885,99.099718731401083,97.69013662458454,96.201588482721334,94.616524639365963,93.031460796011672,91.446396952658716,89.861333109307,88.214596420959424,86.499693781956424,84.7847911429546,83.069888503954,81.354985864954784,75.973272360389586,74.1635673071506,72.353862253912837,70.5082598263567,68.630178175739417,66.7520965251234,64.874014874508831,62.9959332238954,61.091031975824677,59.164186959831156,57.237341943839,55.310496927848185,53.383651911858777,51.4370153790724,49.475750008529218,47.5144846379875,45.553219267447162,43.591953896908294,41.61624391558869,39.6309039661957,37.645564016804208,35.660224067414234,33.67488411802568,31.679102197893226,29.677054937397163,27.675007676902663,25.672960416409726,23.670913155918324,21.661375253570881,19.647803819759584,17.634232385949964,15.620660952141934,13.607089518335474,11.588172479556775,9.5666815561222851,7.5451906326895264,5.523699709258441,3.5022087858290738,1.4769094208666789,-0.5500221847484742,-2.5769537903619049,-4.6038853959735127,-6.6308170015834227,-8.6604709619065119,-10.691157575025857,-12.721844188143404,-14.752530801259043,-16.783217414372888,-18.815870581856743,-20.849179292246749,-22.882488002634787,-24.91579671302091,-26.949105423405097,-28.983863461051907,-31.019042288804677,-33.054221116555453,-35.0893999443042,-37.124578772050882,-39.160860291888213,-41.197417497774985,-43.233974703659662,-45.270531909542179,-47.307089115422635,-49.344524296967769,-51.382145725832494,-53.419767154694952,-55.457388583555215,-57.495010012413168,-59.533359875256217,-61.571838293371513,-63.610316711484316,-65.648795129594873,-67.687273547702944,-69.726435651172864,-71.765695431363483,-73.804955211551672,-75.844214991737289,-77.883474771920589,-79.923276986268675,-81.963139476773975,-84.0030019672765,-86.042864457776261,-88.082726948273489,-90.123307969639939,-92.163947257606,-94.204586545569441,-96.245225833530341,-98.285865121488655,-100.32701530175628,-102.36819237617296,-104.40936945058667,-106.45054652499745,-108.49172359940513,-110.53353513194369,-112.57536293878712,-114.61719074562755,-116.65901855246476,-118.700846359299,0.19574510980574425,0.19574510980574425,0.19574510980574425,0.19574510980574425,0.19574510980574425,0.19574510980574425,0.19574510980574425,0.19574510980574425,0.19574510980574425,0.19574510980574425,0.19574510980574425,0.19574510980574425
DP 80,185.88402409704031,0.0012597533645074131,-103.13902721213131,-99.484329821963641,-95.829632431795332,-92.174935041626355,-88.520237651456711,-84.867497661283636,-81.291097011064181,-77.71469636084403,-74.138295710623311,-70.561895060401937,-66.9934249153075,-63.575635866839377,-60.157846818370672,-56.740057769901483,-53.322268721431648,-49.921429246132767,-46.729636642742008,-43.537844039350631,-40.346051435958728,-37.154258832566242,-33.990520116475267,-31.07926903779002,-28.168017959104283,-25.256766880417977,-22.34551580173115,-19.474269478222261,-16.883059465998674,-14.291849453774566,-11.700639441549955,-9.1094294293248463,-6.5698002426788022,-4.3224656513027515,-2.075131059926214,0.17220353145081335,2.4195381228283326,4.6051628761756911,6.49986648858722,8.3945701009992337,10.28927371341172,12.183977325824666,14.009083805147478,15.555798462908218,17.102513120669421,18.649227778431083,20.195942436193224,21.66788227727319,22.8822612752019,24.096640273131072,25.311019271060683,26.525398268990749,27.662676136888624,28.568647699614669,29.474619262341132,30.380590825068083,31.286562387795449,32.115813262574854,32.742797868499828,33.369782474425207,33.996767080351013,34.623751686277238,35.176749370458893,35.557108572793794,35.937467775129143,36.3178269774649,36.698186179801063,37.009158688267611,37.176018353002078,37.342878017736979,37.509737682472277,37.676597347208045,37.779999277663741,37.7655494164288,37.751099555194287,37.736649693960182,37.7221998327265,37.651021131251241,37.485292932820215,37.319564734389672,37.153836535959492,36.988108337529738,36.772710115392,36.482805683975577,36.192901252559565,35.902996821144029,35.613092389728806,35.280519200957691,34.890216744446285,34.499914287935333,34.109611831424786,33.719309374914673,33.292990159948772,32.822649705904894,32.352309251861449,31.881968797818427,31.41162834377586,30.911374676188647,30.378058440487845,29.844742204787497,29.311425969087587,28.778109733388124,27.055790252721138,26.473525615062698,25.891260977404734,25.289249030058681,24.669370113654423,24.049491197250614,23.429612280847333,22.809733364444483,22.174125046978251,21.525646949231138,20.877168851484512,20.228690753738366,19.5802126559927,18.919354213154744,18.249344876952367,17.579335540750506,16.909326204549135,16.239316868348279,15.559669645783345,14.873597013811949,14.187524381841078,13.501451749870732,12.815379117900925,12.121878506492676,11.423920995085487,10.725963483678848,10.028005972272775,9.3300484608672267,8.6264173892876563,7.9197312412652225,7.2130450932433678,6.5063589452220816,5.7996727972013407,5.0886869270710147,4.3756307601601767,3.6625745932499565,2.9495184263403371,2.2364622594313297,1.520168198688451,0.80248642543871218,0.084804652189590185,-0.63287712105888194,-1.3505588943067457,-2.0706678937460139,-2.7916975968332007,-3.512727299919741,-4.2337570030056062,-4.95478670609083,-5.6776322902085337,-6.4010831908884942,-7.1245340915677344,-7.8479849922463067,-8.5714358929241659,-9.2962471421257291,-10.021453347811898,-10.746659553497345,-11.471865759182068,-12.197071964866065,-12.923303427233234,-13.649791215884136,-14.37627900453429,-15.102766793183665,-15.829254581832279,-16.556525123894559,-17.283961713527219,-18.011398303159037,-18.738834892790067,-19.466271482420311,-20.194314578449536,-20.922464711763514,-21.650614845076632,-22.37876497838894,-23.10691511170036,-23.835564644795234,-24.564285526110282,-25.293006407424471,-26.021727288737758,-26.750448170050166,-27.479551292920323,-28.208696891088245,-28.937842489255196,-29.666988087421164,-30.396133685586175,-31.125679018605748,-31.855256766643333,-32.584834514679947,-33.314412262715685,-34.04399001075047,-34.773861475189769,-35.503748401308485,-36.233635327426178,-36.963522253542749,-37.693409179658282,-38.423618569574828,-39.153836230918962,-39.884053892261967,-40.614271553603913,-41.344489214944758,0.070150446976373751,0.070150446976373751,0.070150446976373751,0.070150446976373751,0.070150446976373751,0.070150446976373751,0.070150446976373751,0.070150446976373751,0.070150446976373751,0.070150446976373751,0.070150446976373751,0.070150446976373751
DP 81,295.41576233115995,0.0038522704063869363,-368.95739852514811,-353.97020626460238,-338.98301400405563,-323.9958217435065,-309.00862948295594,-294.03336600485869,-279.52332955261011,-265.01329310036004,-250.50325664810831,-235.99322019585483,-221.53060675194686,-207.96903943159842,-194.40747211124886,-180.84590479089755,-167.28433747054478,-153.82112826565998,-141.57101488080707,-129.32090149595257,-117.07078811109648,-104.82067472623889,-92.726740211342445,-82.038430288325841,-71.350120365307831,-60.6618104422885,-49.973500519267681,-39.496630056989915,-30.499851808325261,-21.503073559659256,-12.506295310991852,-3.5095170623230949,5.2309953827201667,12.51931879218564,19.807642201652445,27.095965611120569,34.384289020589989,41.387025048697595,47.04340513949392,52.699785230291468,58.356165321090359,64.012545411890443,69.371380085044308,73.540019025443854,77.708657965844679,81.8772969062467,86.04593584664994,89.921463993674323,92.787375983427523,95.653287973181989,98.5191999629376,101.38511195269437,103.97577748318028,105.74069322920835,107.50560897523758,109.27052472126793,111.03544046729944,112.55242633656469,113.41577037267699,114.27911440879036,115.14245844490488,116.00580248102059,116.65387507634928,116.79964086060757,116.94540664486682,117.09117242912731,117.23693821338897,117.20180560470976,116.79095568800834,116.38010577130788,115.96925585460873,115.55840593791049,114.99994477461014,114.16734445265341,113.33474413069786,112.50214380874343,111.6695434867901,110.71965157247529,109.57427071448232,108.42888985649054,107.28350899849971,106.13812814051019,104.90177049986706,103.52894553543639,102.15612057100689,100.78329560657859,99.4104706421515,97.968616989014819,96.433370045349236,94.89812310168476,93.362876158021407,91.827629214359021,90.241051342150413,88.591734590194562,86.9424178382398,85.293101086286313,83.6437843343338,81.956995152744156,80.228788329568985,78.5005815063949,76.772374683222054,75.0441678600504,69.7250604438198,67.943058740269819,66.161057036720976,64.360043388369633,62.54182811433418,60.723612840299985,58.905397566267041,57.087182292235291,55.255713042452506,53.4133994029136,51.571085763375983,49.728772123839619,47.886458484304534,46.03501561922387,44.176824915626469,42.318634212030375,40.46044350843556,38.602252804842159,36.737835453059446,34.869266904392781,33.000698355727515,31.132129807063613,29.263561258401118,27.390774457711188,25.515456642011323,23.640138826312818,21.764821010615805,19.88950319492016,18.01133401787208,16.131629450940398,14.251924884010277,12.372220317081648,10.492515750154453,8.6108748311305927,6.72830156731635,4.8457283035037069,2.9631550396926238,1.0805817758831284,-0.8033263236501369,-2.6878065136597216,-4.5722867036677108,-6.4567668936740077,-8.3412470836787325,-10.226674893759034,-12.112462158290411,-13.998249422820102,-15.884036687348033,-17.769823951874326,-19.656316445451584,-21.543044024265892,-23.429771603078354,-25.316499181889043,-27.203226760697934,-29.090513739080603,-30.977963130612331,-32.865412522142236,-34.7528619136702,-36.640311305196363,-38.5282383516342,-40.416284817442012,-42.304331283247905,-44.192377749051772,-46.080424214853643,-47.96890967984136,-49.857488270896447,-51.746066861949451,-53.634645453000374,-55.523224044049243,-57.412221741384677,-59.301293403311881,-61.190365065236833,-63.07943672715956,-64.9685083890802,-66.858039314105909,-68.747635853105763,-70.637232392103456,-72.526828931098891,-74.416425470091951,-76.30640663690707,-78.196430544184082,-80.086454451458721,-81.976478358730674,-83.866502266000268,-85.757108725647086,-87.647762425221259,-89.53841612479296,-91.42906982436223,-93.319723523929113,-95.210792722701754,-97.101883793984939,-98.992974865265367,-100.88406593654304,-102.77515700781788,-104.6667881293953,-106.55843310364919,-108.45007807790002,-110.3417230521482,-112.23336802639339,0.18105517938300078,0.18105517938300078,0.18105517938300078,0.18105517938300078,0.18105517938300078,0.18105517938300078,0.18105517938300078,0.18105517938300078,0.18105517938300078,0.18105517938300078,0.18105517938300078,0.18105517938300078
DP 82,120.000344750088,0.001647249266629803,-111.18593983486724,-107.66753521842391,-104.14913060197945,-100.63072598553417,-97.11232136908788,-93.595246051805518,-90.130013904534536,-86.6647817572626,-83.199549609989816,-79.73431746271612,-76.274540571821561,-72.9184145834221,-69.562288595021911,-66.20616260662095,-62.850036618219036,-59.505784457540258,-56.307977668560206,-53.110170879579272,-49.912364090597549,-46.714557301614974,-43.536913225605907,-40.540735472168755,-37.544557718730907,-34.548379965292291,-31.552202211852919,-28.585710528279506,-25.827023578541816,-23.068336628803404,-20.309649679064286,-17.550962729324429,-14.832050043477501,-12.338527359366893,-9.8450046752555842,-7.3514819911435829,-4.857959307030888,-2.4141829228686058,-0.20492749680555403,2.00432792925818,4.2135833553225854,6.4228387813876608,8.5731085406399785,10.48743284494312,12.401757149246897,14.316081453551361,16.230405757856456,18.077749087553951,19.694377357548952,21.311005627544585,22.927633897540833,24.544262167537756,26.087536425690967,27.410745874910145,28.733955324129916,30.05716477335033,31.380374222571355,32.625706901955638,33.6657254204966,34.705743939038179,35.745762457580348,36.785780976123149,37.745338956427808,38.517153145769164,39.288967335111117,40.060781524453731,40.8325957137969,41.523259808111355,42.045379037243151,42.567498266375573,43.0896174955086,43.611736724642221,44.05376244722035,44.347040923187031,44.64031939915435,44.933597875122288,45.226876351090809,45.442638513554748,45.5292048663298,45.6157712191055,45.7023375718818,45.78890392465874,45.801779260515765,45.704116329653608,45.606453398792119,45.5087904679312,45.411127537070939,45.244551072046306,44.9847371163795,44.72492316071331,44.465109205047689,44.20529524938275,43.882005034173218,43.48113139066556,43.08025774715852,42.679384103652133,42.27851046014635,41.819984548943125,41.297736563051863,40.775488577161269,40.25324059127135,39.730992605382085,37.905829640133618,37.280213855806274,36.654598071479583,35.983210340471757,35.2704090717211,34.557607802971148,33.844806534221874,33.132005265473296,32.3791254516791,31.593453412253556,30.80778137282871,30.022109333404597,29.236437293981179,28.416043077140444,27.569984071429978,26.723925065720284,25.877866060011293,25.031807054303076,24.155963971968504,23.260264369346018,22.364564766724321,21.468865164103409,20.57316556148329,19.652153765417665,18.715954270479319,17.779754775541782,16.843555280605084,15.907355785669189,14.949829930110354,13.98082033947937,13.011810748849266,12.042801158219998,11.073791567591529,10.086957136161413,9.0915401243719991,8.0961231125835038,7.1007061007958931,6.1052890890092,5.0950825459387907,4.0785374326156205,3.0619923192933687,2.0454472059720912,1.0289020926517194,0.00016625886003091692,-1.0331938002518817,-2.0665538593628265,-3.0999139184727533,-4.1332739775817329,-5.1766261122876722,-6.2233090647868217,-7.2699920172849044,-8.31667496978197,-9.3633579222779861,-10.41819444954282,-11.475398243118384,-12.532602036692866,-13.589805830266274,-14.647009623838569,-15.710847873772845,-16.776344816183691,-17.841841758593404,-18.907338701001969,-19.972835643409383,-21.043728996884852,-22.11576710544341,-23.187805214000775,-24.259843322556939,-25.331881431111889,-26.408316824474721,-27.485528258171541,-28.562739691867108,-29.639951125561396,-30.717162559254366,-31.798009868821161,-32.879376628502158,-33.960743388181861,-35.042110147860171,-36.12347690753721,-37.207826833198354,-38.292508253075532,-39.377189672951296,-40.461871092825568,-41.546552512698383,-42.633891054598735,-43.721445065976191,-44.808999077352205,-45.896553088726883,-46.984107100100154,-48.073911951435591,-49.163835290425524,-50.253758629413909,-51.343681968400681,-52.433605307385811,-53.525696907567067,-54.617844125207782,-55.709991342846749,-56.802138560484181,-57.894285778119894,0.10550646737018107,0.10550646737018107,0.10550646737018107,0.10550646737018107,0.10550646737018107,0.10550646737018107,0.10550646737018107,0.10550646737018107,0.10550646737018107,0.10550646737018107,0.10550646737018107,0.10550646737018107
DP 83,107.91245081538582,0.0055328835656804857,-353.59374590635514,-342.68043651149219,-331.76712711662628,-320.85381772175708,-309.94050832688447,-299.03100570050958,-288.26996848495509,-277.50893126939758,-266.74789405383683,-255.98685683827304,-245.24148209715841,-234.7936973315027,-224.34591256584474,-213.898127800184,-203.4503430345205,-193.03676664412728,-183.04509785999042,-173.0534290758506,-163.06176029170808,-153.07009150756275,-143.13679228947697,-133.72882468311241,-124.32085707674537,-114.91288947037577,-105.50492186400371,-96.183401310362072,-87.46701666271052,-78.750632015056425,-70.034247367399857,-61.317862719740894,-52.7181393140245,-44.779503630632043,-36.840867947237122,-28.902232263839846,-20.963596580440225,-13.172086164549004,-6.0741742420359275,1.023737680479484,8.1216496029971861,15.219561525517173,22.141369153163257,28.358751278517879,34.576133403874714,40.793515529233787,47.010897654595084,53.026204778599173,58.34546729776293,63.664729816928826,68.983992336096946,74.303254855267184,79.398665863311919,83.822513874495755,88.246361885681878,92.67020989687,97.094057908060549,101.27729866394677,104.82620293131272,108.37510719868079,111.92401146605091,115.47291573342316,118.76991804096667,121.47914117222204,124.1883643034795,126.89758743473884,129.60681056600052,132.05838420947825,133.97483219269012,135.89128017590423,137.8077281591201,139.72417614233814,141.38254452326782,142.56161524452551,143.74068596578545,144.91975668704731,146.09882740831139,147.02423276682475,147.52685612695743,148.02947948709232,148.53210284722911,149.03472620736815,149.29228683676655,149.18224757915326,149.07220832154218,148.96216906393306,148.85212980632602,148.50905953147691,147.85070681533452,147.19235409919432,146.53400138305614,145.87564866692009,144.99892082074837,143.855285450964,142.7116500811818,141.56801471140173,140.424379341624,139.07885689337473,137.51019207784881,135.94152726232505,134.37286244680351,132.8041976312843,127.17666223979126,125.23938034946627,123.30209845914388,121.19852377952292,118.94449072517,116.6904576708193,114.43642461647127,112.18239156212537,109.77995878119829,107.25610549181333,104.73225220243087,102.20839891305096,99.6845456236735,97.029613836767837,94.277795788266559,91.525977739767939,88.774159691271734,86.022341642778187,83.155853405409971,80.2129165690009,77.2699797325945,74.3270428961908,71.384106059789815,68.341752221211365,65.239746677807133,62.1377411344056,59.035735591007025,55.933730047611171,52.746252164506281,49.512749470953274,46.279246777403365,43.045744083856405,39.8122413903124,36.505824642824727,33.164300107600717,29.822775572379836,26.481251037162053,23.139726501947418,19.736442879854792,16.306690243740075,12.876937607628555,9.4471849715203788,6.0174323354153456,2.5357023667406846,-0.96574381952075528,-4.4671900057788454,-7.968636192033431,-11.470082378284705,-15.015032779606631,-18.574485134225107,-22.133937488839877,-25.693389843451161,-29.252842198058779,-32.848548893671463,-36.454781485289125,-40.0610140769031,-43.667246668513307,-47.2734792601197,-50.909840210667682,-54.553733606918485,-58.197627003165444,-61.84152039940836,-65.485413795647347,-69.154334038646809,-72.828563293448454,-76.502792548245836,-80.177021803039068,-83.851251057828136,-87.546309193119427,-91.2450432448216,-94.943777296519158,-98.642511348212537,-102.34124539990138,-106.05752971373128,-109.77632139744821,-113.4951130811607,-117.21390476486857,-120.93269644857182,-124.66624394979027,-128.40143114125402,-132.13661833271289,-135.87180552416663,-139.60699271561552,-143.35539919148985,-147.10487763631352,-150.85435608113232,-154.60383452594652,-158.35331297075567,-162.11431921196615,-165.8759322939944,-169.63754537601704,-173.39915845803404,-177.16077154004569,-180.93349151849534,-184.70649639683143,-188.47950127516157,-192.25250615348605,-196.02551103180457,0.36518538344878765,0.36518538344878765,0.36518538344878765,0.36518538344878765,0.36518538344878765,0.36518538344878765,0.36518538344878765,0.36518538344878765,0.36518538344878765,0.36518538344878765,0.36518538344878765,0.36518538344878765
DP 84,268.23365270691272,0.0010233145766199718,-95.184306743397372,-91.431334306975714,-87.678361870553758,-83.925389434131162,-80.172416997708154,-76.422190022656011,-72.779037079104938,-69.135884135553454,-65.4927311920015,-61.849578248449006,-58.217390468732,-54.793542874779462,-51.369695280826456,-47.945847686873073,-44.522000092919249,-41.121064098254223,-38.0027073823329,-34.884350666411208,-31.76599395048904,-28.647637234566464,-25.566034541343658,-22.815221526457258,-20.064408511570448,-17.313595496683277,-14.562782481795693,-11.862367520196573,-9.5147427425651045,-7.1671179649332677,-4.8194931873010427,-2.4718684096684518,-0.18625897466475574,1.7479262775988078,3.6821115298627323,5.616296782127022,7.5504820343916625,9.4143497939972267,10.946717004499392,12.479084215001906,14.011451425504776,15.543818636007979,17.001499526436998,18.160431606850356,19.319363687264023,20.478295767678063,21.6372278480924,22.721026558878631,23.546029395748587,24.371032232618859,25.196035069489426,26.021037906360352,26.77387875669956,27.310230919109916,27.846583081520581,28.382935243931581,28.919287406342882,29.3890680121521,29.683339498766756,29.977610985381766,30.271882471997039,30.566153958612638,30.801154486634147,30.897854243816564,30.99455400099928,31.091253758182319,31.187953515365667,31.233527362633097,31.172915140850829,31.11230291906897,31.051690697287327,30.991078475506008,30.887603597204336,30.704525484957149,30.521447372710231,30.338369260463644,30.155291148217348,29.93719191036659,29.66072324711206,29.384254583857814,29.10778592060386,28.831317257350193,28.52689708188943,28.180548977615942,27.834200873342759,27.487852769069868,27.141504664797285,26.77331998215935,26.375591207846398,25.977862433533772,25.580133659221413,25.182404884909428,24.767948149147294,24.33304577580267,23.898143402458381,23.463241029114435,23.02833865577076,22.580850521154822,22.119451557844332,21.658052594534119,21.19665363122423,20.735254667914703,19.304488167101287,18.824461324224163,18.344434481347335,17.857618736355267,17.364660529126677,16.871702321898418,16.378744114670514,15.885785907442935,15.387946966367569,14.88611461372,14.384282261072777,13.882449908425913,13.380617555779402,12.875319235917727,12.367459057226329,11.859598878535325,11.351738699844651,10.843878521154368,10.333583057263334,9.8216640315409709,9.309745005818991,8.7978259800973664,8.285906954376145,7.772291250233998,7.2576575133799679,6.7430237765263241,6.2283900396731,5.71375630282025,5.1979469306630817,4.6815045070157177,4.1650620833687846,3.6486196597222613,3.132177236076132,2.6149211701815123,2.0972733392183738,1.5796255082556707,1.0619776772934002,0.54432984633156456,0.026115937879106273,-0.49234058285565868,-1.0107971035899834,-1.5292536243238448,-2.0477101450572728,-2.5665662642442229,-3.0855739604677992,-3.6045816566909181,-4.1235893529135517,-4.6425970491357305,-5.1618946068725622,-5.6812887887670405,-6.2006829706610009,-6.7200771525544853,-7.2394713344474644,-7.7590848227072042,-8.2787619832316466,-8.79843914375556,-9.3181163042789681,-9.8377934648018446,-10.357646208288953,-10.877542849591221,-11.397439490892966,-11.917336132194158,-12.437232773494799,-12.957279792552631,-13.477358711645046,-13.997437630736874,-14.51751654982813,-15.037595468918822,-15.557809349274661,-16.07804704782464,-16.598284746374016,-17.118522444922796,-17.638760143470961,-18.159137233925506,-18.679534239014757,-19.199931244103404,-19.720328249191411,-20.240725254278775,-20.761236664796005,-21.28176078822856,-21.802284911660429,-22.322809035091591,-22.843333158522096,-23.364023541064743,-23.884727405774289,-24.40543127048316,-24.9261351351914,-25.446838999898944,-25.967661124208078,-26.488489473882641,-27.009317823556472,-27.530146173229536,-28.050974522901836,-28.571954759313158,-29.092938891727936,-29.613923024141961,-30.134907156555119,-30.65589128896756,0.049897747738512854,0.049897747738512854,0.049897747738512854,0.049897747738512854,0.049897747738512854,0.049897747738512854,0.049897747738512854,0.049897747738512854,0.049897747738512854,0.049897747738512854,0.049897747738512854,0.049897747738512854
DP 85,172.19967384563122,0.0016885027487869631,-134.12007059899938,-129.46600819673495,-124.81194579446949,-120.15788339220327,-115.50382098993619,-110.8520990418409,-106.29165569137169,-101.73121234090175,-97.1707689904307,-92.610325639959115,-88.059388441449684,-83.689069927308736,-79.318751413166908,-74.948432899024425,-70.5781143848811,-66.228189692344642,-62.129791369833356,-58.031393047321316,-53.932994724808552,-49.834596402294991,-45.770131509072684,-42.011070686906734,-38.252009864740074,-34.492949042572747,-30.733888220404658,-27.023535380680258,-23.654142101213981,-20.284748821747041,-16.915355542279396,-13.545962262811033,-10.239869315479785,-7.2924822390757837,-4.3450951626711056,-1.3977080862657647,1.5496789901402481,4.4206420208342712,6.9313161367751484,9.4419902527166748,11.952664368658864,14.463338484601675,16.886934005622518,18.962211031569669,21.037488057517464,23.112765083465877,25.188042109414923,27.168700708759339,28.823447419378724,30.478194129998759,32.132940840619391,33.787687551240651,35.34367044807334,36.603358169432127,37.863045890791525,39.122733612151549,40.382421333512156,41.542535752062548,42.440135313464921,43.337734874867891,44.235334436271536,45.132933997675636,45.933162745415167,46.506189860070272,47.079216974725938,47.652244089382194,48.225271204039089,48.705636180870378,48.993546330362342,49.28145647985491,49.569366629348018,49.857276778841708,50.059136956752425,50.101187720711636,50.143238484671429,50.185289248631783,50.227340012592713,50.191234676343456,50.02486720310317,49.85849972986346,49.692132256624319,49.525764783385775,49.289834126017,48.949557048655436,48.609279971294477,48.269002893934044,47.928725816574193,47.527673299306763,47.044393835208304,46.561114371110463,46.0778349070132,45.594555442916487,45.0590793068755,44.45980614208311,43.860532977291371,43.261259812500185,42.661986647709568,42.018588234090466,41.326418930552009,40.634249627014128,39.942080323476873,39.249911019940228,36.989606233064549,36.223918040042214,35.458229847020476,34.662333026557967,33.83910404691521,33.0158750672731,32.192646087631623,31.369417107990813,30.521674543317147,29.653874987789308,28.786075432262109,27.918275876735585,27.050476321209747,26.163016562450522,25.261025025944413,24.359033489439007,23.457041952934262,22.555050416430245,21.63746152642857,20.709474155048831,19.781486783669848,18.853499412291583,17.925512040914043,16.985273504761839,16.0376840844662,15.090094664171318,14.142505243877213,13.194915823583834,12.237790468170738,11.275530239793969,10.313270011418,9.3510097830428069,8.3887495546683581,7.4191266380747942,6.4459586203496073,5.4727906026252606,4.4996225849017408,3.5264545671790586,2.5476408921108966,1.5664075733761338,0.58517425464221628,-0.39605906409080766,-1.3772923828229959,-2.3628310657850791,-3.3500028740679593,-4.3371746823499482,-5.3243464906310125,-6.3115182989111878,-7.3019616950886705,-8.2934956617958289,-9.2850296285020146,-10.276563595207261,-11.268097561911549,-12.26211488322679,-13.25685320874827,-14.251591534268744,-15.246329859788231,-16.241068185306716,-17.237696119821667,-18.234796478910912,-19.23189683799913,-20.228997197086276,-21.226097556172366,-22.224646725107551,-23.2235032339423,-24.222359742775922,-25.221216251608492,-26.220072760439912,-27.22005077318223,-28.220226710849712,-29.220402648515996,-30.220578586181151,-31.220754523845144,-32.221838832198777,-33.223052917605365,-34.224267003010759,-35.225481088414924,-36.226695173817895,-37.228606480466162,-38.230595263462938,-39.232584046458413,-40.2345728294525,-41.236561612445293,-42.239236262100547,-43.241966529573716,-44.244696797045506,-45.24742706451606,-46.250157331985378,-47.253402973699188,-48.256675745499493,-49.259948517298305,-50.263221289095711,-51.266494060891553,-52.270308996984078,-53.274137839979758,-54.27796668297384,-55.281795525966523,-56.285624368957642,0.096510750010550442,0.096510750010550442,0.096510750010550442,0.096510750010550442,0.096510750010550442,0.096510750010550442,0.096510750010550442,0.096510750010550442,0.096510750010550442,0.096510750010550442,0.096510750010550442,0.096510750010550442
DP 86,88.77255551231687,0.0024551530343832361,-140.66275009726797,-136.50575467815992,-132.3487592590505,-128.1917638399396,-124.03476842082743,-119.879031660671,-115.77238307572243,-111.66573449077248,-107.55908590582125,-103.45243732086888,-99.350992649525651,-95.348423320546587,-91.345853991566344,-87.343284662585077,-83.340715333602432,-79.349573374799135,-75.499370421726269,-71.649167468652053,-67.798964515576714,-63.948761562500081,-60.11820866295664,-56.464508102569127,-52.810807542180534,-49.157106981790747,-45.503406421399809,-41.879085335377567,-38.460422791528636,-35.041760247678624,-31.623097703827462,-28.204435159975173,-24.825875984304304,-21.674571755410987,-18.523267526516616,-15.37196329762115,-12.220659068724634,-9.1206074911625947,-6.262178323873016,-3.4037491565823865,-0.54531998929072623,2.3131091780019606,5.1092585385706144,7.6562857288609605,10.20331291915231,12.750340109444684,15.297367299738029,17.771720003153931,19.99574642097808,22.219772838803234,24.44379925662934,26.667825674456441,28.809852397122594,30.705876934022388,32.601901470923139,34.497926007824837,36.393950544727495,38.200063424643119,39.769133391209152,41.338203357776187,42.907273324344104,44.476343290913029,45.949248055585329,47.197764319283444,48.446280582982496,49.694796846682578,50.943313110383485,52.091210860560736,53.030128771703396,53.969046682846951,54.907964593991423,55.846882505136918,56.682568273142181,57.326534415995745,57.970500558850212,58.614466701705744,59.25843284456213,59.798347953391662,60.164842049504017,60.531336145617274,60.897830241731548,61.26432433784673,61.527622488098324,61.636124281005358,61.744626073913317,61.853127866822327,61.961629659732225,61.969288699058168,61.840511181941984,61.711733664826845,61.582956147712643,61.454178630599493,61.228195514053411,60.883403511982593,60.538611509912769,60.193819507843806,59.849027505776,59.411714825413711,58.872140606903471,58.332566388394262,57.7929921698861,57.253417951378964,55.199541189633571,54.485904999591121,53.772268809549679,52.977661284553506,52.109792522503085,51.2419237604538,50.374054998405668,49.506186236358616,48.563752831064043,47.560310708943256,46.556868586823661,45.553426464705147,44.549984342587784,43.478534607819917,42.356817258805528,41.235099909792382,40.113382560780359,38.991665211769558,37.808475675169987,36.584303711775256,35.360131748381761,34.135959784989531,32.91178782159858,31.632516262838564,30.3201841135659,29.007851964294471,27.695519815024429,26.383187665755656,25.02185293573816,23.634131488121604,22.246410040506483,20.85868859289269,19.470967145280248,18.039978768836377,16.588157561528327,15.13633635422171,13.684515146916533,12.232693939612824,10.742920055590892,9.2368802262153,7.73084039684118,6.2248005674686206,4.7187607380975249,3.1796227639083336,1.6279298894826417,0.076237015058507274,-1.4754558593639979,-3.0271487337849643,-4.6075654602870451,-6.1975571661496414,-7.7875488720105279,-9.3775405778697714,-10.967532283727332,-12.582359924847399,-14.204398301689988,-15.826436678530856,-17.448475055369975,-19.07051343220731,-20.713981478384394,-22.362807195089356,-24.011632911792478,-25.660458628493739,-27.309284345193216,-28.976604726807167,-30.647848431054271,-32.319092135299357,-33.990335839542574,-35.661579543783773,-37.348828869446315,-39.038902894519012,-40.7289769195896,-42.419050944658167,-44.109124969724661,-45.813195856674746,-47.51926644652039,-49.225337036363989,-50.931407626205363,-52.637478216044634,-54.355833223947982,-56.075553296204859,-57.795273368459306,-59.514993440711407,-61.234713512961221,-62.965689907234676,-64.69757909128748,-66.429468275338,-68.161357459386366,-69.893246643432363,-71.635390314200478,-73.378073796821283,-75.120757279439616,-76.863440762055248,-78.606124244668408,-80.358785861743215,-82.1117034251498,-83.864620988553654,-85.617538551954922,-87.3704561153534,0.1703999293118712,0.1703999293118712,0.1703999293118712,0.1703999293118712,0.1703999293118712,0.1703999293118712,0.1703999293118712,0.1703999293118712,0.1703999293118712,0.1703999293118712,0.1703999293118712,0.1703999293118712
DP 87,229.93734871596507,0.0040707314870295436,-360.08084091981192,-346.52330448709932,-332.96576805438497,-319.40823162166851,-305.85069518895,-292.30184376882693,-279.09171112368523,-265.88157847854143,-252.671445833396,-239.46131318824843,-226.28609498921796,-213.77425786676241,-201.26242074430522,-188.75058362184615,-176.23874649938571,-163.8006331303682,-152.2717886784524,-140.74294422653483,-129.21409977461548,-117.68525532269445,-106.27639955167332,-95.94745325024364,-85.618506948812211,-75.289560647379147,-64.9606143459445,-54.799208671209115,-45.810600052286063,-36.821991433361518,-27.833382814435335,-18.844774195507636,-10.066820535545723,-2.4825915839642483,5.1016373676187365,12.68586631920323,20.270095270789184,27.609491245961529,33.794661394093723,39.979831542227387,46.165001690362509,52.35017183849908,58.268027285317878,63.116611293416895,67.965195301517369,72.813779309619221,77.662363317722409,82.2337967226433,85.850588629225328,89.467380535808758,93.084172442393452,96.700964348979653,100.04278037950068,102.55965838541101,105.07653639132285,107.593414397236,110.11029240315047,112.36458148168254,113.92658163522299,115.48858178876475,117.0505819423077,118.61258209585206,119.93212896551717,120.68594386714354,121.43975876877133,122.1935736704003,122.94738857203073,123.48396660942409,123.56935407233316,123.65474153524362,123.7401289981553,123.82551646106837,123.72145004023913,123.26553557606159,122.80962111188528,122.35370664771028,121.89779218353644,121.28064920992381,120.39478799004631,119.50892677017006,118.62306555029508,117.73720433042132,116.71716166592192,115.49584366373897,114.27452566155716,113.0532076593767,111.83188965719759,110.50115652425328,109.02238872214674,107.5436209200416,106.06485311793762,104.58608531583518,103.01975481168324,101.34640138802156,99.673047964361047,97.999694540701981,96.326341117044166,94.5841127056299,92.765757937191992,90.947403168755471,89.129048400320272,87.310693631886508,81.589028956151651,79.664033837953284,77.739038719756323,75.773367650548835,73.770893798096722,71.768419945645917,69.765946093196646,67.7634722407488,65.730384072379451,63.6722473012204,61.614110530062781,59.555973758906696,57.497836987752059,55.4169408744297,53.319222264507545,51.221503654586954,49.123785044667805,47.026066434750277,44.9116146222679,42.786007077802829,40.660399533339358,38.534791988877451,36.409184444417136,34.271392747408939,32.126290374607251,29.981188001807244,27.836085629008892,25.69098325621216,23.537079355720746,21.378436043097537,19.219792730476151,17.061149417856463,14.902506105238459,12.737540988350144,10.569531951252042,8.4015229141557715,6.2335138770613181,4.0655048399687024,1.8929666002864676,-0.28151278737656044,-2.4559921750377423,-4.63047156269697,-6.80495095035437,-8.9826813902213765,-11.161645030207076,-13.34060867019083,-15.519572310172531,-17.69853595015234,-19.879852538826356,-22.061953473384186,-24.2440544079399,-26.426155342493583,-28.608256277045143,-30.792089004116374,-32.976424530780882,-35.16076005744322,-37.345095584103383,-39.529431110761358,-41.715077074554927,-43.901050663113558,-46.087024251670016,-48.272997840224079,-50.458971428775925,-52.645977883572577,-54.8332034430408,-57.020429002506617,-59.207654561970038,-61.394880121430987,-63.582951629848345,-65.771172432780588,-67.959393235710266,-70.147614038637471,-72.335834841562018,-74.524834665301469,-76.713945786141764,-78.903056906979543,-81.092168027814523,-83.281279148646917,-85.471004352345,-87.660797793919386,-89.850591235490882,-92.040384677059407,-94.230178118625091,-96.420765995183189,-98.61141829350484,-100.80207059182356,-102.99272289013956,-105.18337518845289,-107.37459288464238,-109.56584034423737,-111.75708780382912,-113.94833526341759,-116.13958272300292,-118.33152540492566,-120.52348591979876,-122.71544643466861,-124.90740694953504,-127.09936746439816,0.21018087928481327,0.21018087928481327,0.21018087928481327,0.21018087928481327,0.21018087928481327,0.21018087928481327,0.21018087928481327,0.21018087928481327,0.21018087928481327,0.21018087928481327,0.21018087928481327,0.21018087928481327
DP 88,181.27514099472441,0.001143062273807555,-92.673696505002169,-89.4124955060741,-86.151294507145366,-82.890093508216125,-79.62889250928616,-76.369402365477825,-73.176636218281757,-69.983870071085164,-66.791103923887931,-63.598337776690222,-60.41250832358449,-57.358477369567751,-54.304446415550515,-51.250415461532796,-48.196384507514537,-45.157198590469058,-42.301103333655284,-39.445008076840985,-36.588912820026167,-33.732817563210865,-30.901336391059246,-28.2913843074388,-25.681432223817897,-23.071480140196513,-20.461528056574647,-17.886753320048609,-15.5582226731994,-13.22969202634973,-10.901161379499595,-8.5726307326489835,-6.2895769613274553,-4.264228350357457,-2.238879739387003,-0.21353112841610461,1.8118174825552398,3.782591737040403,5.4960839346995032,7.2095761323590368,8.923068330019003,10.636560527679402,12.288291079005965,13.692972126105422,15.097653173205288,16.5023342203056,17.907015267406312,19.245088437587142,20.353731677997356,21.462374918407978,22.571018158819033,23.679661399230458,24.719341248600323,25.552128317445533,26.384915386291173,27.217702455137186,28.0504895239836,28.81435151606356,29.39649957307649,29.978647630089849,30.560795687103585,31.142943744117687,31.658311747608426,32.017857522169088,32.377403296730108,32.736949071291512,33.096494845853321,33.393105225733223,33.559001801666177,33.72489837759948,33.890794953533145,34.056691529467216,34.164734703580578,34.165334283350035,34.165933863119875,34.166533442890092,34.1671330226607,34.115738546374892,33.977685999451893,33.83963345252932,33.701580905607116,33.563528358685275,33.379700689262584,33.127209254409642,32.87471781955707,32.622226384704895,32.369734949853083,32.077698014076951,31.732157462253696,31.386616910430828,31.041076358608347,30.69553580678626,30.316421016849748,29.896270341779051,29.47611966670873,29.055968991638853,28.635818316569349,28.187617614347712,27.708413692364246,27.229209770381249,26.750005848398636,26.270801926416432,24.717747727715462,24.1923667453389,23.666985762962746,23.122861081146198,22.561777476659831,22.000693872173862,21.439610267688366,20.878526663203278,20.302420194042568,19.714022031969588,19.125623869897051,18.537225707824952,17.948827545753293,17.3485307616542,16.739439148287779,16.130347534921867,15.521255921556387,14.912164308191388,14.293751240073833,13.669123721942418,13.04449620381147,12.419868685681017,11.795241167551048,11.16338401936147,10.527188983799945,9.890993948238906,9.2547989126784049,8.6186038771183764,7.9768520051289968,7.3321079096412172,6.6873638141539757,6.0426197186672539,5.3978756231810232,4.74889418818212,4.0978724933413977,3.4468507985012384,2.7958291036616285,2.1448074088225804,1.4905756939888863,0.83496821295577328,0.17936073192322263,-0.47624674910873233,-1.1318542301401309,-1.7898815808236246,-2.4488268446477028,-3.1077721084711882,-3.7667173722940519,-4.4256626361163338,-5.0864273907563691,-5.7477986652659441,-6.4091699397748707,-7.07054121428317,-7.73191248879083,-8.39465242331358,-9.0577897274359849,-9.7209270315577339,-10.384064335678818,-11.047201639799226,-11.711373309133393,-12.375803581991612,-13.040233854849138,-13.704664127705961,-14.369094400562089,-15.034314984292619,-15.699703218777875,-16.365091453262366,-17.030479687746162,-17.695867922229205,-18.361867823338628,-19.027975672418606,-19.69408352149777,-20.360191370576192,-21.026299219653826,-21.692907362971749,-22.359586982299138,-23.026266601625736,-23.692946220951523,-24.35962584027649,-25.0266884433963,-25.693793604292487,-26.360898765187834,-27.028003926082246,-27.695109086975823,-28.362606151492741,-29.030134995983023,-29.697663840472476,-30.365192684961084,-31.032721529448832,-31.700540331356528,-32.368374397065047,-33.036208462772635,-33.704042528479171,-34.371876594184755,-35.040024326259314,-35.708180104101039,-36.376335881941827,-37.044491659781571,-37.712647437620326,0.0642042611070915,0.0642042611070915,0.0642042611070915,0.0642042611070915,0.0642042611070915,0.0642042611070915,0.0642042611070915,0.0642042611070915,0.0642042611070915,0.0642042611070915,0.0642042611070915,0.0642042611070915
DP 89,276.08341948184977,0.00580968764325335,-545.23127620393188,-523.542981695363,-501.85468718679158,-480.16639267821785,-458.478098169641,-436.80607308785164,-415.76856180213309,-394.73105051641176,-373.693539230688,-352.65602794496158,-331.68340901420856,-311.94375709541254,-292.20410517661429,-272.46445325781372,-252.72480133901098,-233.12045082203048,-215.18483464603221,-197.24921847003105,-179.31360229402765,-161.37798611802197,-143.65877686529268,-127.8872503771164,-112.11572388893785,-96.344197400757409,-80.5726709125745,-65.096791183307829,-51.690461122368006,-38.2841310614261,-24.877801000482066,-11.471470939535926,1.5726556807908163,12.5642733136722,23.555890946555611,34.547508579441036,45.539126212328526,56.122105731368407,64.778626356576183,73.435146981786033,82.091667606997831,90.748188232211561,98.9731016938595,105.4715661032389,111.97003051262016,118.46849492200343,124.96695933138852,131.0338703182891,135.61430138732806,140.19473245636885,144.77516352541141,149.355594594456,153.52424567493992,156.45754122097455,159.39083676701088,162.32413231304915,165.25742785908923,167.81347514827934,169.37494588470705,170.93641662113643,172.49788735756758,174.05935809400054,175.28739621617655,175.73741439960972,176.18743258304437,176.63745076648107,177.08746894991921,177.25205727102295,176.82382142292275,176.3955855748242,175.96734972672735,175.53911387863215,174.87346211487625,173.76688866751505,172.66031522015547,171.55374177279765,170.4471683254416,169.14818418796131,167.52851071710722,165.90883724625448,164.28916377540384,162.66949030455478,160.89752352973306,158.8971132002184,156.89670287070572,154.89629254119467,152.89588221168535,150.7775064149165,148.49952765650698,146.22154889809934,143.94357013969326,141.66559138128906,139.29802661643996,136.8209659619867,134.34390530753527,131.86684465308565,129.3897839986378,126.84591289742865,124.22819734137855,121.61048178533015,118.9927662292836,116.37505067323897,108.27689194664676,105.5611713819528,102.8454508172606,100.09433269935447,97.3111875864807,94.5280424736088,91.744897360738918,88.96175224787082,86.153387662363215,83.324388529464855,80.495389396568555,77.666390263674216,74.837391130781754,71.9906429214243,69.130775537695229,66.2709081539683,63.411040770243304,60.5511733865205,57.6789442673167,54.79847379638553,51.9180033254565,49.037532854529623,46.157062383604867,43.268051438054478,40.373916078568918,37.479780719085532,34.585645359604406,31.691510000125461,28.791501735659924,25.888331052339076,22.985160369020672,20.08198968570451,17.1788190023906,14.271608929111272,11.362453907804236,8.4532988864996668,5.544143865197503,2.6349888438977995,-0.27696582941432063,-3.1901203913910505,-6.103274953365311,-9.01642951533696,-11.929584077306179,-14.844714753100133,-17.760595015072091,-20.676475277041447,-23.592355539008086,-26.508235800972187,-29.425556980541128,-32.343358484136274,-35.2611599877285,-38.178961491318013,-41.096762994904743,-44.015667194607019,-46.93489154533782,-49.854115896065778,-52.773340246790816,-55.692564597512877,-58.612687092065521,-61.533034133185176,-64.453381174301754,-67.373728215415269,-70.29407525652573,-73.2152073634487,-76.136506008475422,-79.057804653498948,-81.979103298519234,-84.900401943536437,-87.822418745791182,-90.74456228965964,-93.666705833524546,-96.588849377386083,-99.510992921244224,-102.433892714983,-105.35690055258536,-108.27990839018429,-111.20291622777962,-114.12592406537141,-117.04955677040773,-119.97325891171913,-122.89696105302662,-125.82066319433031,-128.74436533563011,-131.66898905631328,-134.59368750906302,-137.51838596180886,-140.44308441455121,-143.36778286728978,-146.29313749878074,-149.2185266725202,-152.14391584625531,-155.0693050199863,-157.99469419371263,-160.9209295917824,-163.84718669611178,-166.77344380043655,-169.69970090475687,-172.62595800907272,0.28020857115633752,0.28020857115633752,0.28020857115633752,0.28020857115633752,0.28020857115633752,0.28020857115633752,0.28020857115633752,0.28020857115633752,0.28020857115633752,0.28020857115633752,0.28020857115633752,0.28020857115633752
DP 90,271.42373191117775,0.0026870264793675885,-250.85518529348062,-240.9285509544255,-231.0019166153692,-221.07528227631192,-211.1486479372528,-201.22935084531662,-191.59620916531472,-181.96306748531154,-172.32992580530708,-162.69678412530149,-153.092928648395,-144.04551656673229,-134.99810448506852,-125.95069240340352,-116.90328032173765,-107.91700984939725,-99.684826930993751,-91.452644012589062,-83.220461094183491,-74.988278175776642,-66.854058526561772,-59.6015175596911,-52.348976592819326,-45.096435625946619,-37.843894659072845,-30.725481432544619,-24.545972530769177,-18.366463628992754,-12.186954727215369,-6.0074458254369878,0.0073120771268526449,5.0884706025003252,10.169629127874751,15.250787653250111,20.331946178626403,25.226678320694095,29.242533157881482,33.258387995069754,37.27424283225897,41.29009766944904,45.108393206677107,48.13644220728974,51.164491207903239,54.192540208517606,57.220589209132889,60.050389007372281,62.197322113541219,64.344255219710959,66.491188325881566,68.63812143205304,70.595152613064528,71.982470838696528,73.369789064329339,74.757107289963116,76.144425515597618,77.357048355789686,78.109104629849014,78.861160903909209,79.613217177970171,80.365273452031929,80.962254630969625,81.19738903532614,81.4325234396835,81.667657844041671,81.90279224840063,82.004576115133332,81.829397294659444,81.65421847418645,81.479039653714125,81.303860833242666,81.017243486162,80.523665865865269,80.030088245569345,79.536510625274289,79.042933004979915,78.458605004895915,77.723024084408152,76.9874431639212,76.251862243435056,75.516281322949737,74.708515423111,73.792470348490838,72.876425273871448,71.960380199252853,71.044335124635083,70.072092729694148,69.023817416237208,67.975542102781233,66.927266789325984,65.878991475871587,64.7878181832935,63.64421312628307,62.500608069273518,61.357003012264734,60.213397955256852,59.037633323551567,57.826323258810504,56.615013194070229,55.403703129330836,54.192393064592267,50.439899094595631,49.181163429892514,47.922427765190285,46.646471304201022,45.354933812718166,44.063396321236191,42.771858829755132,41.480321338274884,40.17644883738889,38.862483844094946,37.548518850801862,36.234553857509731,34.920588864218509,33.597896451374332,32.268753193656394,30.939609935939451,29.61046667822341,28.281323420508365,26.946070067966378,25.606743222618018,24.267416377270624,22.9280895319242,21.5887626865788,20.245193484405146,18.899078803976224,17.552964123548307,16.206849443121488,14.860734762695643,13.511689752239723,12.16106682915607,10.810443906073541,9.4598209829920687,8.10919805991164,6.7565523386425594,5.402932649179931,4.0493129597184581,2.6956932702581007,1.3420735807988895,-0.012951118550737006,-1.3685779839673793,-2.7242048493828728,-4.0798317147971526,-5.4354585802102919,-6.7920770522845935,-8.1490716639506715,-9.5060662756155452,-10.863060887279147,-12.220055498941566,-13.577770787759391,-14.93572631137741,-16.293681834994103,-17.651637358609534,-19.009592882223654,-20.368096044123845,-21.72675820446268,-23.085420364800139,-24.444082525136256,-25.802744685471009,-27.161848321641621,-28.521062331986183,-29.880276342329338,-31.239490352671062,-32.598704363011358,-33.958299579747731,-35.317975662813296,-36.677651745877313,-38.037327828939866,-39.397003912000933,-40.757024843526359,-42.117106634496693,-43.477188425465435,-44.8372702164326,-46.197352007398138,-47.55779280578983,-48.918284894833278,-50.27877698387519,-51.6392690729154,-52.999761161954048,-54.3605487855633,-55.72136924944914,-57.0821897133333,-58.443010177215569,-59.803830641096056,-61.165083303741255,-62.526371013944377,-63.887658724145737,-65.24894643434547,-66.610234144543384,-67.971829329168145,-69.333440699714629,-70.695052070259123,-72.056663440801628,-73.418274811342286,-74.7802819080764,-76.1422991554704,-77.504316402862415,-78.866333650252358,-80.228350897640183,0.1304376393637629,0.1304376393637629,0.1304376393637629,0.1304376393637629,0.1304376393637629,0.1304376393637629,0.1304376393637629,0.1304376393637629,0.1304376393637629,0.1304376393637629,0.1304376393637629,0.1304376393637629
DP 91,121.18662490505029,0.0035589591802284051,-241.40235952327802,-233.74527217429178,-226.0881848253037,-218.43109747631337,-210.77401012732105,-203.11983765623049,-195.57934652544998,-188.03885539466776,-180.4983642638837,-172.95787313309748,-165.429339830932,-158.1280075331299,-150.82667523532623,-143.52534293752075,-136.22401063971355,-128.94869987349409,-121.9943246096599,-115.03994934582373,-108.0855740819859,-101.13119881814639,-94.22098779996243,-87.7082591671526,-81.1955305343412,-74.682801901528123,-68.170073268713438,-61.722329460428426,-55.729484337813652,-49.736639215197364,-43.7437940925795,-37.750948969960021,-31.845113893690009,-26.432341229600816,-21.019568565510109,-15.606795901417909,-10.194023237324188,-4.8899855057220742,-0.098561186015849775,4.6928631336918443,9.4842874534010022,14.275711773111587,18.938323569749443,23.085679186338968,27.233034802929929,31.380390419522289,35.527746036116071,39.52897925095327,43.026895832333715,46.524812413715587,50.022728995098866,53.520645576483467,56.858714455221516,59.71723418242285,62.575753909625455,65.43427363682946,68.29279336403485,70.981815108476511,73.223972708852031,75.466130309228888,77.708287909607,79.950445509986565,82.017705315443763,83.676864755568857,85.336024195695188,86.995183635822883,88.654343075951871,90.137347384317607,91.254485911210608,92.371624438104973,93.488762965000632,94.605901491897654,95.549427565574234,96.1705258232568,96.791624080940608,97.412722338625812,98.0338205963122,98.487145044045931,98.660842246346149,98.834539448647831,99.008236650950735,99.1819338532549,99.1963847077899,98.9719622776351,98.747539847481619,98.52311741732963,98.298694987178891,97.925591062690728,97.351326515618481,96.777061968547812,96.202797421478337,95.628532874410325,94.917546506621548,94.039452819485646,93.161359132351265,92.283265445218134,91.405171758086425,90.403113142486447,89.264038191779122,88.124963241073246,86.985888290368692,85.846813339665573,81.874907514657622,80.513959755368191,79.1530119960801,77.6939936177191,76.1462429135794,74.598492209441019,73.050741505304231,71.502990801168991,69.869525467314389,68.165928508809856,66.462331550306715,64.7587345918052,63.055137633305158,61.277420038976736,59.444916408433876,57.612412777892594,55.779909147352953,53.947405516814975,52.05144260315295,50.113172501035415,48.1749023989196,46.236632296805439,44.298362194692977,42.306264176622633,40.281868594918578,38.257473013216284,36.233077431515788,34.208681849817,32.139022454997473,30.044989579515924,27.95095670403629,25.856923828558397,23.762890953082277,21.63110002432802,19.481128763413967,17.331157502501878,15.181186241591718,13.031214980683535,10.849977048289407,8.655338691637,6.460700334986571,4.2660619783382341,2.0714236216918556,-0.14893633185319755,-2.3790530885285452,-4.6091698452018051,-6.8392866018728844,-9.0694033585418943,-11.320560858683137,-13.578732205152813,-15.836903551620185,-18.095074898085379,-20.353246244548316,-22.628553025271685,-24.908834818476638,-27.189116611679253,-29.469398404879513,-31.749680198077446,-34.043877541307516,-36.341553936457785,-38.6392303316056,-40.936906726750962,-43.234583121893856,-45.543556456793496,-47.854926241675592,-50.1662960265551,-52.477665811432082,-54.7890355963064,-57.109592985554876,-59.431771818916829,-61.753950652276046,-64.0761294856325,-66.398308318986224,-68.728071714463127,-71.058918700743718,-73.389765687021679,-75.720612673296557,-78.051459659568778,-80.38851535959121,-82.7262609819001,-85.064006604205943,-87.401752226508648,-89.739497848808156,-92.082773042406217,-94.4264966361241,-96.770220229839055,-99.113943823550969,-101.45766741725993,-103.80606168044704,-106.15470181481128,-108.50334194917208,-110.85198208352945,-113.20062221788334,-115.55376301027893,-117.90701924779057,-120.26027548529876,-122.61353172280333,-124.96678796030456,0.22729842063968292,0.22729842063968292,0.22729842063968292,0.22729842063968292,0.22729842063968292,0.22729842063968292,0.22729842063968292,0.22729842063968292,0.22729842063968292,0.22729842063968292,0.22729842063968292,0.22729842063968292
DP 92,59.1833910168681,0.0026164636394416236,-115.13187529792826,-111.99359651996008,-108.85531774199059,-105.71703896401965,-102.57876018604732,-99.441207137947629,-96.331957829323258,-93.222708520697608,-90.113459212070481,-87.004209903441961,-83.897991183494682,-80.8493542214256,-77.800717259355324,-74.752080297283825,-71.703443335211034,-68.6615191290298,-65.702386424855447,-62.743253720679682,-59.784121016502667,-56.824988312324358,-53.877545855517383,-51.035316730038851,-48.193087604559118,-45.350858479078227,-42.508629353596163,-39.684140071944583,-36.983831038546057,-34.283522005146352,-31.583212971745521,-28.882903938343503,-26.207250514751941,-23.671313767075986,-21.135377019398913,-18.59944027172072,-16.063503524041433,-13.559743915918167,-11.207678275089256,-8.8556126342592609,-6.5035469934281958,-4.1514813525960532,-1.8394555921475677,0.312408754455552,2.4642731010597254,4.6161374476649568,6.7680017942712309,8.871886071344516,10.810503648854503,12.749121226365526,14.68773880387759,16.626356381390679,18.509233269802678,20.224885983440128,21.940538697078594,23.656191410718105,25.371844124358624,27.024406098167621,28.510635771180166,29.996865444193727,31.483095117208265,32.969324790223851,34.385727221076593,35.639197220165045,36.892667219254506,38.146137218344947,39.399607217436433,40.577301022420045,41.597611297347669,42.617921572276288,43.638231847205908,44.658542122136573,45.598037982561891,46.387447747856832,47.176857513152832,47.966267278449834,48.755677043747866,49.460239601228722,50.023388007053164,50.5865364128785,51.149684818705019,51.712833224532453,52.188152998586155,52.531727749563778,52.875302500542439,53.21887725152218,53.562452002502994,53.816278968522539,53.948680464756457,54.08108196099144,54.213483457227568,54.345884953464733,54.3876630199493,54.318677213219146,54.249691406490079,54.180705599762149,54.11171979303527,53.952221696009346,53.692681898058716,53.433142100109286,53.173602302161029,52.914062504213938,51.688004681728891,51.249489173989822,50.810973666251932,50.2848138989222,49.67935536639397,49.073896833866925,48.46843830134123,47.862979768816643,47.172429813706152,46.412258141401225,45.652086469097505,44.891914796795142,44.131743124494022,43.289627011344948,42.386941920964532,41.484256830585487,40.581571740207693,39.678886649831377,38.697878646275711,37.664654133406422,36.631429620538576,35.598205107672129,34.564980594807089,33.457410024589912,32.305230695598816,31.153051366609166,30.000872037621033,28.84869270863436,27.626383907193375,26.366312062321644,25.106240217451553,23.846168372583051,22.586096527716105,21.26024266798818,19.902715065137478,18.545187462288439,17.187659859441027,15.830132256595292,14.411199394167019,12.965949162762934,11.520698931360547,10.075448699959917,8.6301984685609785,7.1278554929267885,5.603855904450409,4.079856315975821,2.5558567275030897,1.0318571390321327,-0.54506955056243078,-2.1396392742271075,-3.7342089978898154,-5.3287787215506421,-6.9233484452095295,-8.5669030349650974,-10.224679634889419,-11.882456234811736,-13.540232834732031,-15.198009434650313,-16.90111715464824,-18.615558190257627,-20.329999225864928,-22.044440261470086,-23.758881297073131,-25.515349525732677,-27.280733095033352,-29.046116664331773,-30.81150023362795,-32.5768838029219,-34.381382680905624,-36.192784695388056,-38.004186709868073,-39.815588724345758,-41.626990738821043,-43.475096994154704,-45.328447108960127,-47.181797223763155,-49.035147338563661,-50.888497453361751,-52.77648397102908,-54.668319341664976,-56.560154712298186,-58.451990082928539,-60.3438254535563,-62.269099828455,-64.197085815664224,-66.125071802870792,-68.0530577900749,-69.981043777276327,-71.94138713732363,-73.903433838933964,-75.865480540541355,-77.827527242145649,-79.789573943746888,-81.783918115654856,-83.779090740930982,-85.774263366204011,-87.769435991473912,-89.764608616740688,0.19651178357317761,0.19651178357317761,0.19651178357317761,0.19651178357317761,0.19651178357317761,0.19651178357317761,0.19651178357317761,0.19651178357317761,0.19651178357317761,0.19651178357317761,0.19651178357317761,0.19651178357317761
DP 93,208.36083259637729,0.0027321568522645067,-233.45036979482882,-224.90808365528733,-216.3657975157445,-207.8235113762002,-199.28122523665465,-190.74397241585302,-182.40302092914487,-174.06206944243567,-165.721117955725,-157.38016646901312,-149.05952567221993,-141.12479182349131,-133.19005797476163,-125.25532412603074,-117.32059027729875,-109.42899820027733,-102.06949341145331,-94.709988622628117,-87.350483833801789,-79.9909790449742,-72.7022687351506,-66.050715427951843,-59.399162120752045,-52.747608813551189,-46.096055506349181,-39.54437351418381,-33.691798279244018,-27.839223044303115,-21.98664780936117,-16.134072574418141,-10.408620085052386,-5.403537831155548,-0.39845557725767383,4.6066266766412394,9.61170893054117,14.466944885638192,18.6157544814338,22.76456407723045,26.913373673028044,31.062183268826676,35.044783725664765,38.362539771519515,41.680295817375224,44.998051863231922,48.315807909089557,51.458229334146679,53.996713032964649,56.535196731783543,59.073680430603389,61.612164129424208,63.973404747277343,65.802909420938846,67.632414094601373,69.4619187682647,71.291423441929012,72.948258033685491,74.14986556551257,75.35147309734046,76.553080629169372,77.754688160999137,78.7934715999983,79.452327025619681,80.111182451241973,80.770037876865118,81.428893302489271,81.938602472663362,82.138542005372841,82.33848153808303,82.538421070794143,82.738360603506067,82.805206089707809,82.624873323761662,82.4445405578164,82.264207791872053,82.083875025928563,81.787552608417727,81.297911181368633,80.808269754320449,80.318628327273146,79.828986900226681,79.240421359025717,78.503467308988547,77.76651325895223,77.029559208916808,76.292605158882168,75.472934177472951,74.5413502139689,73.6097662504659,72.678182286963761,71.74659832346245,70.747096276384781,69.664581811670857,68.582067346957757,67.4995528822457,66.417038417534485,65.279684813977312,64.081718439389121,62.883752064801811,61.68578569021556,60.487819315630141,56.675931136201541,55.390768974513364,54.105606812826252,52.7862775250152,51.43603450794658,50.085791490878918,48.735548473812322,47.385305456746636,46.008638064392017,44.610350274499126,43.212062484607273,41.813774694716379,40.415486904826594,38.997010310943573,37.563611225714943,36.130212140487409,34.696813055260847,33.263413970035465,31.814760586087203,30.35593742934865,28.897114272611212,27.438291115874861,25.97946795913963,24.509233147918977,23.032151171424861,21.555069194931875,20.077987218440079,18.600905241949405,17.115359699871544,15.625256730172575,14.135153760474839,12.645050790778336,11.154947821082956,9.6586118404393257,8.15927469316925,6.6599375459004522,5.1606003986329094,3.6612632513666421,2.1573581499749466,0.65149529227776015,-0.85436756541814063,-2.3602304231126858,-3.8660932808059609,-5.3752969459281452,-6.88576785742274,-8.396238768916,-9.9067096804078325,-11.41718059189834,-12.930099785636159,-14.443835104310713,-15.957570422983776,-17.471305741655442,-18.985041060325628,-20.500584174292904,-22.01665215410334,-23.532720133912264,-25.048788113719695,-26.564856093525588,-28.082279155039434,-29.600041002989467,-31.117802850937988,-32.635564698884856,-34.153326546830172,-35.672130041959072,-37.191154504484146,-38.7101789670075,-40.229203429529214,-41.748227892049215,-43.268074627808268,-44.7880664797519,-46.30805833169368,-47.828050183633813,-49.34804203557205,-50.868744398214744,-52.38954827006021,-53.910352141903878,-55.431156013745635,-56.951959885585666,-58.473312494514,-59.994726079991167,-61.516139665466348,-63.037553250939467,-64.55896683641059,-66.081023049463653,-67.603131374020791,-69.125239698575982,-70.647348023129254,-72.169456347680608,-73.6920261171053,-75.2146201776914,-76.737214238275158,-78.259808298856768,-79.782402359436063,-81.305537631550237,-82.8286867861278,-84.351835940703026,-85.874985095275918,-87.3981342498466,0.14617120754333016,0.14617120754333016,0.14617120754333016,0.14617120754333016,0.14617120754333016,0.14617120754333016,0.14617120754333016,0.14617120754333016,0.14617120754333016,0.14617120754333016,0.14617120754333016,0.14617120754333016
DP 94,154.44480349730915,0.001651296757964704,-125.33140928883503,-121.10641723420807,-116.88142517958021,-112.65643312495159,-108.431441070322,-104.20839424402725,-100.06121205828525,-95.914029872542429,-91.766847686798712,-87.619665501054214,-83.480410256538008,-79.49176839390482,-75.503126531270965,-71.514484668636257,-67.525842806000824,-63.554291175851546,-59.793521233560128,-56.032751291268028,-52.271981348975068,-48.511211406681333,-44.779072859148876,-41.304619570748478,-37.830166282347264,-34.355712993945396,-30.88125970554281,-27.448259162388304,-24.305430970504094,-21.1626027786192,-18.0197745867336,-14.876946394847296,-11.788547409053997,-9.0085840209319326,-6.2286206328091938,-3.4486572446857826,-0.668693856561708,2.0447687365804534,4.4447239901010738,6.8446792436223456,9.24463449714427,11.644589750666837,13.9677506817721,15.983730693862995,17.999710705954531,20.01569071804667,22.031670730139457,23.962962617200951,25.602547404789444,27.242132192378563,28.881716979968282,30.521301767558597,32.071054220942486,33.351306275284294,34.631558329626678,35.911810383969659,37.192062438313251,38.38016815790111,39.325339464122933,40.270510770345361,41.215682076568321,42.160853382791942,43.014248084237948,43.653494482926206,44.292740881615138,44.931987280304604,45.571233678994645,46.12143581399129,46.486697273143207,46.851958732295742,47.217220191448838,47.582481650602489,47.863362478621482,47.987534141461055,48.111705804301153,48.235877467141869,48.360049129983118,48.40595046633613,48.32139928568882,48.236848105042064,48.15229692439592,48.067745743750322,47.911994875351,47.649442792852504,47.386890710354621,47.12433862785732,46.861786545360538,46.535616420406861,46.123373411364526,45.711130402322794,45.298887393281646,44.886644384241094,44.418488371164159,43.881993067607389,43.34549776405126,42.80900246049567,42.272507156940769,41.6876157601306,41.049232981416814,40.410850202703628,39.7724674239911,39.134084645279167,37.012433913385507,36.291450020221944,35.570466127059028,34.814699056084855,34.027460864663645,33.240222673243096,32.452984481823158,31.665746290403892,30.849570794082936,30.009718823717822,29.1698668533533,28.330014882989538,27.490162912626438,26.626510368525476,25.74526570476516,24.86402104100554,23.982776377246655,23.101531713488466,22.200918299069915,21.287392079085489,20.373865859101787,19.460339639118803,18.546813419136555,17.617679340517867,16.679180310674163,15.740681280831199,14.802182250989036,13.863683221147598,12.912720296107002,11.955045861636274,10.997371427166371,10.039696992697243,9.08202255822888,8.1144764868414665,7.1421772668523218,6.1698780468640377,5.1975788268765815,4.2252796068899761,3.2452186689209719,2.2618311755820808,1.2784436822440444,0.2950561889069126,-0.68833130442937263,-1.6777836388470582,-2.6695365092957797,-3.6612893797436,-4.6530422501904747,-5.6447951206364682,-6.6412640317571174,-7.6393050158707343,-8.6373459999833546,-9.635386984095037,-10.633427968205735,-11.635124871301008,-12.637883214818329,-13.640641558334634,-14.643399901849945,-15.646158245364239,-16.651748862542611,-17.65804758159986,-18.664346300656057,-19.670645019711174,-20.676943738765239,-21.685443445112224,-22.694410052767694,-23.703376660422002,-24.712343268075216,-25.7213098757273,-26.731995319149277,-27.742984105643355,-28.753972892136186,-29.764961678627913,-30.775950465118395,-31.788322437030345,-32.800892021800273,-33.813461606569028,-34.826031191336519,-35.838600776102766,-36.852246820316452,-37.866012482439508,-38.879778144561236,-39.893543806681585,-40.907309468800641,-41.922072715236986,-42.936916857080952,-43.951760998923611,-44.966605140764976,-45.98144928260502,-46.997071227006977,-48.012734116123191,-49.028397005237956,-50.044059894351243,-51.059722783462945,-52.076166331619291,-53.092629904240795,-54.109093476860764,-55.125557049479191,-56.142020622096069,0.097845348921208691,0.097845348921208691,0.097845348921208691,0.097845348921208691,0.097845348921208691,0.097845348921208691,0.097845348921208691,0.097845348921208691,0.097845348921208691,0.097845348921208691,0.097845348921208691,0.097845348921208691
DP 95,167.94819000386906,0.0043989442553744014,-345.86994415116158,-333.94860621421782,-322.02726827727213,-310.10593034032394,-298.18459240337324,-286.26912819995482,-274.5827418251435,-262.89635545032979,-251.20996907551395,-239.52358270069598,-227.86107321985554,-216.6522292383809,-205.443385256904,-194.23454127542507,-183.02569729394432,-171.86813616684154,-161.34307004018379,-150.81800391352394,-140.2929377868621,-129.76787166019815,-119.32827547108276,-109.65791679864269,-99.9875581262009,-90.317199453757112,-80.646840781311482,-71.099417568659774,-62.412551870579271,-53.725686172497007,-45.038820474412915,-36.351954776326963,-27.825248421633471,-20.20612177180352,-12.586995121971817,-4.96786847213835,2.65125817769687,10.076471167296273,16.587509284951793,23.098547402609032,29.609585520267949,36.12062363792856,42.4100047549562,47.81274739381108,53.215490032667653,58.618232671525853,64.020975310385666,69.182018200092429,73.510529577940432,77.839040955790182,82.167552333641524,86.496063711494358,90.5713175053624,93.8867889719954,97.202260438629736,100.51773190526576,103.83320337190322,106.89229066419038,109.27544723001684,111.6586037958448,114.04176036167419,116.42491692750525,118.55626458537618,120.10005019091831,121.64383579646203,123.18762140200732,124.73140700755397,126.03445637529853,126.83750809386515,127.64055981243337,128.44361153100303,129.24666324957437,129.82508138052813,129.98631678230072,130.14755218407481,130.30878758585033,130.47002298762752,130.42621068414186,130.04064703686043,129.65508338958057,129.26951974230241,128.88395609502567,128.31494331214338,127.47075249089843,126.62656166965508,125.78237084841319,124.93818002717275,123.93286047450101,122.7095396428174,121.48621881113552,120.26289797945502,119.0395771477762,117.67711372072733,116.14458419891237,114.61205467709901,113.07952515528719,111.5469956334769,109.8961809793667,108.11462777262142,106.33307456587772,104.55152135913569,102.76996815239529,96.929796580445171,94.95003821832789,92.970279856212258,90.908606452044182,88.77281796360009,86.637029475157689,84.501240986717,82.365452498277961,80.162799789488417,77.905438842216071,75.648077894945487,73.390716947676722,71.133356000409663,68.822049396707357,66.470869029726771,64.119688662748118,61.768508295771184,59.4173279287962,57.023092339156825,54.600152589470994,52.177212839786883,49.754273090104732,47.3313333404245,44.874370960644534,42.396994488268589,39.919618015894642,37.442241543522726,34.964865071152744,32.460846577422295,29.942481992462781,27.424117407505371,24.905752822550031,22.387388237596618,19.8483302928246,17.299308588739734,14.750286884657108,12.201265180576636,9.6522434764983736,7.0872612730156241,4.5154386399890312,1.943616006964656,-0.62820662605736977,-3.2000292590771986,-5.7840919195601108,-8.372797508657273,-10.961503097752102,-13.550208686844472,-16.138914275934539,-18.73696979920809,-21.338142085043266,-23.939314370875884,-26.540486656706047,-29.141658942533667,-31.749961578061718,-34.360334402077392,-36.970707226090468,-39.581080050100915,-42.191452874108741,-44.807271790981211,-47.424452295413936,-50.041632799843995,-52.658813304271213,-55.275993808695773,-57.89736029167819,-60.519614757463273,-63.141869223245259,-65.76412368902443,-68.386378154800681,-71.011876539928267,-73.637947417482209,-76.264018295033082,-78.890089172580986,-81.516160050125649,-84.144850489116848,-86.773915179466471,-89.40297986981308,-92.0320445601564,-94.661109250496537,-97.292189212507012,-99.92349311475391,-102.55479701699728,-105.18610091923695,-107.81740482147343,-110.45065837640105,-113.08407003119618,-115.71748168598795,-118.35089334077645,-120.98430499556146,-123.61919382557963,-126.2541604163561,-128.88912700712868,-131.52409359789749,-134.15906018866229,-136.79556124039874,-139.43210165216013,-142.06864206391742,-144.70518247567082,-147.3417228874201,0.25355200485705043,0.25355200485705043,0.25355200485705043,0.25355200485705043,0.25355200485705043,0.25355200485705043,0.25355200485705043,0.25355200485705043,0.25355200485705043,0.25355200485705043,0.25355200485705043,0.25355200485705043
DP 96,140.54398488784619,0.0022089366047923316,-160.7844645978312,-155.49435393260345,-150.20424326737452,-144.91413260214438,-139.62402193691304,-134.33617081423395,-129.136442705435,-123.93671459663481,-118.73698648783359,-113.53725837903116,-108.34676250299279,-103.33168079477835,-98.316599086562917,-93.30151737834629,-88.286435670128768,-83.291335611999756,-78.542678423228864,-73.794021234456991,-69.045364045683982,-64.296706856909964,-59.581706735501108,-55.169623401693954,-50.757540067885863,-46.345456734076812,-41.933373400266767,-37.570348569796515,-33.550736972364248,-29.531125374931033,-25.511513777496873,-21.491902180061746,-17.53723205023411,-13.950567662415004,-10.36390327459498,-6.7772388867740467,-3.1905744989522029,0.31599739410491656,3.4449860573044582,6.5739747205048946,9.7029633837062068,12.831952046908395,15.867463470348731,18.529061516951522,21.19065956355519,23.852257610159743,26.513855656765092,29.071153701506773,31.269191802691374,33.467229903876756,35.665268005063005,37.863306106250064,39.949286776770272,41.6990909185701,43.448895060370766,45.19869920217225,46.948503343974544,48.5817745318847,49.907818472323214,51.233862412762619,52.559906353202756,53.885950293643752,55.094219045239441,56.027675312114376,56.96113157899012,57.894587845866653,58.828044112743946,59.645453973428971,60.221841000072082,60.79822802671589,61.374615053360571,61.951002080006027,62.415626266869836,62.672687875867524,62.929749484866065,63.186811093865337,63.44387270286547,63.595501683506257,63.571406959385165,63.547312235264911,63.523217511145354,63.499122787026728,63.377427814848538,63.109330164260051,62.84123251367231,62.573134863085485,62.305037212499329,61.948143478450291,61.471111891926491,60.994080305403529,60.517048718881334,60.040017132359957,59.483481166899537,58.82977151277084,58.176061858642996,57.522352204515883,56.868642550389687,56.144794713359822,55.343424331112587,54.5420539488661,53.740683566620547,52.939313184375877,50.230048559375788,49.306616555080311,48.383184550785622,47.407323043878129,46.384024376379081,45.360725708880913,44.337427041383705,43.314128373887371,42.246323472954607,41.142103616159929,40.037883759366117,38.933663902573294,37.829444045781365,36.687861957246128,35.518663691940972,34.349465426636833,33.1802671613336,32.011068896031411,30.810829828779607,29.589896404560058,28.368962980341529,27.14802955612398,25.927096131907465,24.680621736508311,23.418822372134258,22.157023007761282,20.895223643389379,19.633424279018477,18.350796382066125,17.0569528185341,15.763109255003215,14.469265691473398,13.175422127944611,11.864732047013719,10.545930444022998,9.2271288410334584,7.9083272380450635,6.5895256350578393,5.2571988545360488,3.919075386726746,2.580951918918621,1.2428284511117402,-0.095295016693974555,-1.4442065536841859,-2.797210257564263,-4.150213961443102,-5.5032176653206406,-6.8562213691969491,-8.21778364956042,-9.5821988966142051,-10.946614143666604,-12.311029390717719,-13.67544463776748,-15.046622780762847,-16.419764427642839,-17.792906074521451,-19.166047721398652,-20.539189368274481,-21.917664220779614,-23.297472437703437,-24.677280654625854,-26.05708887154676,-27.436897088466186,-28.820915200016461,-30.205826367750714,-31.590737535483338,-32.975648703214489,-34.360559870944066,-35.748803791639354,-37.137635882270267,-38.526467972899532,-39.915300063527205,-41.304132154153216,-42.695660851610178,-44.087574807742762,-45.479488763873725,-46.871402720002976,-48.26331667613055,-49.657366859637044,-51.051654424174835,-52.445941988710828,-53.84022955324491,-55.23451711777718,-56.630730465566209,-58.02709997762063,-59.423469489673295,-60.819839001724148,-62.216208513773218,-63.614129569920728,-65.012132301719163,-66.4101350335155,-67.80813776530978,-69.2061404971021,-70.605661919889826,-72.0052222981932,-73.404782676494392,-74.804343054793534,-76.203903433090517,0.13488404760462519,0.13488404760462519,0.13488404760462519,0.13488404760462519,0.13488404760462519,0.13488404760462519,0.13488404760462519,0.13488404760462519,0.13488404760462519,0.13488404760462519,0.13488404760462519,0.13488404760462519
DP 97,187.13049225139241,0.0017918167067212764,-147.07945547465124,-141.8580840606796,-136.63671264670705,-131.4153412327336,-126.19396981875921,-120.975410417621,-115.86652058031193,-110.75763074300212,-105.64874090569127,-100.53985106837966,-95.442351652448,-90.561272396025274,-85.680193139601855,-80.799113883177682,-75.918034626752643,-71.061291618845019,-66.504698743050753,-61.948105867255613,-57.3915129914597,-52.834920115662925,-48.318587674041012,-44.164602945464495,-40.010618216887188,-35.856633488309157,-31.702648759730408,-27.606041206753289,-23.911078221678224,-20.216115236602459,-16.521152251525947,-12.826189266448722,-9.20515285790069,-6.0030383747718394,-2.8009238916422992,0.40119059148794078,3.6033050746188722,6.7170486679695935,9.4141818649713382,12.111315061973761,14.808448258976851,17.505581455980614,20.103140870636285,22.302400449984017,24.50166002933241,26.700919608681481,28.900179188031164,30.992567061070087,32.716836789421116,34.441106517772731,36.165376246125042,37.889645974477929,39.503840982885755,40.787807669702126,42.071774356519192,43.355741043336842,44.639707730155173,45.814272740663718,46.700411389711476,47.586550038759881,48.472688687808869,49.358827336858468,50.139595193623038,50.674494548466534,51.209393903310641,51.744293258155331,52.279192613000632,52.715403181012618,52.946641860008711,53.177880539005464,53.409119218002814,53.640357897000776,53.781464848771805,53.755181873020724,53.728898897270241,53.702615921520312,53.676332945771051,53.569591078182626,53.328749029511521,53.087906980841048,52.847064932171158,52.606222883501907,52.295037333970249,51.878334870908446,51.461632407847219,51.044929944786624,50.628227481726618,50.151188760311882,49.59251728864065,49.033845816970022,48.475174345299919,47.916502873630478,47.306980804918879,46.635306938388013,45.9636330718577,45.291959205328048,44.620285338799007,43.906445366274262,43.145999911209678,42.385554456145641,41.625109001082315,40.864663546019578,38.411110934555936,37.581778850760529,36.752446766965747,35.895369412076995,35.013188693338734,34.131007974601133,33.248827255864235,32.366646537127963,31.462402653224661,30.540106709560295,29.617810765896568,28.695514822233573,27.773218878571249,26.833586575504697,25.881140156591329,24.92869373767876,23.976247318766816,23.023800899855665,22.057881303428072,21.082979376406584,20.108077449385853,19.133175522365843,18.158273595346614,17.173005394150675,16.181517271676022,15.190029149202163,14.198541026729091,13.207052904256773,12.207660229182638,11.204011141608337,10.200362054034889,9.1967129664622362,8.1930638788903831,7.1834342047967636,6.1709249052980706,5.1584156058002471,4.1459063063032779,3.1333970068071704,2.1163912284673136,1.0974583270504135,0.07852542563438597,-0.94040747578071937,-1.9593403771949631,-2.9816389955715903,-4.0052143090893964,-5.02878962260628,-6.0523649361222089,-7.0759402496372186,-8.1020302390273962,-9.128958485400652,-10.155886731772879,-11.182814978144158,-12.209743224514423,-13.23855334456448,-14.267909837988748,-15.297266331411999,-16.326622824834224,-17.355979318255393,-18.386753211445871,-19.41788147132457,-20.449009731202196,-21.480137991078742,-22.511266250954204,-23.543476495966086,-24.575916265372111,-25.608356034776957,-26.640795804180705,-27.673235573583305,-28.706514140033647,-29.739940738818994,-30.77336733760313,-31.806793936386079,-32.840220535167774,-33.87433925485044,-34.90855685642299,-35.942774457994361,-36.976992059564417,-38.011209661133229,-39.045956895635207,-40.080762983802,-41.115569071967428,-42.150375160131453,-43.18518124829415,-44.220544707179094,-45.255953363979089,-46.291362020777711,-47.326770677575084,-48.362179334371106,-49.397996826961354,-50.433835841291291,-51.469674855619651,-52.505513869946512,-53.541352884271859,-54.577642540454868,-55.61394375592441,-56.650244971392446,-57.686546186858848,-58.72284740232373,0.099548748692766989,0.099548748692766989,0.099548748692766989,0.099548748692766989,0.099548748692766989,0.099548748692766989,0.099548748692766989,0.099548748692766989,0.099548748692766989,0.099548748692766989,0.099548748692766989,0.099548748692766989
DP 98,103.12661303269776,0.0037810139318710818,-235.82049892552467,-228.61724891924268,-221.41399891295873,-214.21074890667239,-207.00749890038387,-199.80667834080478,-192.70060712150135,-185.59453590219579,-178.48846468288818,-171.38239346357852,-164.28633097932021,-157.38043635315151,-150.47454172698102,-143.56864710080865,-136.66275247463435,-129.77874711966155,-123.1647122015281,-116.55067728339266,-109.93664236525534,-103.32260744711613,-96.745991949246786,-90.506154770751024,-84.266317592253543,-78.0264804137543,-71.786643235253379,-65.602359010814538,-59.806949665565149,-54.011540320314204,-48.216130975061489,-42.420721629807076,-36.700492491377574,-31.406289262377143,-26.112086033375103,-20.817882804371425,-15.523679575366119,-10.324605667920714,-5.5740037002547522,-0.82340173258719462,3.9272002350819357,8.6778022027526269,13.314112185456647,17.493248826785084,21.672385468115035,25.851522109446513,30.030658750779541,34.078098208714685,37.671908502423122,41.265718796133044,44.859529089844479,48.4533393835574,51.900594146325219,54.908176775217015,57.915759404110275,60.923342033005,63.93092466190118,66.780199391453181,69.212111490571644,71.644023589691528,74.075935688812947,76.507847787935788,78.77314275020251,80.649659143523621,82.5261755368462,84.4026919301702,86.2792083234956,87.984345409850178,89.333535874352,90.682726338855289,92.031916803359934,93.381107267866071,94.5576119812777,95.413409921955818,96.269207862635312,97.125005803316256,97.980803743998592,98.665812136180179,99.066166976001753,99.4665218158247,99.866876655649,100.26723149547486,100.50151687178614,100.48669412855747,100.47187138533026,100.4570486421046,100.44222589888041,100.26842309123278,99.879526072430281,99.490629053629334,99.101732034829823,98.712835016031832,98.173918683654009,97.45164226134726,96.729365839042032,96.007089416738239,95.284812994436052,94.422848295346085,93.406488510650632,92.390128725956771,91.3737689412644,90.3574091565736,86.666000628503781,85.392708688510979,84.119416748519768,82.72934060753532,81.233600467829419,79.737860328125137,78.242120188422533,76.7463800487215,75.145616865879276,73.458923933759422,71.772231001641316,70.085538069524915,68.39884513741022,66.618656981016969,64.76936212193624,62.920067262857444,61.070772403780381,59.22147754470511,57.289735491261709,55.303027342740165,53.316319194220618,51.32961104570294,49.342902897187045,47.284131976131086,45.182122301719531,43.080112627309973,40.97810295290234,38.876093278496647,36.711616203335353,34.51350192707779,32.315387650822387,30.117273374569006,27.919159098317646,25.667308661003297,23.38958450477833,21.111860348555535,18.834136192334892,16.5564120361164,14.232785981904488,11.889487065882985,9.54618814986369,7.2028892338467134,4.8595903178319029,2.4773271616861154,0.080283958189823756,-2.3167592453041541,-4.7138024487957111,-7.1108456522849828,-9.54078555733351,-11.981691444157706,-14.422597330979336,-16.863503217798559,-19.304409104615274,-21.772971517639355,-24.249563582028102,-26.726155646414263,-29.202747710797791,-31.679339775178754,-34.179120589062755,-36.684698864298525,-39.190277139531581,-41.695855414761894,-44.201433689989479,-46.726448230077132,-49.255585836906953,-51.784723443733839,-54.313861050557904,-56.842998657379042,-59.38846075111185,-61.936803818180643,-64.485146885246252,-67.033489952308869,-69.5818330193684,-72.144048703030649,-74.70824633891948,-77.272443974805284,-79.836641610687778,-82.4008392465672,-84.97682135923462,-87.5541129819732,-90.131404604708365,-92.7086962274399,-95.28598785016807,-97.873882635804009,-100.46263724569673,-103.05139185558629,-105.64014646547233,-108.2289010753552,-110.82700610017191,-113.42560334511928,-116.024200590063,-118.62279783500273,-121.22139507993869,-123.82901574636671,-126.43686787005001,-129.04471999372953,-131.65257211740473,-134.26042424107638,0.2526400003349174,0.2526400003349174,0.2526400003349174,0.2526400003349174,0.2526400003349174,0.2526400003349174,0.2526400003349174,0.2526400003349174,0.2526400003349174,0.2526400003349174,0.2526400003349174,0.2526400003349174
DP 99,201.83690030028509,0.0038425207530413587,-324.53401954232413,-312.76591656541586,-300.99781358850544,-289.22971061159353,-277.46160763467981,-265.70025566035093,-254.20219533938214,-242.70413501841153,-231.206074697439,-219.70801437646469,-208.23722729014054,-197.28463681800818,-186.33204634587432,-175.37945587373844,-164.42686540160108,-153.53231006417639,-143.35352870229946,-133.17474734042082,-122.99596597854044,-112.81718461665841,-102.73387506680801,-93.509820849368438,-84.285766631927274,-75.061712414484631,-65.837658197040241,-56.748708432450364,-48.605500054034756,-40.462291675617578,-32.319083297198894,-24.175874918778689,-16.205278660287462,-9.2128286250657432,-2.2203785898425479,4.7720714453821165,11.764521480608234,18.552629265768442,24.377398263659707,30.202167261552415,36.026936259446494,41.85170525734204,47.448725544600407,52.13474022577239,56.820754906945766,61.506769588120555,66.192784269296709,70.637273871144956,74.249833608982144,77.862393346820681,81.474953084660541,85.0875128225017,88.454517730806728,91.084848866451892,93.71518000209835,96.345511137746229,98.975842273395372,101.36549025364933,103.1206016425356,104.87571303142313,106.6308244203119,108.38593580920211,109.91261654734892,110.90628523658619,111.89995392582475,112.89362261506453,113.88729130430569,114.67029641335284,115.01576334440918,115.36123027546682,115.7066972065258,116.05216413758586,116.20830890629648,116.01285026065877,115.8173916150223,115.62193296938719,115.4264743237532,115.06481265036683,114.42614174147387,113.78747083258212,113.14879992369163,112.5101290148025,111.72863572153128,110.73290547675445,109.73717523197888,108.74144498720464,107.7457147424315,106.62963274358346,105.35071922433187,104.07180570508167,102.79289218583268,101.51397866658507,100.13545943727635,98.635197803483834,97.134936169692665,95.634674535902732,94.13441290211415,92.5530736999948,90.882120835290763,89.211167970588065,87.540215105886588,85.869262241186561,80.531454060883419,78.730521115989461,76.929588171096867,75.07729684316331,73.178537482106833,71.279778121051876,69.38101875999827,67.482259398946127,65.54344381361706,63.571854265487609,61.600264717359643,59.628675169233105,57.65708562110801,55.6546311641189,53.629363006250585,51.604094848383951,49.578826690518618,47.553558532654939,45.504769979546857,43.440300792414234,41.375831605283167,39.311362418153706,37.24689323102578,35.164678861625575,33.071817114495737,30.978955367367465,28.886093620240896,26.793231873115928,24.687099086602569,22.573820162820361,20.460541239039927,18.347262315261208,16.233983391484106,14.110851876124963,11.982976382408316,9.8551008886935119,7.7272253949804668,5.5993499012692434,3.4641992107125921,1.3259304804148804,-0.812338249881007,-2.9506069801749657,-5.0888757104671214,-7.2325008740402117,-9.3781578580008453,-11.523814841959553,-13.669471825916236,-15.815128809871055,-17.964731988344717,-20.115650614723119,-22.266569241099415,-24.417487867473685,-26.56840649384587,-28.72224817422499,-30.876938518835459,-33.031628863443814,-35.186319208050037,-37.341009552654079,-39.497891182862752,-41.655320660361213,-43.812750137857435,-45.970179615351363,-48.12760909284308,-50.286716453191723,-52.446179747307646,-54.605643041421075,-56.765106335532245,-58.924569629641027,-61.085347306615951,-63.246356948122489,-65.407366589626463,-67.568376231128,-69.729385872626935,-71.891512889518935,-74.053799543535192,-76.2160861975488,-78.378372851559789,-80.540659505568243,-82.703805298757572,-84.867046560876318,-87.030287822992207,-89.193529085105055,-91.356770347215289,-93.520985303032347,-95.685279216935015,-97.849573130834941,-100.01386704473207,-102.17816095862649,-104.34315750155193,-106.50819103194047,-108.67322456232598,-110.83825809270812,-113.00329162308719,-115.16913460040635,-117.33499834061915,-119.50086208082871,-121.66672582103499,-123.83258956123797,0.20790905029758139,0.20790905029758139,0.20790905029758139,0.20790905029758139,0.20790905029758139,0.20790905029758139,0.20790905029758139,0.20790905029758139,0.20790905029758139,0.20790905029758139,0.20790905029758139,0.20790905029758139
DP 100,88.003118667131474,0.0012583499206823146,-71.724697453982358,-69.60896500073838,-67.49323254749369,-65.377500094248219,-63.261767641002095,-61.146671833580122,-59.056405454036359,-56.966139074492006,-54.875872694946921,-52.785606315401076,-50.697973039392231,-48.660369228367145,-46.622765417341434,-44.585161606315047,-42.547557795288064,-40.515736944750273,-38.555240002402648,-36.594743060054356,-34.63424611770543,-32.673749175355923,-30.7231992869255,-28.862173823980257,-27.001148361034435,-25.140122898088048,-23.279097435141072,-21.43295030393115,-19.690952619937924,-17.948954935944133,-16.206957251949753,-14.464959567954805,-12.743280198089193,-11.136739221966169,-9.5301982458425716,-7.9236572697184258,-6.3171162935937328,-4.7365568614395626,-3.2784832541803457,-1.8204096469205882,-0.36233603966030453,1.095737567600505,2.5222214073409424,3.8223446840479247,5.12246796075543,6.4225912374634522,7.7227145141719786,8.9859495383847552,10.122123476568746,11.258297414753255,12.394471352938266,13.53064529112377,14.625167119477107,15.594731043531104,16.56429496758561,17.533858891640605,18.5034228156961,19.427278242082679,20.230627876280057,21.033977510477946,21.837327144676298,22.640676778875161,23.395096792580766,24.035346150174036,24.675595507767788,25.315844865362013,25.95609422295674,26.545099952379971,27.027675117568108,27.510250282756722,27.992825447945823,28.475400613135424,28.905350200743548,29.237565151634836,29.569780102526579,29.901995053418815,30.23421000431151,30.513326839997593,30.703945478634104,30.894564117271106,31.085182755908594,31.275801394546583,31.413701697996725,31.472523252916005,31.531344807835772,31.590166362756026,31.648987917676834,31.656235502229521,31.593705391618407,31.531175281007851,31.468645170397743,31.406115059788171,31.293813388847866,31.120678765400438,30.947544141953525,30.77440951850711,30.601274895061227,30.380710829838105,30.107723806212075,29.834736782586624,29.561749758961628,29.288762735337226,28.246448524829553,27.884120076460821,27.521791628092664,27.117850210618094,26.676258214751364,26.234666218885188,25.793074223019605,25.351482227154541,24.871519862039388,24.360162899027088,23.848805936015388,23.337448973004239,22.826092009993705,22.279692175863264,21.707390513115513,21.135088850368376,20.562787187621865,19.990485524875947,19.386465557343591,18.761299553612325,18.136133549881713,17.510967546151733,16.885801542422403,16.232165784963705,15.561447744708911,14.890729704454774,14.220011664201351,13.549293623948572,12.853220237019203,12.143493602400429,11.433766967782384,10.724040333165043,10.014313698548376,9.2821670409065646,8.53922524341384,7.7962834459218673,7.0533416484306253,6.3103998509401338,5.5477628303343565,4.7766847338777154,4.00560663742184,3.2345285409667652,2.463450444512437,1.6751703346559541,0.88036509889534442,0.0855598631355356,-0.7092453726234379,-1.50405060838162,-2.3138074718371291,-3.1285483996237047,-3.9432893274093934,-4.7580302551942477,-5.5727711829782276,-6.4004604413629913,-7.2319090504234422,-8.063357659483,-8.8948062685416538,-9.7262548775994091,-10.568894139193498,-11.41433119613998,-12.259768253085531,-13.105205310030126,-13.950642366973772,-14.805753510321408,-15.662916843439385,-16.520080176556352,-17.377243509672333,-18.234406842787308,-19.099956607114756,-19.966986423148786,-20.834016239181725,-21.701046055213649,-22.568075871244467,-23.442451760224927,-24.31787716755251,-25.193302574879006,-26.068727982204404,-26.944153389528729,-27.826037790704476,-28.708639925697184,-29.591242060688696,-30.473844195678971,-31.356446330668042,-32.244973795559936,-33.133981753152987,-34.022989710744866,-34.911997668335637,-35.801005625925228,-36.695420705134616,-37.590120423489715,-38.484820141843535,-39.379519860195956,-40.274219578547083,-41.174183594098132,-42.074282642661828,-42.97438169122416,-43.874480739785128,-44.7745797883447,0.087517374166541428,0.087517374166541428,0.087517374166541428,0.087517374166541428,0.087517374166541428,0.087517374166541428,0.087517374166541428,0.087517374166541428,0.087517374166541428,0.087517374166541428,0.087517374166541428,0.087517374166541428
DP 101,265.41271451145434,0.0013388157276364853,-124.11990456536243,-119.24177905398402,-114.36365354260508,-109.48552803122548,-104.60740251984527,-99.732813179207682,-94.996135834533774,-90.259458489859384,-85.522781145184354,-80.7861038005088,-76.063555154762128,-71.609454459600954,-67.155353764439312,-62.701253069277115,-58.247152374114329,-53.822596823993585,-49.762435119589831,-45.70227341518553,-41.642111710780682,-37.581950006375287,-33.569234294704955,-29.983537002308214,-26.397839709910993,-22.812142417513265,-19.226445125115,-15.70589319904377,-12.641363763357559,-9.57683432767085,-6.5123048919836517,-3.4477754562959646,-0.46353453483062396,2.0657330800635858,4.5950006949582747,7.1242683098534307,9.6535359247490575,12.091601323009352,14.099708488249965,16.10781565349108,18.115922818732653,20.124029983974637,22.035073995885742,23.557860807212073,25.080647618538816,26.603434429866031,28.126221241193686,29.551148644476019,30.639000642364227,31.726852640252897,32.814704638141983,33.902556636031512,34.896197238648725,35.60720009346111,36.318202948273886,37.029205803087081,37.740208657900709,38.364080457452992,38.758240116506528,39.152399775560454,39.546559434614842,39.9407190936696,40.257098090457383,40.391986424649851,40.526874758842752,40.661763093036043,40.796651427229754,40.864262926124823,40.792143656604864,40.720024387085267,40.647905117566118,40.575785848047381,40.447102366900317,40.213369536582626,39.97963670626536,39.74590387594845,39.512171045631931,39.232086069711691,38.874746349449964,38.517406629188663,38.160066908927753,37.802727188667212,37.408280487585728,36.958172438424391,36.508064389263509,36.057956340102976,35.607848290942883,35.128661603108519,34.610132580939457,34.091603558770828,33.573074536602554,33.054545514434743,32.513670533002333,31.945483354209923,31.377296175417914,30.809108996626328,30.240921817835186,29.655868257471003,29.052172571319989,28.448476885169395,27.84478119901922,27.241085512869503,25.367387557383978,24.738647465076344,24.109907372769161,23.472010051245107,22.82582745270556,22.179644854166469,21.533462255627825,20.887279657089628,20.234492063189332,19.576300268663516,18.918108474138158,18.259916679613262,17.601724885088817,16.9388273570907,16.272451600909381,15.606075844728533,14.939700088548141,14.273324332368244,13.603631585172815,12.931727458379587,12.259823331586848,11.587919204794622,10.916015078002888,10.241792875979144,9.566179793759316,8.8905667115399858,8.2149536293211991,7.5393405471029133,6.8621167171133548,6.1840255379780134,5.5059343588432261,4.8278431797089878,4.1497520005752637,3.4705434140054976,2.7907968008010959,2.1110501875972711,1.4313035743940077,0.75155696119132009,0.0710317003151095,-0.60982727722061181,-1.2906862547557556,-1.9715452322902907,-2.6524042098242546,-3.3338130241995207,-4.01543040454472,-4.6970477848893086,-5.378665165233258,-6.0602825455766167,-6.742298193682652,-7.4244466027284606,-8.1065950117735959,-8.788743420818097,-9.47089182986194,-10.153340471244089,-10.835876280514688,-11.51841208978462,-12.200947899053862,-12.883483708322425,-13.566258526316886,-14.249093099316166,-14.931927672314767,-15.614762245312635,-16.297596818309778,-16.98063458458234,-17.66371545478621,-18.346796324989292,-19.029877195191649,-19.712958065393234,-20.396220075299613,-21.079514053049934,-21.762808030799409,-22.446102008548142,-23.129395986296025,-23.812875623882139,-24.496381786307122,-25.179887948731295,-25.863394111154641,-26.54690027357718,-27.230558407257039,-27.914233428227394,-28.597908449196858,-29.281583470165398,-29.965258491133071,-30.649153106141114,-31.333065528314496,-32.016977950486982,-32.700890372658662,-33.384802794829461,-34.068871370667765,-34.752948166672837,-35.437024962676887,-36.121101758679977,-36.805178554682037,-37.489455508067678,-38.173737595633263,-38.858019683197867,-39.542301770761412,-40.22658385832392,0.065542681953157114,0.065542681953157114,0.065542681953157114,0.065542681953157114,0.065542681953157114,0.065542681953157114,0.065542681953157114,0.065542681953157114,0.065542681953157114,0.065542681953157114,0.065542681953157114,0.065542681953157114
DP 102,162.64810516261508,0.0029747435500481656,-230.80130224996915,-222.91397450988612,-215.02664676980169,-207.13931902971567,-199.25199128962805,-191.368449774762,-183.63257247511706,-175.89669517547065,-168.16081787582266,-160.42494057617319,-152.70446906845069,-145.27671051971726,-137.84895197098271,-130.42119342224663,-122.99343487350926,-115.59881396686752,-108.61289482237129,-101.62697567787353,-94.641056533374311,-87.655137388873811,-80.72455963678415,-74.292059647339769,-67.8595596578941,-61.427059668447114,-54.994559678998925,-48.641864052329886,-42.84780499968381,-37.053745947036589,-31.259686894388075,-25.465627841738332,-19.775857834007329,-14.677065652502556,-9.5782734709965762,-4.4794812894894127,0.61931089201894607,5.5913864439374743,9.9660767549833089,14.34076706603032,18.715457377078476,23.090147688127772,27.319410332600995,30.96695543777227,34.614500542944739,38.262045648118274,41.909590753292925,45.397858951861664,48.337500003213677,51.27714105456684,54.216782105921105,57.156423157276464,59.928367919791533,62.197217475446493,64.466067031102654,66.734916586759738,69.003766142417959,71.101972711387859,72.75029645022633,74.398620189065738,76.04694392790627,77.695267666747824,79.175075413138728,80.261673867703308,81.348272322269,82.434870776835709,83.521469231403415,84.446031454867679,85.03405217808654,85.622072901306481,86.2100936245274,86.798114347749333,87.2340236420302,87.387436174636107,87.540848707243043,87.694261239851087,87.8476737724601,87.86136438094357,87.642181594104926,87.422998807267376,87.2038160204309,86.984633233595417,86.639633072524518,86.105903877000756,85.572174681478074,85.038445485956387,84.5047162904358,83.859736980910071,83.064240337028181,82.268743693147229,81.473247049267286,80.6777504053885,79.785522219216091,78.775064560646442,77.764606902077816,76.7541492435104,75.743691584943932,74.650423183894333,73.4656254722343,72.280827760575249,71.096030048917427,69.9112323372607,66.007438947061374,64.682880869111216,63.358322791162209,61.97558132711427,60.54019670429912,59.104812081485285,57.669427458672565,56.234042835861018,54.750812462902573,53.228434744836569,51.706057026771724,50.183679308708079,48.661301590645657,47.10003191359489,45.510015366664284,43.919998819734921,42.329982272806795,40.739965725879948,39.11867310450436,37.476529274122,35.834385443740949,34.192241613361169,32.550097782982725,30.883050722050012,29.201061346164472,27.519071970280226,25.837082594397422,24.155093218515912,22.45345407580572,20.741234003677949,19.029013931551621,17.316793859426696,15.604573787303103,13.87697565480148,12.141973055666645,10.406970456533314,8.67196785740146,6.936965258271111,5.1900133554491319,3.4379401611230063,1.6858669667983968,-0.0662062275246108,-1.818279421846116,-3.5795826004682207,-5.3443869279520255,-7.1091912554342382,-8.8739955829147732,-10.63879991039374,-12.410702855740787,-14.18497209650533,-15.959241337268081,-17.733510578029172,-19.507779818788539,-21.28749595427141,-23.06879351271736,-24.850091071161554,-26.631388629603965,-28.41268618804456,-30.19816567236699,-31.984690687568431,-33.771215702768018,-35.557740717965721,-37.344265733161549,-39.134017137516651,-40.924452964414542,-42.714888791310408,-44.5053246182043,-46.295760445096214,-48.088702364243467,-49.882086562831589,-51.675470761417579,-53.468854960001444,-55.262239158583256,-57.057642135843466,-58.85333353186352,-60.649024927881428,-62.444716323897154,-64.2404077199107,-66.037658087022152,-67.835081689515178,-69.632505292005831,-71.42992889449404,-73.2273524969799,-75.0262562703886,-76.825280072778952,-78.624303875167058,-80.423327677552876,-82.222351479936364,-84.022509001657269,-85.82272620409438,-87.622943406528961,-89.423160608960885,-91.223377811390066,-93.024755649485783,-94.826163258719333,-96.627570867950212,-98.428978477178362,-100.23038608640383,0.17330015665544724,0.17330015665544724,0.17330015665544724,0.17330015665544724,0.17330015665544724,0.17330015665544724,0.17330015665544724,0.17330015665544724,0.17330015665544724,0.17330015665544724,0.17330015665544724,0.17330015665544724
DP 103,168.29407542482633,0.0014760095173267612,-116.15029939350418,-112.14465238333504,-108.13900537316508,-104.13335836299437,-100.12771135282296,-96.1240414602067,-92.19747989979912,-88.2709183393908,-84.344356778981691,-80.417795218571868,-76.499269015923772,-72.733416129787116,-68.967563243649849,-65.201710357511871,-61.435857471373311,-57.68726220356352,-54.151513070098282,-50.615763936632433,-47.080014803165867,-43.544265669698632,-40.037274624023219,-36.789109086729638,-33.54094354943544,-30.292778012140591,-27.044612474845135,-23.837804672305491,-20.920504140405434,-18.003203608504762,-15.085903076603467,-12.168602544701578,-9.305171202339162,-6.7470019952220568,-4.1888327881043645,-1.6306635809860812,0.92750562613278564,3.4204674132323913,5.6060192696783,7.7915711261247838,9.9771229825718351,12.162674839019452,14.273709201908167,16.086670068820609,17.899630935733612,19.71259180264715,21.525552669561247,23.257281890578462,24.709209807679315,26.161137724780659,27.613065641882603,29.064993558985073,30.43183166253883,31.543397108331362,32.654962554124445,33.766527999918054,34.878093445712189,35.903547142297754,36.7019759948312,37.5004048473652,38.298833699899717,39.097262552434721,39.811146752418672,40.327757432697773,40.844368112977385,41.360978793257495,41.8775894735381,42.313403553307587,42.581406959096341,42.849410364885685,43.117413770675526,43.385417176465836,43.578057577161644,43.630736075997106,43.683414574833016,43.736093073669437,43.788771572506342,43.772686169957076,43.641992531859678,43.51129889376277,43.380605255666381,43.249911617570476,43.057723316549165,42.773291568003721,42.488859819458774,42.204428070914311,41.919996322370388,41.581575212870462,41.170108473104207,40.758641733338443,40.34717499357324,39.935708253808507,39.477640023536672,38.962613437128489,38.447586850720796,37.932560264313629,37.417533677906967,36.862909130011658,36.26451762618818,35.666126122365235,35.067734618542858,34.469343114720992,32.508364737230927,31.843651561625389,31.178938386020413,30.486828460504956,29.769930506104647,29.053032551704902,28.33613459730574,27.619236642907143,26.879986518340907,26.122447870410092,25.36490922247982,24.607370574550181,23.849831926621103,23.074268415667149,22.285381883568022,21.49649535146953,20.707608819371639,19.91872228727437,19.115456755206605,18.30260499663893,17.489753238071906,16.676901479505492,15.864049720939736,15.03984115438184,14.208818331275671,13.377795508170157,12.546772685065338,11.715749861961152,10.875838266943012,10.031140280867417,9.1864422947925366,8.3417443087183223,7.4970463226447768,6.6454476205234227,5.7905262547848917,4.9356048890471005,4.080683523310034,3.2257621575737105,2.3655209242379911,1.5029996758116446,0.64047842738604133,-0.22204282103877443,-1.0845640694628542,-1.9511632154393395,-2.8193092033072422,-3.6874551911743674,-4.5556011790406652,-5.42374716690619,-6.2950068311748,-7.1673044268182968,-8.0396020224609259,-8.91189961810274,-9.784197213743699,-10.658868427201597,-11.534228784458211,-12.409589141713953,-13.284949498968796,-14.16030985622278,-15.037482558768662,-15.915108369049873,-16.792734179330214,-17.67035998960959,-18.547985799888064,-19.427004307959916,-20.306318252731327,-21.18563219750175,-22.064946142271236,-22.944260087039716,-23.824653193223558,-24.705236751656763,-25.585820310088952,-26.466403868520089,-27.346987426950214,-28.228442606608159,-29.110022312999021,-29.991602019388857,-30.873181725777613,-31.754761432165306,-32.63701155067767,-33.519336166465976,-34.401660782253117,-35.283985398039057,-36.166310013823825,-37.04928407961409,-37.932310810148316,-38.815337540681355,-39.698364271213329,-40.5813910017442,-41.4649094254841,-42.348453732704812,-43.231998039924228,-44.115542347142394,-44.999086654359189,-45.883142304532313,-46.767211071019183,-47.6512798375047,-48.5353486039889,-49.419417370471741,0.085017617286878358,0.085017617286878358,0.085017617286878358,0.085017617286878358,0.085017617286878358,0.085017617286878358,0.085017617286878358,0.085017617286878358,0.085017617286878358,0.085017617286878358,0.085017617286878358,0.085017617286878358
DP 104,110.98632440133608,0.0012690598003226256,-82.3101143279009,-79.753101310963189,-77.19608829402479,-74.639075277085652,-72.0820622601458,-69.525960079533675,-67.005380860110265,-64.484801640686129,-61.964222421261262,-59.443643201835727,-56.926808851872465,-54.481127729644655,-52.035446607416162,-49.589765485187179,-47.144084362957493,-44.706575137908679,-42.369853674654919,-40.0331322114005,-37.696410748145482,-35.359689284889747,-33.03689447865785,-30.839440902009255,-28.641987325360116,-26.444533748710391,-24.24708017206007,-22.070221217532723,-20.037526175171664,-18.00483113281004,-15.972136090447862,-13.939441048085119,-11.934487493575487,-10.086737451674479,-8.2389874097729336,-6.3912373678708372,-4.5434873259682051,-2.7306496002756013,-1.0824003938339188,0.56584881260829889,2.2140980190510375,3.862347225494299,5.4689082988033153,6.9087148693688984,8.3485214399349825,9.78832801050158,11.228134581068682,12.620232176288518,13.847996852196802,15.075761528105586,16.303526204014851,17.531290879924637,18.706359939952556,19.723340159994283,20.7403203800365,21.7573006000792,22.774280820122396,23.734799616082846,24.546463626079955,25.358127636077533,26.169791646075584,26.981455656074157,27.734207205107754,28.34949448906529,28.96478177302329,29.580069056981788,30.195356340940744,30.750602988645621,31.181148107173637,31.611693225702105,32.042238344231066,32.472783462760539,32.84341511774236,33.10277729382473,33.362139469907568,33.621501645990868,33.880863822074659,34.081569581542993,34.184513168179947,34.287456754817384,34.39040034145529,34.493343928093672,34.539853934319538,34.5017122363853,34.463570538451549,34.425428840518208,34.387287142585429,34.295711849505921,34.131842856968305,33.96797386443118,33.804104871894538,33.640235879358421,33.4265147877912,33.151862305835877,32.877209823881067,32.602557341926719,32.327904859972932,32.007373769492013,31.63613383032401,31.264893891156451,30.893653951989421,30.522414012822942,29.200251449544638,28.745634254450739,28.29101705935739,27.798965699109239,27.273044658327052,26.747123617545444,26.221202576764366,25.695281535983828,25.136117160996182,24.54975312307625,23.963389085156862,23.377025047238067,22.790661009319813,22.175079673104268,21.537902462208059,20.900725251312437,20.263548040417408,19.626370829522962,18.9637629765756,18.284200961637794,17.604638946700607,16.925076931764021,16.245514916828075,15.544018086902714,14.829360036255583,14.114701985609067,13.400043934963211,12.685385884317999,11.951967876457148,11.208448080370982,10.464928284285486,9.72140848820066,8.97788869211646,8.218449635107886,7.4513455258463717,6.684241416585575,5.917137307325488,5.15003319806611,4.3695171222939,3.5832528797718957,2.7969886372506112,2.0107243947300857,1.2244601522102796,0.426969066705606,-0.37478062285121749,-1.1765303124072781,-1.9782800019625426,-2.7800296915170533,-3.591124988089109,-4.4053356047807188,-5.2195462214714849,-6.0337568381614579,-6.8479674548506,-7.6699235026371477,-8.4941283184328231,-9.318333134227645,-10.142537950021614,-10.966742765814704,-11.797348652164876,-12.629554881783079,-13.461761111400408,-14.29396734101682,-15.126173570632345,-15.963667399004867,-16.802282899814717,-17.640898400623612,-18.479513901431574,-19.318129402238569,-20.161120840877228,-21.004884552499277,-21.848648264120303,-22.692411975740367,-23.536175687359389,-24.383607505066479,-25.231563377552444,-26.079519250037393,-26.927475122521344,-27.775430995004193,-28.62645112356757,-29.477811757209594,-30.32917239085047,-31.180533024490181,-32.031893658128759,-32.885993423503415,-33.740315308629306,-34.59463719375406,-35.448959078877763,-36.303280964000365,-37.159974052656715,-38.016791965090334,-38.873609877522689,-39.730427789953787,-40.587245702383584,-41.446347044173635,-42.3055069575698,-43.164666870964673,-44.023826784358242,-44.882986697750518,0.083112974288173866,0.083112974288173866,0.083112974288173866,0.083112974288173866,0.083112974288173866,0.083112974288173866,0.083112974288173866,0.083112974288173866,0.083112974288173866,0.083112974288173866,0.083112974288173866,0.083112974288173866
DP 105,106.58432082722216,0.0021621605300724276,-137.27111519177521,-133.04643459211465,-128.82175399245298,-124.59707339279005,-120.37239279312601,-116.14917233392795,-111.98289790501163,-107.81662347609409,-103.65034904717535,-99.484074618255462,-95.323809942072828,-91.277731704017526,-87.231653465961159,-83.1855752279037,-79.139496989845256,-75.106549099043008,-71.235543812540968,-67.364538526037833,-63.493533239533555,-59.622527953028211,-55.773938489919722,-52.127093556161917,-48.48024862240311,-44.833403688643294,-41.186558754882505,-37.572934542662885,-34.191857893286752,-30.810781243909666,-27.429704594531628,-24.048627945152571,-20.712418240784586,-17.630457385400724,-14.548496530015889,-11.466535674630149,-8.3845748192434755,-5.3592497870479106,-2.6009252660618647,0.15739925492508863,2.9157237759129377,5.67404829690168,8.3645121479740361,10.78353011224436,13.202548076515548,15.621566040787611,18.040584005060552,20.381643556532413,22.454176411145951,24.526709265760353,26.599242120375568,28.671774974991653,30.657838032155023,32.384488427669183,34.111138823184213,35.837789218700074,37.564439614216752,39.198021221568084,40.58623646122161,41.974451700875967,43.362666940531106,44.750882180187105,46.04151624358348,47.104457821212478,48.167399398842242,49.23034097647286,50.2932825541043,51.256261955174786,52.011624697683665,52.766987440193311,53.522350182703782,54.27771292521507,54.932781654109711,55.401587363457992,55.870393072807069,56.339198782156977,56.808004491507681,57.17806223923516,57.383537561918871,57.589012884603328,57.794488207288694,57.999963529974842,58.109868603931545,58.076416046442517,58.042963488954271,58.009510931466885,57.97605837398028,57.851558994848226,57.603876596819973,57.356194198792565,57.108511800765918,56.860829402740194,56.527662365530645,56.090012307073671,55.6523622486175,55.214712190162231,54.777062131707886,54.260225391974288,53.655864955077064,53.051504518180607,52.447144081285089,51.842783644390451,49.667508751975085,48.918270608511968,48.1690324650497,47.354300336397664,46.480310565800025,45.606320795203317,44.732331024607511,43.858341254012714,42.925780191232214,41.945296155532233,40.964812119833233,39.984328084135207,39.003844048438182,37.971512985952835,36.90085935573056,35.830205725509387,34.759552095289166,33.688898465070011,32.572787993395686,31.42637224464659,30.279956495898549,29.133540747151528,27.987124998405587,26.801210590600938,25.591596390008544,24.3819821894172,23.172367988827027,21.962753788237904,20.719103912303297,19.45712663932326,18.195149366344452,16.933172093366775,15.671194820390244,14.380115816672962,13.075024461010484,11.76993310534923,10.464841749689201,9.1597503940304019,7.8299519789205156,6.489564490427016,5.1491770019347571,3.8087895134438097,2.4684020249541012,1.1071716156028457,-0.261965000984047,-1.6311016175696247,-3.0002382341538323,-4.3693748507367429,-5.7559983678943123,-7.1484510722932608,-8.5409037766907687,-9.9333564810868911,-11.3258091854816,-12.732869777378744,-14.14417154703397,-15.555473316687742,-16.966775086340046,-18.378076855990855,-19.801547801835824,-21.228061185508544,-22.654574569179751,-24.081087952849376,-25.507601336517443,-26.944248253322957,-28.383044823560251,-29.821841393795868,-31.260637964029907,-32.699434534262281,-34.146685867908765,-35.595429312644939,-37.0441727573794,-38.492916202112106,-39.9416596468431,-41.397543510207178,-42.8544475105081,-44.311351510807278,-45.76825551110462,-47.225159511400186,-48.688083948460758,-50.15167738616654,-51.615270823870432,-53.078864261572164,-54.54245769927212,-56.011450621471127,-57.4808813948836,-58.950312168294069,-60.419742941702708,-61.8891737151095,-63.363327761567341,-64.837730448336146,-66.312133135102755,-67.786535821867218,-69.260938508629479,-70.739893679329441,-72.218965624518475,-73.6980375697053,-75.177109514889949,-76.656181460072247,0.14319247172502964,0.14319247172502964,0.14319247172502964,0.14319247172502964,0.14319247172502964,0.14319247172502964,0.14319247172502964,0.14319247172502964,0.14319247172502964,0.14319247172502964,0.14319247172502964,0.14319247172502964
DP 106,191.04795746878517,0.0014906388902162435,-123.3326321571169,-118.92896694205582,-114.5253017269942,-110.12163651193164,-105.71797129686843,-101.31671900683433,-97.009571705255837,-92.702424403676716,-88.395277102096841,-84.088129800516242,-79.790749157161684,-75.6789368664291,-71.567124575695857,-67.455312284961934,-63.343499994227408,-59.252531750553132,-55.418642714237023,-51.584753677920268,-47.750864641602789,-43.916975605284627,-40.117518258419032,-36.627949371156717,-33.138380483893769,-29.648811596630242,-26.159242709366069,-22.718651925015234,-19.620911564635261,-16.523171204254691,-13.425430843873535,-10.327690483491752,-7.292913496785566,-4.6149329284911236,-1.9369523601960947,0.74102820809951087,3.41900877639569,6.0219191921619251,8.2709234055887464,10.519927619016132,12.768931832444078,15.017936045872567,17.182599712886191,19.009897208256614,20.837194703627564,22.664492198999049,24.491789694371082,26.228854737696292,27.655115322247994,29.081375906800275,30.507636491353054,31.933897075906369,33.267543196110324,34.32334242165556,35.379141647201351,36.434940872747624,37.490740098294424,38.454833319176743,39.177153012068473,39.899472704960729,40.621792397853426,41.34411209074667,41.978451669769484,42.407501544434325,42.836551419099692,43.265601293765549,43.694651168431896,44.041640955561206,44.218195866601967,44.394750777643225,44.571305688685015,44.747860599727233,44.849793601353127,44.813141041677966,44.776488482003245,44.739835922329007,44.703183362655281,44.600215229409123,44.386719468682813,44.173223707956872,43.9597279472315,43.746232186506596,43.475026083376171,43.117253102925808,42.759480122475949,42.401707142026595,42.04393416157771,41.6368958248268,41.1632032632867,40.689510701747132,40.215818140208015,39.742125578669452,39.227114795598624,38.661603096111904,38.0960913966257,37.530579697140041,36.965067997654842,36.365464924108451,35.728181232419765,35.0908975407316,34.453613849044,33.816330157356887,31.765946338105163,31.073249443989432,30.380552549874235,29.665651767331759,28.93066135264359,28.195670937955995,27.46068052326893,26.725690108582395,25.973134917429871,25.206208243670361,24.43928156991139,23.672354896153021,22.905428222395177,22.124772364024597,21.333968621775533,20.54316487952709,19.752361137279212,18.961557395031971,18.160140204242904,17.351647213893749,16.543154223545216,15.734661233197276,14.926168242849977,14.109552349927398,13.288062592614224,12.466572835301692,11.64508307798984,10.823593320678597,9.9959421121984011,9.1649731096449081,8.33400410709211,7.5030351045399808,6.672066101988511,5.8364592595253155,4.9986193180866607,4.160779376648728,3.3229394352114978,2.4850994937749844,1.6437897981817178,0.80099301824103475,-0.041803761698925759,-0.884600541638124,-1.7273973215766065,-2.5727794035246423,-3.4191421509745172,-4.265504898423627,-5.1118676458719428,-5.9582303933195107,-6.8065169961524195,-7.65544490835924,-8.5043728205652123,-9.3533007327703963,-10.202228644974754,-11.052591790265474,-11.903371633633496,-12.75415147700069,-13.604931320367017,-14.455711163732495,-15.3075700595454,-16.159698731218622,-17.011827402890965,-17.863956074562395,-18.716084746232955,-19.5690371701739,-20.422164338882027,-21.275291507589181,-22.128418676295386,-22.98154584500066,-23.835312804294126,-24.689192674922783,-25.543072545550412,-26.396952416177097,-27.250832286802751,-28.105243718358324,-28.959731092930845,-29.814218467502382,-30.668705842072857,-31.523193216642298,-32.378087616868157,-33.233027246440642,-34.087966876011969,-34.942906505582194,-35.797846135151275,-36.653222428662616,-37.508634131819569,-38.364045834975428,-39.21945753813015,-40.074869241283842,-40.930599628869565,-41.786346792489645,-42.642093956108496,-43.497841119726139,-44.353588283342461,-45.209691021855448,-46.06580288111941,-46.921914740382014,-47.77802659964339,-48.634138458903443,0.08222309720358259,0.08222309720358259,0.08222309720358259,0.08222309720358259,0.08222309720358259,0.08222309720358259,0.08222309720358259,0.08222309720358259,0.08222309720358259,0.08222309720358259,0.08222309720358259,0.08222309720358259
DP 107,104.34586810761314,0.00169583419484204,-106.44455509689379,-103.18445860967016,-99.924362122445586,-96.664265635219977,-93.4041691479935,-90.145181828688024,-86.929452477701517,-83.713723126714243,-80.497993775725945,-77.282264424736681,-74.0711029661688,-70.946732327148325,-67.822361688126989,-64.697991049104843,-61.573620410081844,-58.45923594735757,-55.468015584201169,-52.476795221043822,-49.4855748578857,-46.494354494726679,-43.520197784234924,-40.699615560632587,-37.879033337029455,-35.058451113425541,-32.237868889820859,-29.442603728286738,-26.824559915650116,-24.206516103012742,-21.588472290374586,-18.970428477735688,-16.386621903623745,-13.996828505263714,-11.607035106902938,-9.2172417085414384,-6.8274483101792063,-4.4809400581914085,-2.3384926913214765,-0.19604532445082856,1.9464020424205228,4.0888494092925747,6.1793419147590036,8.0620125191845151,9.9446831236107229,11.82735372803762,13.710024332465187,15.532891766491801,17.149767990173853,18.766644213856587,20.38352043754,22.000396661224066,23.55079947017137,24.901779521650131,26.252759573129531,27.6037396246096,28.954719676090324,30.233987365031595,31.324192724246853,32.414398083462729,33.504603442679247,34.594808801896505,35.609639124358658,36.448591986213934,37.287544848069892,38.1264977099265,38.965450571783755,39.726985030969558,40.32772517147589,40.928465311982855,41.529205452490444,42.12994559299873,42.652795863781535,43.030991415862964,43.409186967945104,43.787382520027826,44.165578072111209,44.46686029392977,44.6399516933244,44.81304309271961,44.986134492115482,45.159225891512015,45.257653909216593,45.244085090066605,45.230516270917285,45.216947451768611,45.203378632620606,45.1184564622299,44.936995817946375,44.755535173663532,44.574074529381335,44.392613885099813,44.1439406394093,43.813117246883436,43.482293854358247,43.151470461833739,42.820647069309913,42.427354378424219,41.96501543047183,41.502676482520108,41.0403375345691,40.577998586618826,38.904268487552713,38.327244020715526,37.750219553879013,37.121166993018036,36.445040457991709,35.768913922966107,35.092787387941264,34.4166608529171,33.693837912759335,32.9328080204387,32.17177812811876,31.410748235799669,30.649718343481318,29.847201092107522,29.014018589009339,28.18083608591202,27.347653582815436,26.5144710797197,25.644778377699506,24.750744967899337,23.856711558100045,22.962678148301531,22.068644738503878,21.142766068522057,20.197779760822325,19.252793453123427,18.307807145425443,17.362820837728293,16.390287724276515,15.40292131484121,14.415554905406861,13.428188495973437,12.440822086540878,11.429809942362978,10.40741248367554,9.3850150249890749,8.3626175663035731,7.3402201076190385,6.2976680156419942,5.2464779515348621,4.1952878874287149,3.1440978233236021,2.09290775921946,1.0246469816679762,-0.050089116644545122,-1.1248252149560307,-2.1995613132664316,-3.2742974115758203,-4.363413918352764,-5.4573240758517327,-6.5512342333495486,-7.6451443908462888,-8.7390545483419082,-9.8450269874390255,-10.954501526373114,-12.063976065306047,-13.173450604237809,-14.282925143168404,-15.402490190997241,-16.524577985270373,-17.646665779542335,-18.768753573813026,-19.890841368082487,-21.021367153156771,-22.153682911742347,-23.28599867032657,-24.418314428909536,-25.550630187491191,-26.690016240066896,-27.830650070204182,-28.971283900340062,-30.111917730474637,-31.252551560607834,-32.399180404545014,-33.546665743784992,-34.694151083023627,-35.841636422260741,-36.989121761496477,-38.141686198712883,-39.294815033490288,-40.447943868266179,-41.601072703040472,-42.754201537813266,-43.911894905139036,-45.06995841634015,-46.228021927539707,-47.386085438737865,-48.544148949934545,-49.706226277403665,-50.868514898294947,-52.030803519184566,-53.193092140072423,-54.355380760958568,-55.521541004135628,-56.687800557210736,-57.85406011028406,-59.020319663355629,-60.186579216425429,0.11295620574459461,0.11295620574459461,0.11295620574459461,0.11295620574459461,0.11295620574459461,0.11295620574459461,0.11295620574459461,0.11295620574459461,0.11295620574459461,0.11295620574459461,0.11295620574459461,0.11295620574459461
DP 108,137.53285458475955,0.0014882395171657975,-107.25496377149156,-103.74532161066375,-100.2356794498351,-96.726037289005632,-93.216395128175364,-89.708226541820622,-86.257527917184433,-82.806829292547434,-79.356130667909667,-75.905432043271148,-72.460758781735564,-69.130568558221952,-65.800378334707688,-62.470188111192684,-59.139997887677012,-55.822858605290406,-52.666682574959076,-49.510506544627042,-46.35433051429424,-43.198154483960714,-40.063988042607029,-37.127909982450767,-34.191831922293886,-31.255753862136352,-28.319675801978121,-25.415725687181919,-22.736673619340166,-20.057621551497768,-17.37856948365474,-14.699517415811068,-12.06306989110249,-9.6680507955163115,-7.2730316999295042,-4.8780126043420813,-2.4829935087540416,-0.14062634391850057,1.9535217320976581,4.0476698081144225,6.1418178841317772,8.2359659601497288,10.26852093865795,12.0547006162007,13.840880293744025,15.627059971287922,17.413239648832423,19.130519474826475,20.610474695482036,22.090429916138156,23.570385136794851,25.050340357452097,26.456064645205142,27.639093327687725,28.822122010170865,30.005150692654553,31.188179375138812,32.293780251986085,33.195250616312151,34.096720980638786,34.998191344965967,35.899661709293682,36.722628380280945,37.36241729338753,38.002206206494556,38.641995119602178,39.281784032710362,39.843959825700921,40.2449368811917,40.645913936683023,41.046890992174887,41.447868047667292,41.773831246123841,41.96048096997243,42.147130693821566,42.333780417671242,42.520430141521416,42.636052332625113,42.633293512190576,42.630534691756573,42.627775871323095,42.625017050890193,42.556254371803547,42.388484345046642,42.220714318290305,42.05294429153448,41.885174264779224,41.657115284262844,41.347487554874476,41.037859825486663,40.72823209609934,40.418604366712657,40.05477578156593,39.624700567573619,39.194625353581863,38.764550139590668,38.334474925600041,37.856383083340717,37.325219275398155,36.794055467456168,36.262891659514686,35.731727851573858,33.92843088802644,33.313344705549383,32.69825852307288,32.046966957487747,31.362917488676267,30.678868019865359,29.994818551055118,29.310769082245425,28.595848447148146,27.855669054547178,27.11548966194685,26.375310269347167,25.635130876748086,24.868918376294449,24.083463585569714,23.298008794845629,22.5125540041222,21.727099213399423,20.919916727856666,20.098248770146572,19.276580812437157,18.454912854728434,17.633244897020386,16.793616030484841,15.943210347023529,15.092804663562928,14.242398980103077,13.391993296643891,12.526872307053036,11.653827477098227,10.78078264714418,9.9077378171908475,9.0346929872382233,8.1496903695154312,7.2589301309758829,6.3681698924371224,5.47740965389914,4.5866494153619533,3.68624399154153,2.7817047866469267,1.877165581753119,0.97262637686015629,0.068087171967983376,-0.84418104184374465,-1.7593810494594884,-2.6745810570743918,-3.589781064688411,-4.5049810723016028,-5.4263407498227743,-6.3497537282751786,-7.2731667067266477,-8.1965796851772339,-9.1199926636269133,-10.048294613724613,-10.978016002314366,-11.907737390903174,-12.837458779491055,-13.767180168077973,-14.700773301337286,-15.635334416509069,-16.569895531679894,-17.504456646849704,-18.439017762018519,-19.376647084296298,-20.314927273536995,-21.253207462776626,-22.191487652015219,-23.129767841252768,-24.0704858014863,-25.011633983708887,-25.952782165930365,-26.893930348150754,-27.835078530370009,-28.778203619479694,-29.72161114521376,-30.665018670946761,-31.608426196678536,-32.5518337224092,-33.496814428965791,-34.441969949912888,-35.387125470858706,-36.332280991803273,-37.277436512746611,-38.224004919169452,-39.170687898310931,-40.117370877451179,-41.064053856590242,-42.010736835728117,-42.958566395310186,-43.906456312638042,-44.854346229964563,-45.802236147289591,-46.750126064613319,-47.699134110345845,-48.648170836875892,-49.597207563404488,-50.54624428993165,-51.495281016457334,0.091491448766361075,0.091491448766361075,0.091491448766361075,0.091491448766361075,0.091491448766361075,0.091491448766361075,0.091491448766361075,0.091491448766361075,0.091491448766361075,0.091491448766361075,0.091491448766361075,0.091491448766361075
DP 109,64.289086853605141,0.0016948069203516236,-79.014535970555428,-76.826831775431785,-74.639127580307232,-72.4514233851817,-70.26371919005534,-68.076548089984414,-65.910167898671389,-63.743787707357406,-61.5774075160425,-59.411027324726639,-57.24686876097892,-55.12492154102538,-53.002974321070987,-50.881027101115762,-48.759079881159785,-46.642045421634634,-44.5856022932464,-42.529159164857269,-40.472716036467354,-38.41627290807655,-36.368366683016205,-34.397293394855055,-32.426220106693087,-30.455146818530395,-28.484073530366903,-26.525920462774938,-24.658209916175771,-22.790499369575873,-20.922788822975171,-19.055078276373745,-17.205269168414219,-15.456902674138744,-13.708536179862552,-11.960169685585623,-10.211803191307959,-8.4867127748439728,-6.8713536966939284,-5.2559946185431805,-3.6406355403917225,-2.0252764622395638,-0.43876227199621665,1.03237100338396,2.5035042787648267,3.9746375541463848,5.4457708295286231,6.8825001480165939,8.2007255030220154,9.5189508580281146,10.837176213034901,12.15540156804235,13.433861331965815,14.593022819160471,15.752184306355804,16.9113457935518,18.070507280748469,19.184909383820248,20.181307935759087,21.177706487698611,22.174105039638796,23.170503591579614,24.117663484987972,24.94993162378865,25.782199762589979,26.614467901391968,27.446736040194619,28.225911428694907,28.894815714755467,29.563720000816666,30.232624286878519,30.901528572941025,31.514197830129678,32.022429086438372,32.530660342747737,33.0388915990578,33.547122855368471,33.99673866113632,34.348660571892992,34.700582482650312,35.05250439340832,35.404426304167,35.696132842403728,35.897514898951471,36.098896955499868,36.300279012048954,36.5016610685987,36.642002189429149,36.699757157308042,36.7575121251877,36.815267093067973,36.873022060948962,36.8696503035917,36.79156682032859,36.71348333706618,36.635399853804508,36.557316370543525,36.418708559425447,36.21320423418603,36.007699908947394,35.802195583709448,35.596691258472276,34.683656050757648,34.359542608501279,34.035429166245677,33.653771368670007,33.220048594537083,32.786325820404919,32.352603046273572,31.918880272143006,31.42982422752555,30.895494556116972,30.361164884709222,29.826835213302243,29.29250554189618,28.705416359268167,28.079330148887319,27.453243938507335,26.827157728128221,26.201071517749977,25.525072446630443,24.815797348713946,24.106522250798381,23.397247152883725,22.687972054969958,21.931817843623609,21.147535455247731,20.36325306687278,19.578970678498827,18.794688290125787,17.966667054012362,17.11509349461706,16.263519935222796,15.411946375829553,14.560372816437306,13.668233254146765,12.756561344632866,11.844889435120034,10.933217525608249,10.021545616097532,9.0724468627615309,8.1073075281260536,7.1421681934916643,6.1770288588584057,5.2118895242262351,4.2123702813892265,3.1998099354924068,2.1872495895967323,1.1746892437022507,0.16212889780890108,-0.88190714619579913,-1.9364354862523696,-2.9909638263076808,-4.0454921663617913,-5.1000205064146593,-6.1833063213602832,-7.2749414313625005,-8.3665765413634361,-9.4582116513630812,-10.549846761361438,-11.667744458661026,-12.792208113080839,-13.91667176749934,-15.041135421916431,-16.165599076332189,-17.314085555223702,-18.467668059992331,-19.621250564759496,-20.774833069525254,-21.928415574289588,-23.104056642467963,-24.283590643600423,-25.463124644731352,-26.642658645860784,-27.822192646988661,-29.022158895919176,-30.225044258108987,-31.427929620297281,-32.630814982483933,-33.833700344669083,-35.055623420663075,-36.279661998130436,-37.503700575596028,-38.727739153059844,-39.951777730521968,-41.194018452868917,-42.437735210798188,-43.681451968725767,-44.925168726651719,-46.168885484576009,-47.430046795490796,-48.692126414337643,-49.954206033182636,-51.216285652025647,-52.478365270866753,-53.757776138017867,-55.037631564166645,-56.317486990313391,-57.597342416458176,-58.877197842600935,0.12566067780617746,0.12566067780617746,0.12566067780617746,0.12566067780617746,0.12566067780617746,0.12566067780617746,0.12566067780617746,0.12566067780617746,0.12566067780617746,0.12566067780617746,0.12566067780617746,0.12566067780617746
DP 110,167.80315243490384,0.0011889915802399985,-93.452072283874116,-90.23174153192295,-87.011410779971072,-83.791080028018627,-80.570749276065584,-77.3520041477899,-74.1950989424592,-71.038193737127884,-67.8812885317959,-64.724383326463354,-61.573923578687783,-58.545928742971391,-55.517933907254445,-52.489939071536924,-49.461944235818891,-46.447793668014647,-43.604390815922869,-40.76098796383053,-37.917585111737623,-35.074182259644154,-32.253854143321064,-29.641200829987856,-27.028547516654086,-24.415894203319873,-21.80324088998514,-19.223779255525489,-16.876661883047586,-14.529544510569194,-12.1824271380903,-9.83530976561092,-7.5314381106392068,-5.47262824663682,-3.4138183826339579,-1.3550085186306224,0.70380134537318384,2.710246275583128,4.4698251181376776,6.229403960692685,7.9889828032481489,9.74856164580407,11.448277071311722,12.908535999445871,14.368794927580458,15.829053855715498,17.289312783850978,18.684287749281904,19.854392989522903,21.024498229764369,22.194603470006232,23.364708710248536,24.466398889597592,25.362841299598429,26.259283709599703,27.15572611960139,28.05216852960352,28.879341658129185,29.523893390976323,30.168445123823869,30.812996856671806,31.457548589520169,32.034056816698204,32.451794720128817,32.869532623559842,33.287270526991264,33.705008430423135,34.05768509304496,34.275232671011423,34.492780248978271,34.71032782694553,34.927875404913237,35.084703254844165,35.1287642557649,35.172825256686,35.21688625760752,35.260947258529463,35.249573349637124,35.145806527115589,35.0420397045945,34.938272882073782,34.834506059553512,34.681134928177386,34.45335616135376,34.225577394530532,33.9977986277077,33.770019860885363,33.498663986978329,33.168349881378674,32.838035775779446,32.507721670180644,32.177407564582246,31.809455648656037,31.395501173980794,30.981546699305962,30.567592224631589,30.153637749957593,29.707681135611935,29.226353098497007,28.745025061382496,28.26369702426841,27.782368987154751,26.204297748006852,25.669334758379392,25.134371768752384,24.57723788752028,24.000044229004171,23.422850570488528,22.845656911973339,22.268463253458606,21.673168685673041,21.063063971953657,20.452959258234735,19.842854544516303,19.232749830798333,18.6080384250474,17.972530528552127,17.337022632057362,16.701514735563084,16.066006839069313,15.418838631478259,14.763896699464967,14.108954767452211,13.454012835439958,12.79907090342822,12.134912970121253,11.465225296660316,10.795537623199925,10.12584994974009,9.4561622762807716,8.7792563639233574,8.0984636025786259,7.417670841234469,6.736878079890853,6.0560853185477717,5.3696848613116526,4.6805843238243074,3.9914837863375707,3.3023832488514024,2.6132827113658395,1.9198561719302836,1.2245755732453532,0.52929497456102415,-0.16598562412267059,-0.8612662228057717,-1.5598650543312449,-2.25972256916107,-2.9595800839902608,-3.6594375988187942,-4.3592951136467031,-5.0616878278667974,-5.7649256405011515,-6.46816345313481,-7.1714012657678081,-7.8746390784001168,-8.5798105866932417,-9.2855435140841216,-9.9912764414742963,-10.697009368863769,-11.402742296252526,-12.109952340829153,-12.817531682154481,-13.525111023479079,-14.232690364802925,-14.940269706126019,-15.648984504104492,-16.357940169533414,-17.066895834961542,-17.775851500388903,-18.484807165815461,-19.194642810391773,-19.904633755191092,-20.614624699989555,-21.324615644787219,-22.034606589584019,-22.745308049684265,-23.456111019645245,-24.166913989605376,-24.877716959564633,-25.588519929523038,-26.299869583062524,-27.011279984962762,-27.722690386862016,-28.434100788760322,-29.145511190657739,-29.857450201719232,-30.569432078384079,-31.281413955047931,-31.993395831710959,-32.705377708373035,-33.4177601376993,-34.13016365272906,-34.842567167757764,-35.554970682785452,-36.267374197812053,-36.980193758116414,-37.69302399028075,-38.405854222443963,-39.118684454606139,-39.831514686767214,0.068552420164680938,0.068552420164680938,0.068552420164680938,0.068552420164680938,0.068552420164680938,0.068552420164680938,0.068552420164680938,0.068552420164680938,0.068552420164680938,0.068552420164680938,0.068552420164680938,0.068552420164680938
DP 111,128.97960399728336,0.0019541092568078353,-136.63876960460883,-132.23847467348739,-127.83817974236487,-123.43788481124142,-119.03758988011681,-114.63905233594139,-110.309053547268,-105.97905475859375,-101.64905596991834,-97.319057181241874,-92.996255905737257,-88.81020874115157,-84.624161576564845,-80.438114411977324,-76.252067247388823,-72.0816484582387,-68.103981602456358,-64.126314746673089,-60.148647890888853,-56.170981035103658,-52.219757877944566,-48.506530507918647,-44.793303137891918,-41.080075767864251,-37.366848397835724,-33.692383470243449,-30.289258570807018,-26.886133671369731,-23.483008771931612,-20.079883872492623,-16.728420428559136,-13.669708487894622,-10.610996547229281,-7.55228460656311,-4.49357266589613,-1.4990787829692129,1.192669359199739,3.8844175013694935,6.5761656435400369,9.2679137857113609,11.884044310454918,14.197700791753432,16.511357273052731,18.825013754352796,21.138670235653617,23.367118159383157,25.302066360805135,27.237014562227866,29.171962763651347,31.106910965075592,32.949324939509111,34.514132734392952,36.078940529277553,37.643748324162878,39.208556119048971,40.67601369352839,41.886817340879155,43.097620988230673,44.308424635582895,45.51922828293587,46.630421966730616,47.509189263806824,48.387956560883758,49.2667238579614,50.145491155039743,50.924821690088741,51.49762682742243,52.070431964756821,52.643237102091966,53.216042239427772,53.691759301745478,53.987167317065108,54.282575332385392,54.577983347706365,54.873391363028091,55.075890717317783,55.123539961398983,55.171189205480921,55.218838449563535,55.266487693646887,55.22684335576615,55.05625658216745,54.885669808569475,54.715083034972238,54.544496261375691,54.293260926841867,53.93291103974758,53.572561152653996,53.212211265561109,52.851861378469032,52.418151313339862,51.894777267479675,51.3714032216203,50.848029175761589,50.324655129903682,49.735503826495332,49.073650034775547,48.411796243056557,47.749942451338349,47.088088659620873,44.81155252263833,44.03330860616574,43.255064689693874,42.425972520839544,41.550873874832995,40.67577522882727,39.800676582822355,38.925577936818222,38.006563321307929,37.05161670329538,36.096670085283655,35.14172346727279,34.186776849262742,33.194311487534804,32.1741142637003,31.1539170398667,30.133719816033945,29.113522592202084,28.061595519166957,26.988514713473272,25.915433907780546,24.842353102088712,23.769272296397755,22.669610151763489,21.553998801764028,20.438387451765525,19.322776101768014,18.207164751771405,17.069480402913708,15.919910272152121,14.770340141391534,13.62077001063194,12.471199879873277,11.303448718875387,10.126943473912405,8.9504382289505013,7.7739329839896243,6.5974277390298131,5.4060576236667144,4.2083166488395385,3.0105756740134408,1.812834699188469,0.61509372436455423,-0.594720885803894,-1.8091153081661682,-3.0235097305273162,-4.2379041528872854,-5.4522985752461439,-6.6764446232458,-7.903841336022829,-9.1312380487986129,-10.358634761573223,-11.586031474346596,-12.821270226160481,-14.05878579462879,-15.29630136309585,-16.533816931561638,-17.771332500026155,-19.015137819586208,-20.260515651233348,-21.505893482879166,-22.751271314523656,-23.996649146166835,-25.24707173604202,-26.498564483945476,-27.750057231847475,-29.001549979748102,-30.253042727647333,-31.508589936339181,-32.76485268319702,-34.021115430053307,-35.277378176908165,-36.533640923761546,-37.793218590260039,-39.053269852515562,-40.313321114769622,-41.573372377022061,-42.833423639273015,-44.096150314646891,-45.35917428624208,-46.622198257835628,-47.885222229427363,-49.148246201017521,-50.4136566675431,-51.679260658043027,-52.944864648541277,-54.210468639038019,-55.476072629533057,-56.743654277281223,-58.011340031928157,-59.279025786573335,-60.546711541216574,-61.814397295857987,-63.083996153401372,-64.353644083409847,-65.623292013416417,-66.892939943421155,-68.162587873423888,0.12251355285005266,0.12251355285005266,0.12251355285005266,0.12251355285005266,0.12251355285005266,0.12251355285005266,0.12251355285005266,0.12251355285005266,0.12251355285005266,0.12251355285005266,0.12251355285005266,0.12251355285005266
DP 112,67.713590273430341,0.0032338152175807656,-156.17686176711092,-151.80928234282592,-147.44170291853914,-143.07412349425044,-138.70654406996002,-134.34006493854531,-130.01649764535941,-125.69293035217198,-121.36936305898259,-117.04579576579157,-112.7268089848162,-108.49485280188415,-104.26289661895069,-100.03094043601557,-95.7989842530789,-91.577147318318978,-87.480115719735,-83.383084121149636,-79.286052522562457,-75.189020923973715,-71.109545747832854,-67.188080033190374,-63.26661431854648,-59.345148603901073,-55.423682889254138,-51.528743932230924,-47.819494284454606,-44.110244636676846,-40.400994988897587,-36.691745341116935,-33.019169528563928,-29.554414426610194,-26.089659324655056,-22.624904222698508,-19.160149120740574,-15.742966142164548,-12.550054314721345,-9.3571424872767714,-6.1642306598308494,-2.9713188323835822,0.16280543894307381,3.0617767074498818,5.9607479759580162,8.8597192444674864,11.758690512978236,14.587759723652189,17.176052243008378,19.764344762365841,22.352637281724597,24.940929801084657,27.4487025860998,29.714913123750989,31.981123661403455,34.247334199057185,36.513544736712205,38.689459873389467,40.627320394824125,42.565180916260047,44.503041437697235,46.440901959135665,48.279826517141991,49.887897376625659,51.495968236110578,53.1040390955967,54.712109955084124,56.213957871532962,57.495185816958475,58.77641376238531,60.057641707813367,61.3388696532427,62.50809939287182,63.469329439958337,64.430559487046054,65.391789534135029,66.353019581225283,67.198068245262789,67.8494783424535,68.500888439645465,69.152298536838714,69.8037086340333,70.33636836882647,70.690899753913072,71.045431139001039,71.39996252409037,71.754493909180965,71.98927983720229,72.062054542488738,72.134829247776523,72.207603953065657,72.280378658356113,72.233897587566361,72.0416569521923,71.849416316819486,71.6571756814481,71.464935046078068,71.155285831899548,70.715866904808848,70.27644797771957,69.837029050631685,69.397610123545221,67.507539304351809,66.839394329709435,66.171249355068468,65.392812196435017,64.514584885629716,63.636357574825858,62.758130264023556,61.879902953222775,60.896289874728723,59.826450266090006,58.756610657452889,57.686771048817285,56.616931440183279,55.44725903531107,54.203795531253633,52.960332027197744,51.71686852314356,50.473405019091018,49.136126986698891,47.736304457505554,46.336481928313994,44.936659399124188,43.536836869936018,42.049508755880105,40.509675967524444,38.969843179170638,37.430010390818623,35.890177602468377,34.269280423242151,32.604732008576576,30.9401835939129,29.275635179251122,27.611086764591175,25.871903891150982,24.096784862813369,22.321665834477791,20.546546806144175,18.771427777812594,16.927970144826372,15.055223615641193,13.18247708645808,11.309730557277108,9.4369840280981716,7.5019518904766764,5.5432933651987275,3.5846348399229506,1.625976314649423,-0.33268221062195713,-2.3479053082024324,-4.38198397609028,-6.41606264397574,-8.4501413118589266,-10.484219979739766,-12.569548272339359,-14.669756113296666,-16.769963954251555,-18.870171795204005,-20.970379636154028,-23.116989759390691,-25.275201001446135,-27.43341224349907,-29.591623485549395,-31.749834727597214,-33.950120218858139,-36.159331032908057,-38.368541846955196,-40.577752660999643,-42.786963475041411,-45.0344675654481,-47.288729718684095,-49.542991871917174,-51.79725402514751,-54.051516178374847,-56.340945869613513,-58.635399874745218,-60.929853879874059,-63.2243078849999,-65.51876189012269,-67.845705021332833,-70.176258396650368,-72.5068117719648,-74.837365147275733,-77.167918522583534,-79.529335937970558,-81.893256158475012,-84.2571763789763,-86.621096599474456,-88.985016819969474,-91.378319944119141,-93.773169829226347,-96.168019714330015,-98.56286959943,-100.95771948452631,-103.38167004285388,-105.8063670544019,-108.23106406594616,-110.65576107748682,-113.08045808902354,0.23762416291786928,0.23762416291786928,0.23762416291786928,0.23762416291786928,0.23762416291786928,0.23762416291786928,0.23762416291786928,0.23762416291786928,0.23762416291786928,0.23762416291786928,0.23762416291786928,0.23762416291786928
DP 113,272.17679956851237,0.0036461426802028656,-340.6881024557631,-327.19524248981986,-313.70238252387514,-300.20952255792912,-286.71666259198093,-273.23379960686879,-260.14082265413924,-247.047845701408,-233.95486874867527,-220.86189179594072,-207.80881425597084,-195.513833101247,-183.21885194652214,-170.92387079179537,-158.6288896370672,-146.4171876278659,-135.23260557571075,-124.04802352355415,-112.86344147139592,-101.67885941923616,-90.627674815250984,-80.777079853736964,-70.926484892221652,-61.07588993070501,-51.225294969186933,-41.557276766202015,-33.1673096788519,-24.777342591500485,-16.387375504147702,-7.9974084167936068,0.16839073060518131,7.0638907591756155,13.95939078774734,20.854890816320346,27.7503908448946,34.392352518952912,39.839048256150946,45.285743993350238,50.7324397305508,56.179135467752523,61.357297183138712,65.461310120188671,69.565323057239752,73.66933599429214,77.773348931345566,81.608046581844448,84.5150913759906,87.422136170137847,90.329180964286351,93.236225758436,95.885456991836,97.761237795453255,99.637018599071581,101.51279940269102,103.38858020631166,105.02735058390957,106.04126714653992,107.05518370917143,108.06910027180403,109.08301683443781,109.88668923032903,110.19978527964855,110.5128813289692,110.82597737829103,111.13907342761385,111.27151062421596,111.02872802637368,110.78594542853251,110.54316283069225,110.3003802328532,109.90673863155705,109.23292623545012,108.55911383934455,107.88530144323992,107.21148904713642,106.41492005204022,105.41375363113164,104.41258721022403,103.41142078931757,102.41025436841214,101.31152256456339,100.06644038080228,98.8213581970421,97.576276013283135,96.331193829525262,95.010217379288477,93.586558762965964,92.162900146644446,90.739241530324,89.315582914004708,87.834039066229451,86.28174538636884,84.7294517065093,83.177158026650872,81.624864346793615,80.029212173817513,78.385636593016912,76.742061012217547,75.098485431419249,73.454909850622158,68.364469374893474,66.6570081799937,64.949546985095125,63.218908173621791,61.4672987203385,59.715689267056433,57.964079813775562,56.212470360495885,54.444273473684426,52.662504765281355,50.8807360568795,49.098967348478894,47.317198640079518,45.523703946770887,43.721542028381229,41.919380109992879,40.117218191605737,38.31505627321998,36.5046918431999,34.688858942872429,32.873026042546314,31.057193142221525,29.2413602418981,27.419836809572065,25.594898971985025,23.769961134399377,21.945023296815179,20.120085459232293,18.291219841869413,16.460239209047451,14.629258576226984,12.798277943407996,10.967297310590402,9.1336069700799669,7.298611917551586,5.46361686502476,3.6286218124994547,1.7936267599756965,-0.043249723784900905,-1.8809325606224141,-3.7186153974583704,-5.55629823429268,-7.3939810711254506,-9.2329917429784754,-11.072506093701378,-12.912020444422666,-14.751534795142216,-16.591049145860151,-18.431528995802431,-20.272330690986383,-22.113132386168527,-23.953934081348972,-25.794735776527613,-27.636271963855709,-29.478021399796862,-31.319770835736147,-33.161520271673666,-35.003269707609256,-36.84561222081286,-38.6881030103392,-40.5305937998637,-42.3730845893862,-44.2155753789068,-46.058579274600739,-47.9016920168752,-49.74480475914762,-51.587917501418069,-53.4310302436864,-55.2746079918064,-57.118267804951728,-58.961927618094904,-60.805587431235956,-62.649247244374777,-64.493392149859076,-66.337606359488035,-68.181820569114876,-70.0260347787395,-71.870248988361823,-73.714862675284479,-75.559520752767042,-77.404178830247247,-79.248836907724922,-81.093494985200223,-82.938738123792731,-84.784028705749535,-86.629319287703851,-88.474609869655978,-90.319900451605776,-92.165607428013459,-94.011336324059243,-95.857065220102385,-97.702794116142883,-99.5485230121806,-101.39478786765818,-103.24106647087888,-105.0873450740966,-106.93362367731177,-108.77990228052398,0.17681094663463617,0.17681094663463617,0.17681094663463617,0.17681094663463617,0.17681094663463617,0.17681094663463617,0.17681094663463617,0.17681094663463617,0.17681094663463617,0.17681094663463617,0.17681094663463617,0.17681094663463617
DP 114,218.09418753045011,0.0058769479091263822,-510.4082720962146,-491.48470467600032,-472.56113725578331,-453.63756983556345,-434.71400241534059,-415.80202457441425,-397.34204470801404,-378.88206484161179,-360.42208497520636,-341.96210510879826,-323.54881046590157,-306.02254389526814,-288.49627732463233,-270.97001075399373,-253.44374418335289,-236.0163750730332,-219.80875377058965,-203.60113246814379,-187.3935111656952,-171.18588986324391,-155.1399575829617,-140.54924178526346,-125.95852598756267,-111.3678101898598,-96.777094392154467,-82.41342003110654,-69.639052894852341,-56.864685758595883,-44.090318622336994,-31.315951486075935,-18.828977671809081,-7.9705841253531373,2.8878094211050187,13.746202967565367,24.604596514027911,35.12637680095834,44.061247826042468,52.996118851128742,61.930989876217005,70.86586090130757,79.43002037308635,86.511316111573407,93.592611850062553,100.67390758855389,107.75520332704716,114.448487580663,119.80527153067891,125.16205548069691,130.51883943071692,135.8756233807388,140.84348318547131,144.64455584971168,148.44562851395403,152.24670117819849,156.04777384244471,159.47336979160983,161.90905967720133,164.34474956279468,166.7804394483899,169.21612933398723,171.30111963695941,172.56779986429837,173.83448009163948,175.10116031898215,176.36784054632685,177.31648563504029,177.6045869555069,177.89268827597502,178.18078959644538,178.4688909169175,178.47613172908,177.96176686945219,177.44740200982625,176.9330371502023,176.41867229058022,175.66217035631661,174.50210052776561,173.34203069921639,172.18196087066949,171.02189104212403,169.65759510473615,167.98695517816435,166.31631525159438,164.64567532502625,162.97503539846005,161.13556833437147,159.06768432946311,156.9998003245567,154.93191631965232,152.86403231474947,150.65913567752867,148.28677627845519,145.91441687938354,143.54205748031379,141.16969808124611,138.68802018359145,136.0855144016239,133.48300861965828,130.88050283769459,128.27799705573295,120.04116032818199,117.26692646892171,114.49269260966338,111.65198878816773,108.75114428030246,105.85029977243913,102.949455264578,100.04861075671889,97.09699263049032,94.103831580291114,91.110670530094026,88.117509479899113,85.124348429706359,82.092876002345491,79.033085840342068,75.973295678340961,72.913505516341942,69.853715354345226,66.765336898870146,63.657899130710817,60.550461362553762,57.443023594399108,54.335585826246785,51.2070245104337,48.065788746565886,44.924552982700533,41.783317218837674,38.6420814549772,35.485367973305038,32.32032011081688,29.155272248331368,25.990224385848361,22.8251765233678,19.648861485862721,16.467121354460442,13.285381223060888,10.103641091663965,6.9219009602697517,3.7319912841997054,0.53858026438545548,-2.6548307554260764,-5.8482417752347358,-9.0416527950407026,-12.240984444303715,-15.442561926755427,-18.644139409204303,-21.845716891650145,-25.047294374093212,-28.25318203000699,-31.46050646472936,-34.667830899448596,-37.875155334164781,-41.082479768877889,-44.292977517083884,-47.504396588552517,-50.715815660017959,-53.927234731480148,-57.138653802939217,-60.352457092711475,-63.566856465229286,-66.781255837743856,-69.995655210254938,-73.210054582762709,-76.426303213434423,-79.642944132173739,-82.859585050909331,-86.076225969641669,-89.292866888370227,-92.510988986061164,-95.7293724847429,-98.947755983420763,-102.16613948209493,-105.38452298076528,-108.60422187908517,-111.8241087058468,-115.04399553260467,-118.26388235935849,-121.48376918610856,-124.70468020731403,-127.9257050386561,-131.14672986999398,-134.36775470132741,-137.58877953265667,-140.81106224584394,-144.03344696230246,-147.25583167875672,-150.47821639520686,-153.70060111165296,-156.92388403554435,-160.14721424244405,-163.37054444933904,-166.5938746562293,-169.81720486311485,-173.04161398690292,-176.26605078568193,-179.49048758445608,-182.71492438322517,-185.93936118198957,0.30931648120910182,0.30931648120910182,0.30931648120910182,0.30931648120910182,0.30931648120910182,0.30931648120910182,0.30931648120910182,0.30931648120910182,0.30931648120910182,0.30931648120910182,0.30931648120910182,0.30931648120910182
DP 115,138.01257776477016,0.0019521461288322058,-140.91412934883022,-136.29903138809374,-131.68393342735638,-127.06883546661757,-122.45373750587802,-117.84058269021332,-113.3032112671881,-108.76583984416193,-104.22846842113472,-99.691096998106488,-95.161669575373892,-90.783179660031664,-86.404689744688326,-82.026199829344321,-77.64770991399925,-73.286425009713,-69.137337410147509,-64.98824981058111,-60.839162211013729,-56.690074611445432,-52.569995869500737,-48.710999588128509,-44.852003306755414,-40.993007025381509,-37.1340107440067,-33.317350400575435,-29.797044824067981,-26.276739247559686,-22.756433671050534,-19.236128094540547,-15.77194743586537,-12.625811514919448,-9.4796755939727042,-6.3335396730251476,-3.1874037520767891,-0.11060654086359119,2.6393044364662543,5.3892154137968911,8.13912639112831,10.8890373684605,13.557865682818315,15.902359513263518,18.24685334370951,20.591347174156244,22.935841004603731,25.18966924170984,27.131201070720234,29.072732899731356,31.014264728743232,32.955796557755846,34.799691576944696,36.350672475163947,37.901653373383922,39.452634271604659,41.003615169826105,42.452802782474869,43.633622779843378,44.81444277721257,45.995262774582535,47.1760827719532,48.253747707383077,49.090714248172937,49.927680788963485,50.764647329754695,51.601613870546657,52.336650585583328,52.859983928813406,53.383317272044181,53.906650615275659,54.429983958507819,54.854856942567359,55.096872314853428,55.338887687140222,55.58090305942769,55.822918431715905,55.971761034383171,55.965313339203725,55.958865644024812,55.952417948846715,55.945970253669238,55.852992126440192,55.630216306395361,55.407440486351184,55.184664666307775,54.961888846265076,54.660125609695918,54.251495288184081,53.842864966672977,53.434234645162562,53.025604323652892,52.546008674253983,51.979676133496625,51.413343592740084,50.847011051984254,50.280678511229127,49.651519954618422,48.952920867139085,48.254321779660565,47.555722692182727,46.857123604705649,44.4870005320423,43.678670913038545,42.870341294035583,42.014705078192122,41.116266803974668,40.217828529757966,39.319390255542132,38.420951981327079,37.48220577596301,36.510479661486329,35.538753547010465,34.567027432535411,33.595301318061189,32.589608721073425,31.558809904741128,30.528011088409727,29.497212272079182,28.466413455749542,27.407286278829027,26.329273081910316,25.251259884992539,24.173246688075626,23.09523349115965,21.993820389957619,20.878366992298826,19.762913594640956,18.64746019698406,17.532006799328098,16.397396191185589,15.252469883433745,14.107543575682898,12.962617267933005,11.817690960184018,10.657208997416635,9.48923705699836,8.32126511658114,7.1532931761649232,5.9853212357497494,4.8048113978388622,3.6189280059882623,2.4330446141387112,1.2471612222902666,0.061277830442855764,-1.134645120970716,-2.3343763120741903,-3.5341075031765641,-4.7338386942777841,-5.9335698853779117,-7.1412963250417,-8.351687948321878,-9.5620795716008313,-10.772471194878639,-11.982862818155237,-13.19959577687737,-14.418169845810491,-15.636743914742373,-16.855317983673022,-18.073892052602432,-19.297484640262972,-20.522331916899752,-21.747179193535256,-22.972026470169432,-24.196873746802318,-25.42569548428062,-26.655360334745684,-27.885025185209326,-29.114690035671622,-30.344354886132557,-31.577175668352055,-32.810553414798584,-34.043931161243677,-35.277308907687349,-36.510686654129543,-37.746622743214111,-38.982924337453952,-40.219225931692357,-41.45552752592922,-42.6918291201646,-43.930165050172022,-45.168727038851166,-46.407289027528719,-47.64585101620461,-48.884413004878823,-50.12480309098077,-51.365341419877439,-52.605879748772459,-53.846418077665994,-55.086956406557888,-56.328976535173105,-57.571074667988988,-58.813172800803052,-60.05527093361529,-61.297369066425631,-62.540913088433363,-63.784494198538326,-65.02807530864149,-66.271656418742722,-67.515237528842036,0.11988108744470108,0.11988108744470108,0.11988108744470108,0.11988108744470108,0.11988108744470108,0.11988108744470108,0.11988108744470108,0.11988108744470108,0.11988108744470108,0.11988108744470108,0.11988108744470108,0.11988108744470108
DP 116,78.3812987406544,0.0057874352181848778,-307.38639039670562,-298.53585012815034,-289.68530985959217,-280.83476959103058,-271.98422932246558,-263.13614715458596,-254.38393184294833,-245.63171653130695,-236.87950121966227,-228.12728590801484,-219.38526537686852,-210.83694760255329,-202.28862982823537,-193.74031205391466,-185.19199427959114,-176.66612872200545,-168.41717666716647,-160.16822461232468,-151.91927255747999,-143.67032050263219,-135.46014375612216,-127.59894844976397,-119.73775314340317,-111.87655783703957,-104.01536253067347,-96.21244397095434,-88.817467044489533,-81.422490118022111,-74.027513191551975,-66.632536265079381,-59.317607390447549,-52.456289187082632,-45.594970983715058,-38.733652780345075,-31.872334576972506,-25.114067857890873,-18.841620845073585,-12.569173832253826,-6.29672681943166,-0.024279806607050296,6.1219053040682887,11.763036838929947,17.404168373793993,23.045299908660422,28.68643144352917,34.178860401731342,39.159085348948111,44.139310296167231,49.119535243388668,54.099760190612415,58.910490448025222,63.212730227668516,67.5149700073141,71.817209786961925,76.1194495666121,80.23378386221107,83.8527245140214,87.471665165834011,91.0906058176488,94.709546469466019,98.12512213733531,101.0661731018948,104.00722406645647,106.94827503102042,109.88932599558653,112.61489193047905,114.89290576746636,117.17091960445615,119.44893344144806,121.72694727844215,123.78091243525108,125.41878113533389,127.05664983541874,128.69451853550595,130.33238723559549,131.74123459418166,132.76837394430041,133.79551329442151,134.82265264454492,135.84979199467054,136.64643387426997,137.09732410136024,137.54821432845273,137.99910455554752,138.44999478264452,138.67217212340913,138.58490929602914,138.49764646865174,138.41038364127658,138.3231208139039,138.01186633735836,137.42683958472625,136.84181283209642,136.25678607946904,135.67175932684407,134.87001044904514,133.82872227819834,132.78743410735404,131.74614593651188,130.70485776567253,126.54428506695496,125.08831283771939,123.63234060848642,121.98007676022705,120.15021219881072,118.32034763739706,116.49048307598615,114.66061851457782,112.64673754890802,110.48229454458274,108.31785154026032,106.15340853594059,103.98896553162349,101.65358792478493,99.191864540965668,96.730141157149347,94.268417773335685,91.806694389525077,89.18754334331372,86.463438042130321,83.739332740950019,81.015227439772687,78.291122138598453,75.423181449184327,72.468937351551119,69.514693253921081,66.560449156294254,63.60620505867054,60.521513183679765,57.3665783008673,54.211643418058195,51.056708535252369,47.90177365244972,44.629331286931,41.300309599079135,37.971287911230817,34.642266223385946,31.31324453554463,27.879015853646603,24.399697039401136,20.920378225159258,17.441059410921127,13.961740596686571,10.388725695469576,6.78016967764039,3.1716136598149713,-0.43694235800650821,-4.0454983758242617,-7.7371380862293737,-11.456473407915585,-15.175808729597637,-18.895144051275746,-22.614479372949742,-26.4072611671879,-30.221367026649798,-34.035472886107506,-37.849578745560933,-41.663684605010125,-45.542624266694638,-49.4377731449545,-53.332922023210038,-57.228070901460995,-61.12321977970754,-65.075646148781431,-69.040222944867011,-73.004799740947874,-76.969376537024061,-80.933953333095459,-84.949299893524469,-88.973606388696382,-92.997912883863208,-97.0222193790252,-101.04652587418212,-105.11627549247547,-109.19251747639308,-113.26875946030587,-117.34500144421324,-121.4212434281154,-125.53837603789613,-129.66005247999433,-133.7817289220869,-137.90340536417344,-142.02508180625463,-146.18486296421648,-150.34773408310434,-154.51060520198652,-158.6734763208633,-162.83634743973491,-167.03471618881116,-171.23495358739456,-175.43519098597156,-179.63542838454225,-183.83566578310678,-188.07072910635705,-192.30668573964763,-196.54264237293157,-200.77859900620922,-205.01455563948011,0.41318081462820583,0.41318081462820583,0.41318081462820583,0.41318081462820583,0.41318081462820583,0.41318081462820583,0.41318081462820583,0.41318081462820583,0.41318081462820583,0.41318081462820583,0.41318081462820583,0.41318081462820583
DP 117,285.42611273505588,0.0034746440566613573,-329.40090804106836,-316.16278694257528,-302.92466584408095,-289.68654474558497,-276.44842364708757,-263.220526328184,-250.39136027898971,-237.56219422979359,-224.733028180596,-211.90386213139683,-199.11540918101375,-187.10051280467002,-175.08561642832518,-163.07072005197855,-151.0558236756309,-139.12559801578979,-128.23965519712368,-117.35371237845628,-106.4677695597873,-95.581826741117183,-84.830835530753944,-75.294421550957125,-65.758007571158871,-56.2215935913595,-46.685179611558688,-37.332323653485396,-29.264387727606298,-21.196451801726013,-13.128515875844442,-5.0605799499616344,2.7836432448212665,9.3601468663080265,15.936650487795996,22.513154109285164,29.089657730775528,35.415265681295949,40.558066202981834,45.70086672466887,50.843667246357086,55.986467768046388,60.866019472677024,64.69256346778073,68.51910746288543,72.34565145799148,76.172195453098468,79.737416276501847,82.402512974894279,85.067609673287819,87.732706371682411,90.397803070078083,92.815474929501775,94.49086291725709,96.1662509050134,97.841638892770845,99.517026880529343,100.96759404588757,101.82544404298349,102.6832940400804,103.5411440371784,104.39899403427745,105.05984235904151,105.26101390808354,105.46218545712655,105.66335700617056,105.86452855521557,105.89856941909642,105.58548784536494,105.2724062716344,104.95932469790486,104.64624312417644,104.19543346486323,103.48883935568838,102.78224524651455,102.07565113734162,101.36905702816976,100.55190806413459,99.550498222055367,98.549088379977178,97.547678537899927,96.546268695823741,95.458211030382017,94.240179582379653,93.022148134378241,91.804116686377952,90.586085238378587,89.301607665372941,87.927230916049908,86.552854166727826,85.178477417406782,83.804100668086846,82.379776631652433,80.894404861839533,79.409033092027727,77.923661322217,76.438289552407227,74.916053452287528,73.353071832465787,71.790090212645012,70.227108592825317,68.664126973006759,63.841403211089656,62.224909929129595,60.608416647170586,58.972799412926307,57.319879210877971,55.666959008830666,54.014038806784534,52.361118604739481,50.694716895798337,49.017284631344729,47.339852366892245,45.662420102440969,43.984987837990829,42.298166686467027,40.604405768419888,38.910644850373991,37.216883932329239,35.52312301428573,33.82288964512589,32.118341206591793,30.413792768058929,28.709244329527337,27.004695890997006,25.295718827551681,23.58408452218222,21.872450216814023,20.160815911447205,18.449181606081641,16.734527976786428,15.018248513777461,13.301969050769879,11.585689587763657,9.8694101247587636,8.15106769544132,6.4317319571602081,4.71239621888055,2.9930604806023178,1.2737247423255378,-0.44703600734848642,-2.1684074954337618,-3.8897789835175782,-5.6111504715998555,-7.3325219596806894,-9.0549009785875381,-10.777662177494038,-12.500423376398997,-14.223184575302337,-15.945945774204201,-17.66944789389586,-19.393196996520754,-21.116946099143977,-22.840695201765584,-24.564444304385535,-26.288769587771213,-28.013262156469729,-29.737754725166482,-31.46224729386158,-33.1867398625549,-34.911712237715165,-36.636804570159747,-38.361896902602538,-40.0869892350435,-41.812081567482686,-43.537603671789846,-45.263216944749047,-46.988830217706337,-48.714443490661665,-50.4400567636152,-52.166071775697326,-53.892157687385641,-55.618243599071832,-57.344329510756126,-59.07041542243838,-60.796933153342323,-62.523512577369367,-64.250092001394464,-65.9766714254174,-67.703250849438291,-69.430189673205575,-71.157168434050533,-72.884147194893288,-74.611125955733669,-76.33810471657182,-78.065621192008308,-79.793181271418476,-81.520741350826356,-83.248301430232132,-84.975861509635777,-86.703804613190059,-88.431767879718691,-90.159731146244837,-91.887694412768425,-93.615657679289484,-95.3441173681616,-97.072589790621919,-98.801062213079533,-100.52953463553463,-102.25800705798704,0.1654751844882944,0.1654751844882944,0.1654751844882944,0.1654751844882944,0.1654751844882944,0.1654751844882944,0.1654751844882944,0.1654751844882944,0.1654751844882944,0.1654751844882944,0.1654751844882944,0.1654751844882944
DP 118,184.23099611133816,0.00552524279624056,-450.7998175034528,-434.86526720073539,-418.93071689801553,-402.99616659529312,-387.06161629256746,-371.1355377185796,-355.539859768523,-339.94418181846345,-324.34850386840122,-308.75282591833633,-293.19148023767025,-278.2824541658926,-263.37342809411194,-248.4644020223293,-233.55537595054366,-218.71976065936872,-204.78955424758294,-190.85934783579478,-176.92914142400403,-162.99893501221067,-149.19031195129025,-136.47595054045252,-123.76158912961257,-111.0472277187702,-98.332866307925556,-85.792018333117568,-74.4657775311339,-63.13953672914797,-51.813295927159871,-40.487055125169441,-29.384750592321957,-19.55143236243838,-9.7181141325526319,0.11520409733527175,9.9485223272253283,19.513635756891709,27.814340642050034,36.115045527210469,44.415750412372979,52.716455297537557,60.714300899302195,67.500695054159266,74.287089209018433,81.073483363879561,87.859877518742735,94.320441333922645,99.658686957808044,104.99693258169533,110.33517820558482,115.67342382947616,120.67520591477457,124.66758466312488,128.65996341147712,132.65234215983119,136.64472090818734,140.30176946424828,143.07475416942458,145.84773887460273,148.62072357978266,151.39370828496439,153.84277055886008,155.53600362058253,157.22923668230683,158.92246974403287,160.61570280576078,162.00462019876457,162.76148850618253,163.51835681360288,164.27522512102479,165.03209342844858,165.51013887023191,165.47036288878161,165.43058690733341,165.39081092588685,165.3510349444422,165.0615270837842,164.35579312978689,163.65005917579143,162.94432522179784,162.2385912678061,161.31376969144074,160.06031150441297,158.80685331738698,157.553395130363,156.29993694334078,154.85789236900138,153.16069731172749,151.46350225445562,149.76630719718548,148.06911213991728,146.21240063728428,144.16072123972302,142.10904184216341,140.05736244460581,138.00568304705033,135.82123892996685,133.49005221781252,131.15886550565995,128.82767879350936,126.4964920813608,118.95863815428598,116.40973351431423,113.86082887434438,111.22389734082117,108.50732084257859,105.79074434433808,103.0741678460997,100.35759134786343,97.570742909638426,94.72639804011736,91.882053170598553,89.037708301081778,86.193363431567235,83.293584427962529,80.352831457475077,77.412078486989913,74.471325516506937,71.530572546026292,68.546567685382826,65.53372754992894,62.520887414477372,59.508047279028126,56.495207143581212,53.448957205941063,50.382660881717122,47.31636455749554,44.250068233276394,41.1837719090597,38.091899611078517,34.986255262999194,31.880610914922507,28.774966566848256,25.669322218776408,22.544252280868744,19.409829009170746,16.275405737475431,13.140982465782756,10.00655919409277,6.8574764071955325,3.7021107729779277,0.54674513876302833,-2.6086204954490135,-5.7639861296583765,-8.9303628976555789,-12.100916446161428,-15.271469994664423,-18.442023543164442,-21.612577091661677,-24.791383026573236,-27.972939860957641,-31.154496695338835,-34.336053529717077,-37.5176103640922,-40.705358296177906,-43.894903719233795,-47.084449142286587,-50.273994565336189,-53.463539988382522,-56.657755708623561,-59.8531390583408,-63.048522408054737,-66.243905757765276,-69.439289107472476,-72.638238827382068,-75.837945090919263,-79.037651354452862,-82.237357617983008,-85.437063881509559,-88.639532157149077,-91.842487877401751,-95.045443597650532,-98.248399317895689,-101.45135503813708,-104.65657927077415,-107.86212760111252,-111.06767593144725,-114.27322426177795,-117.47877259210476,-120.68605696236604,-123.89353424418196,-127.1010115259937,-130.30848880780115,-133.51596608960429,-136.72524491565559,-139.93466983126743,-143.14409474687514,-146.35351966247896,-149.56294457807869,-152.77369623291713,-155.98451772933259,-159.19533922574345,-162.40616072214945,-165.61698221855087,-168.82925287131292,-172.04156069597457,-175.25386852063133,-178.46617634528332,-181.67848416993024,0.30862659927836067,0.30862659927836067,0.30862659927836067,0.30862659927836067,0.30862659927836067,0.30862659927836067,0.30862659927836067,0.30862659927836067,0.30862659927836067,0.30862659927836067,0.30862659927836067,0.30862659927836067
DP 119,173.28680741995376,0.0052862295771943374,-420.96156461064709,-406.32896986158056,-391.69637511251113,-377.06378036343915,-362.43118561436444,-347.80598759796516,-333.46926495261738,-319.13254230726727,-304.79581966191466,-290.459097016559,-276.1524109959031,-262.41642652279279,-248.6804420496799,-234.94445757656453,-221.20847310344723,-207.5369066662042,-194.65983745660907,-181.78276824701138,-168.90569903741138,-156.02862982780871,-143.2587007995746,-131.45304353069665,-119.64738626181645,-107.84172899293401,-96.03607172404935,-84.384125229733769,-73.80816578055223,-63.232206331368523,-52.656246882182657,-42.080287432994623,-31.703960876106557,-22.4588999552832,-13.213839034457747,-3.9687781136301985,5.2762828071994345,14.280495702938673,22.149269185966475,30.0180426689963,37.886816152028182,45.755589635062009,53.35016078295584,59.847909631325606,66.345658479697363,72.843407328071066,79.34115617644666,85.541231544071181,90.71597463957616,95.890717735082958,101.06546083059155,106.24020392610224,111.10453206758133,115.03760361065297,118.9706751537265,122.90374669680187,126.83681823987921,130.45726022428727,133.2534862630751,136.0497123018647,138.84593834065609,141.6421643794493,144.13301551568966,145.91131559117821,147.68961566666837,149.46791574216053,151.24621581765433,152.73424861906588,153.61941017849321,154.50457173792239,155.3897332973533,156.27489485678606,156.89083161679432,157.00677219289059,157.12271276898835,157.23865334508815,157.3545939211896,157.22631792370294,156.69100814793569,156.15569837217032,155.6203885964066,155.08507882064487,154.33268880025031,153.25467328323984,152.17665776623116,151.09864224922433,150.02062673221926,148.75321131612935,147.2295447654443,145.70587821476101,144.18221166407963,142.65854511339998,140.9724388774986,139.08779183655264,137.20314479560855,135.3184977546664,133.43385071372592,131.41207788625573,129.23874225024571,127.0654066142376,124.89207097823142,122.71873534222725,115.62838075799247,113.2269056202267,110.82543048246289,108.33035169636598,105.75058220986898,103.17081272337413,100.59104323688125,98.011273750390288,95.355660538224484,92.637992065264712,89.920323592307028,87.20265511935149,84.484986646397957,81.706582677402849,78.883286256414777,76.059989835428965,73.236693414445128,70.413396993463664,67.541989476483778,64.638507137586885,61.735024798692258,58.831542459799863,55.928060120909755,52.986846063704981,50.022992404881442,47.059138746060277,44.095285087241528,41.131431428425095,38.138253370578177,35.129284825289048,32.120316280002456,29.111347734718283,26.102379189436448,23.070803508053455,20.0283425927192,16.985881677387603,13.943420762058558,10.900959846732164,7.8411895226378112,4.7740006467726275,1.7068117709100925,-1.3603771049496556,-4.42756598080679,-7.507936307485509,-10.593306666670655,-13.67867702585302,-16.764047385032466,-19.84941774420918,-22.944791338181368,-26.043499469818986,-29.142207601453521,-32.240915733085188,-35.3396238647138,-38.445916450479231,-41.554411067042125,-44.662905683601927,-47.7714003001586,-50.879894916712153,-53.994155363984994,-57.1098573370591,-60.225559310130109,-63.341261283197589,-66.456963256261986,-69.577083624010427,-72.6981412776142,-75.819198931214345,-78.940256584811266,-82.0613142384045,-85.185791419774532,-88.310872085245421,-91.43595275071263,-94.561033416176215,-97.686114081636092,-100.81396711196243,-103.94221622435747,-107.07046533674878,-110.19871444913623,-113.32696356151989,-116.45733954170133,-119.58795186285997,-122.71856418401472,-125.84917650516509,-128.97978882631153,-132.11250260648239,-135.245386796693,-138.37827098689971,-141.51115517710238,-144.64403936730113,-147.77849959979778,-150.91304279756557,-154.04758599532889,-157.18212919308743,-160.31667239084163,-163.45287895795764,-166.58912819169092,-169.72537742541965,-172.86162665914352,-175.99787589286265,0.30150723855172235,0.30150723855172235,0.30150723855172235,0.30150723855172235,0.30150723855172235,0.30150723855172235,0.30150723855172235,0.30150723855172235,0.30150723855172235,0.30150723855172235,0.30150723855172235,0.30150723855172235
DP 120,133.12530844229371,0.0057465100312866753,-407.90059361350455,-394.66141494550385,-381.42223627749945,-368.18305760949227,-354.9438789414819,-341.71011892933006,-328.68768854450047,-315.66525815966776,-302.64282777483197,-289.62039738999312,-276.62014387217255,-264.04125502011715,-251.462366168059,-238.88347731599833,-226.30458846393489,-213.77379340434072,-201.8361611797483,-189.898528955153,-177.96089673055479,-166.0232645059537,-154.16687943499545,-143.04172642642447,-131.91657341785091,-120.79142040927485,-109.66626740069613,-98.6599671946925,-88.485645594013945,-78.311323993332948,-68.137002392649478,-57.962680791963479,-47.946380075630159,-38.825540994851458,-29.70470191407038,-20.583862833286883,-11.463023752500996,-2.5380554710839913,5.4635113196216878,13.465078110329717,21.466644901040041,29.468211691752661,37.23987004621079,44.091883790040434,50.943897533872352,57.7959112777066,64.647925021542974,71.241787027392377,76.94644886870411,82.651110710018088,88.355772551334212,94.060434392652581,99.485831997887871,104.07342633632071,108.66102067475582,113.24861501319307,117.83620935163245,122.13122426139392,125.6548833482978,129.17854243520361,132.70220152211149,136.22586060902159,139.4514775718435,141.98165352136559,144.51182947088955,147.04200542041571,149.57218136994402,151.80622768034181,153.42522689700334,155.04422611366715,156.66322533033309,158.28222454700128,159.61351449281335,160.41047945143467,161.20744441005803,162.00440936868353,162.80137432731098,163.32443093949135,163.390966736893,163.45750253429671,163.52403833170266,163.59057412911045,163.40113037391586,162.82771124094839,162.25429210798322,161.68087297501998,161.107453842059,160.29884905560073,159.17204668382027,158.04524431204175,156.91844194026547,155.79163956849115,154.45212334396282,152.85261905363487,151.25311476330918,149.65361047298558,148.05410618266407,146.26499037892324,144.26630018197346,142.26760998502581,140.26891978808035,138.27022959113717,131.44040760376134,129.10821621775125,126.77602483174337,124.29902423564056,121.69100317563758,119.08298211563694,116.47496105563874,113.86693999564272,111.13463072168872,108.30062895488611,105.46662718808572,102.63262542128801,99.79862365449263,96.859110017268975,93.841607610929657,90.824105204593081,87.806602798258908,84.789100391927391,81.682938030029689,78.517667634382747,75.352397238738519,72.187126843096891,69.021856447457935,65.782794065402285,62.499455375513932,59.216116685628265,55.932777995745511,52.649439305865471,49.305224925607824,45.928230442219331,42.551235958833793,39.17424147545109,35.797246992071138,32.3704407902986,28.919650471041262,25.468860151787016,22.018069832535836,18.567279513287733,15.076031615436353,11.567444209029338,8.058856802625435,4.5502693962248237,1.0416819898272935,-2.4995496755841669,-6.0531640717326622,-9.606778467877886,-13.160392864019666,-16.714007260158233,-20.293815433391345,-23.882355195768902,-27.470894958142846,-31.059434720513341,-34.647974482880315,-38.257443274897312,-41.872988492065986,-45.488533709231014,-49.104078926392383,-52.719624143549957,-56.351850445270124,-59.988247215217108,-63.624643985160304,-67.261040755099515,-70.897437525034945,-74.5471335945744,-78.1996508800344,-81.852168165490241,-85.504685450942134,-89.157202736389777,-92.82034698516901,-96.485366698588209,-100.15038641200285,-103.81540612541345,-107.48042583881966,-111.15409697659724,-114.82900412559451,-118.50391127458741,-122.17881842357573,-125.85372557255955,-129.535566230119,-133.21817735033352,-136.90078847054343,-140.58339959074823,-144.26601071094825,-147.9548224058062,-151.64413691331691,-155.33345142082302,-159.02276592832439,-162.71208043582115,-166.40648167436041,-170.1011506861918,-173.79581969801757,-177.49048870983788,-181.18515772165281,-184.88476365583665,-188.58449622562907,-192.28422879541563,-195.98396136519671,-199.68369393497215,0.35683557092547374,0.35683557092547374,0.35683557092547374,0.35683557092547374,0.35683557092547374,0.35683557092547374,0.35683557092547374,0.35683557092547374,0.35683557092547374,0.35683557092547374,0.35683557092547374,0.35683557092547374
DP 121,82.741653266512955,0.0037810926586579079,-207.67243753281218,-201.62570996017902,-195.57898238754356,-189.53225481490597,-183.48552724226624,-177.44054286157004,-171.46354362581368,-165.48654439005551,-159.50954515429535,-153.53254591853309,-147.56276525704925,-141.73013887151208,-135.89751248597324,-130.06488610043255,-124.23225971489009,-118.41551273552543,-112.79461376696464,-107.17371479840179,-101.55281582983709,-95.931916861270452,-90.3383914363112,-84.9912304912141,-79.64406954611529,-74.296908601014792,-68.949747655912518,-63.643637057907668,-58.624881993696988,-53.606126929484581,-48.587371865270505,-43.568616801054695,-38.606100347261012,-33.96227289635948,-29.318445445456305,-24.674617994551504,-20.030790543645036,-15.459140133349615,-11.227756812945401,-6.9963734925395755,-2.7649901721321712,1.4663931482768255,5.609647627249732,9.40038257545433,13.191117523660491,16.981852471868198,20.772587420077436,24.459935588740468,27.791169395746426,31.122403202753912,34.453637009762915,37.784870816773406,40.998762519115722,43.86062347092696,46.7224844227397,49.584345374553983,52.446206326369719,55.178581441992279,57.569580357049844,59.960579272108916,62.351578187169423,64.742577102231408,66.994132587644927,68.920315677093726,70.846498766543917,72.772681855995614,74.698864945448776,76.478080410592455,77.952051150924589,79.426021891258145,80.899992631593079,82.3739633719295,83.695980075529164,84.735792321511866,85.775604567496,86.815416813481647,87.8552290594688,88.74063529758331,89.368694297342287,89.9967532971027,90.6248122968646,91.252871296627973,91.726488372837863,91.9684389142116,92.210389455586778,92.452339996963516,92.694290538341747,92.78398145314894,92.667670663359416,92.551359873571528,92.4350490837852,92.318738294000326,92.05430959387192,91.608844781041469,91.163379968212638,90.717915155385427,90.2724503425597,89.684665944107834,88.939578118973458,88.194490293840644,87.449402468709422,86.704314643579892,83.793109958170135,82.777645137912984,81.76218031765751,80.619672691460323,79.362219286892156,78.104765882325665,76.8473124777609,75.589859073197772,74.214205128075193,72.741839618414375,71.269474108755276,69.797108599097967,68.324743089442435,66.743429654867413,65.081587702243212,63.419745749620972,61.757903797000466,60.096061844381978,58.33467556710967,56.506924838562583,54.679174110017463,52.851423381474255,51.023672652933016,49.10570954035186,47.1336176330319,45.161525725713979,43.189433818398136,41.217341911084318,39.164112874714327,37.067193435134982,34.970273995557861,32.873354555982814,30.776435116409882,28.607048118770294,26.402768319142549,24.198488519517102,21.994208719893876,19.789928920272981,17.521332173389492,15.225170152065463,12.929008130743751,10.632846109424449,8.3366840881074573,5.9837537456077792,3.6092898515158853,1.2348259574264411,-1.1396379366604632,-3.51410183074496,-5.9384418672203925,-8.3794079130706169,-10.820373958918166,-13.261340004763147,-15.702306050605491,-18.186946334048478,-20.684266767520015,-23.18158720098884,-25.67890763445493,-28.176228067918213,-30.711725904643536,-33.256768543253138,-35.801811181859911,-38.346853820463743,-40.89189645906476,-43.470330098575886,-46.055847060235635,-48.641364021892286,-51.226880983545939,-53.812397945196466,-56.427209554070657,-59.04719113233012,-61.667172710586229,-64.28715428883929,-66.907135867088954,-69.553077930301654,-72.2027289146562,-74.85237989900746,-77.5020308833553,-80.151681867699892,-82.8244466879478,-85.499779954930858,-88.1751132219105,-90.850446488886178,-93.525779755858437,-96.222494519399518,-98.920943136281323,-101.61939175315936,-104.31784037003403,-107.01628898690512,-109.73447278523393,-112.45369547367655,-115.17291816211504,-117.89214085054945,-120.61136353897984,-123.34987826973409,-126.08888785526229,-128.82789744078624,-131.5669070263061,-134.3059166118216,0.26675322051906858,0.26675322051906858,0.26675322051906858,0.26675322051906858,0.26675322051906858,0.26675322051906858,0.26675322051906858,0.26675322051906858,0.26675322051906858,0.26675322051906858,0.26675322051906858,0.26675322051906858
DP 122,272.46673435267292,0.0055361474963577422,-517.456415777036,-496.95602083028325,-476.45562588352834,-455.95523093676991,-435.45483599000954,-414.96964385931881,-395.07736730341929,-375.18509074751643,-355.29281419161163,-335.40053763570461,-315.56893529280438,-296.89015446709419,-278.21137364138178,-259.5325928156671,-240.85381198995,-222.30166354430045,-205.31133041211089,-188.32099727991857,-171.33066414772426,-154.34033101552754,-137.55281409376309,-122.59066223634123,-107.62851037891728,-92.666358521491162,-77.704206664063065,-63.019607453693084,-50.277897760423059,-37.536188067150938,-24.794478373876796,-12.052768680600643,0.34821800973324607,10.81841954636322,21.288621082995128,31.758822619629015,42.229024156264792,52.31393253886413,60.582438099080186,68.850943659298139,77.119449219518,85.387954779739658,93.248463033175128,99.476962777275745,105.70546252137828,111.93396226548259,118.16246200958864,123.98186889688803,128.39216098054843,132.80245306421074,137.21274514787476,141.62303723154056,145.64180321023429,148.48597607101257,151.33014893179251,154.1743217925744,157.01849465335792,159.50282573316159,161.03847065850735,162.57411558385476,164.10976050920394,165.64540543455482,166.86193304051105,167.33384351343565,167.80575398636196,168.27766445928975,168.74957493221945,168.94735085621392,168.57576243657132,168.20417401693032,167.83258559729097,167.46099717765321,166.86055950231159,165.83510988606511,164.80966026982017,163.78421065357688,162.7587610373352,161.54714900137319,160.02526157353503,158.50337414569844,156.98148671786379,155.45959929003055,153.78979769532552,151.89812135505932,150.00644501479485,148.11476867453197,146.22309233427075,144.2163927040209,142.0540707703434,139.89174883666789,137.72942690299391,135.5671049693216,133.31708188514867,130.95986666378354,128.60265144242024,126.24543622105855,123.88822099969858,121.46533533780642,118.9698652506432,116.47439516348174,113.97892507632194,111.48345498916397,103.75522293031052,101.16302394134691,98.570824952385,95.9435445255558,93.2845231185733,90.625501711592577,87.96648030461381,85.307458897636749,82.62333932565592,79.918684460071063,77.214029594487982,74.509374728907,71.8047198633277,69.082328455188275,66.346827137074058,63.611325818961809,60.875824500851408,58.140323182743082,55.392418888730944,52.63624574872663,49.880072608724284,47.123899468724048,44.367726328725809,41.60295125185278,38.833014882765482,36.063078513680239,33.293142144597226,30.523205775516242,27.747333742603679,24.968265496698834,22.189197250796287,19.410129004895946,16.63106075899773,13.847898543099895,11.062765099134271,8.27763165517102,5.49249821121006,2.7073647672514669,-0.080610844443108551,-2.8698045664008327,-5.6589982883561971,-8.44819201030906,-11.23738573225959,-14.028585329157558,-16.820545801323355,-19.612506273486662,-22.404466745647362,-25.196427217805603,-27.989846504169858,-30.783752080319577,-33.577657656466542,-36.371563232610939,-39.165468808752614,-41.960484616903273,-44.755822764014631,-47.551160911123141,-50.346499058228893,-53.141837205331825,-55.938072401424684,-58.734531870361351,-61.530991339295205,-64.327450808226132,-67.12391027715411,-69.921146391591151,-72.718547257910586,-75.515948124226938,-78.313348990540263,-81.110749856850433,-83.908855144481663,-86.707084749588347,-89.50531435469162,-92.3035439597918,-95.101773564888688,-97.900738448717775,-100.69980838030554,-103.49887831189014,-106.29794824347128,-109.09701817504899,-111.89669373737829,-114.69643659837064,-117.49617945935915,-120.295922320344,-123.09566518132526,-125.89629568436918,-128.69699816745856,-131.49770065054418,-134.29840313362635,-137.09910561670506,-139.90043975897166,-142.70180715273941,-145.50317454650303,-148.30454194026265,-151.10590933401818,-153.90808981542145,-156.71029115310424,-159.51249249078302,-162.31469382845754,-165.1168951661277,0.26835398095889551,0.26835398095889551,0.26835398095889551,0.26835398095889551,0.26835398095889551,0.26835398095889551,0.26835398095889551,0.26835398095889551,0.26835398095889551,0.26835398095889551,0.26835398095889551,0.26835398095889551
DP 123,207.57628393131012,0.0033858364458686438,-288.90936543329531,-278.34914459012174,-267.78892374694681,-257.22870290377017,-246.66848206059194,-236.11446385062692,-225.80235068116644,-215.49023751170429,-205.17812434224038,-194.8660111727751,-184.57893042088034,-174.76747033504671,-164.95601024921191,-155.14455016337538,-145.33309007753763,-135.57481273377522,-126.47246257816072,-117.37011242254478,-108.26776226692731,-99.165412111308328,-90.150359140825785,-81.920989088018942,-73.6916190352108,-65.462248982401391,-57.232878929590512,-49.126707735124626,-41.882937865001672,-34.639167994877369,-27.395398124751765,-20.151628254624836,-13.064743457552547,-6.8668839604352705,-0.66902446331670784,5.5288350338031318,11.726694530924243,17.739529425046907,22.880095482891665,28.020661540737677,33.161227598584915,38.301793656433389,43.237012896624186,47.350835161373247,51.464657426123516,55.578479690875028,59.69230195562762,63.589365022322774,66.73980396756032,69.890242912799039,73.040681858038909,76.191120803280043,79.12229127587203,81.395648040313091,83.669004804755318,85.942361569198667,88.215718333643153,90.275307333241642,91.771319423492471,93.267331513744352,94.763343603997285,96.2593556942514,97.553633384105282,98.37719111697028,99.200748849836359,100.0243065827035,100.84786431557174,101.48648339797225,101.74099375075114,101.99550410353132,102.25001445631261,102.5045248090949,102.59386211593795,102.37644501965252,102.15902792336819,101.94161082708492,101.72419373080288,101.36270387152103,100.76108910912781,100.15947434673556,99.5578595843447,98.95624482195484,98.231643573827668,97.322559690889733,96.413475807953,95.504391925017259,94.595308042082621,93.58329197888574,92.432012441389361,91.2807329038942,90.1294533664,88.978173828906975,87.742297259748526,86.403022541619961,85.063747823492534,83.724473105366272,82.385198387241118,80.977551309292963,79.4943334204602,78.011115531628477,76.527897642797953,75.044679753968637,70.32297426043246,68.7309354350703,67.1388966097092,65.504174332174273,63.830832924675214,62.157491517177306,60.484150109680677,58.810808702185263,57.1044232523981,55.371001200125384,53.637579147853884,51.904157095583678,50.170735043314735,48.4120409294254,46.634667050209387,44.857293170994723,43.07991929178133,41.302545412569295,39.50605697869883,37.696825207268446,35.887593435839449,34.078361664411794,32.269129892985568,30.445584182590252,28.613449892339087,26.781315602089347,24.949181311841034,23.117047021594153,21.274286087462315,19.425802959786608,17.57731983211243,15.728836704439752,13.880353576768487,12.02403692848919,10.163948475409324,8.3038600223310581,6.4437715692543414,4.5836831161792135,2.7178486597595835,0.84955155289070483,-1.0187455539765784,-2.8870426608421798,-4.7553397677062055,-6.627842550023745,-8.5019406433777789,-10.376038736730131,-12.250136830080729,-14.124234923429674,-16.001416960139323,-17.879627016834416,-19.75783707352765,-21.63604713021914,-23.514257186908782,-25.394745162205037,-27.275894496490356,-29.15704383077377,-31.03819316505535,-32.919342499335016,-34.802199209449164,-36.685482783693239,-38.568766357935345,-40.452049932175484,-42.335333506413676,-44.219928813657383,-46.104802382323236,-47.989675950987,-49.874549519648674,-51.759423088308267,-53.6453310802098,-55.5314216288904,-57.417512177568746,-59.303602726244989,-61.189693274918952,-63.076675794447091,-64.963785748016349,-66.850895701583482,-68.738005655148172,-70.625115608710658,-72.512914011343184,-74.400788915544823,-76.288663819743974,-78.176538723940581,-80.064413628134744,-81.953091781444712,-83.84183507126717,-85.730578361087169,-87.619321650904837,-89.508064940720161,-91.397385130614325,-93.286735689407678,-95.176086248198331,-97.065436806986128,-98.954787365771281,-100.84481340972327,-102.73485678035352,-104.62490015098086,-106.51494352160539,-108.40498689222684,0.1813867404165882,0.1813867404165882,0.1813867404165882,0.1813867404165882,0.1813867404165882,0.1813867404165882,0.1813867404165882,0.1813867404165882,0.1813867404165882,0.1813867404165882,0.1813867404165882,0.1813867404165882
DP 124,299.02355456064731,0.0013606074118304595,-130.77945519705651,-125.44695940454915,-120.11446361204132,-114.7819678195328,-109.44947202702373,-104.12126603375152,-98.960363832656071,-93.799461631559993,-88.638559430463431,-83.47765722936623,-78.333799070614361,-73.513780938483166,-68.6937628063516,-63.873744674219417,-59.053726542086778,-54.2690231826194,-49.919873136693447,-45.570723090766883,-41.221573044839786,-36.872422998912164,-32.579272772859461,-28.790126218856496,-25.000979664853009,-21.211833110849014,-17.422686556844535,-13.709226064149814,-10.52557372377399,-7.34192138339771,-4.1582690430209368,-0.97461670264368627,2.1174872066752113,4.69081090448544,7.2641346022961342,9.8374583001072828,12.410781997918898,14.882315329729883,16.873974295339622,18.865633260949803,20.857292226560435,22.8489511921715,24.73482579020753,26.197557918512747,27.660290046818382,29.123022175124476,30.585754303430985,31.944566519029621,32.945428003020638,33.946289487012045,34.947150971003929,35.948012454996132,36.8515755363177,37.463239730924251,38.074903925531167,38.686568120138517,39.298232314746265,39.822528850039383,40.116489462379207,40.410450074719449,40.704410687060069,40.998371299401072,41.216721548572828,41.258645234756941,41.300568920941437,41.342492607126353,41.384416293311631,41.363019453991249,41.210108912427316,41.0571983708638,40.904287829300678,40.751377287737931,40.546980305888525,40.2469642587761,39.946948211664179,39.646932164552553,39.346916117441395,39.006137644990972,38.59742076953242,38.188703894074251,37.779987018616488,37.371270143159087,36.931053679469365,36.443587089086925,35.956120498704863,35.468653908323226,34.981187317941981,34.46991113872734,33.926421456853575,33.382931774980207,32.839442093107259,32.295952411234666,31.734825949114068,31.152143051790681,30.569460154467695,29.986777257145121,29.404094359822963,28.808586720999291,28.198904112682698,27.58922150436651,26.979538896050705,26.369856287735324,24.494963267271636,23.866942546083465,23.238921824895677,22.604445906866427,21.964129456427834,21.32381300598966,20.683496555551919,20.043180105114605,19.398381377438049,18.749915254989478,18.101449132541358,17.452983010093671,16.804516887646454,16.152975494571741,15.499161024828455,14.845346555085651,14.191532085343306,13.537717615601441,12.881813566571056,12.224516431763647,11.567219296956715,10.90992216215025,10.252625027344296,9.5939172205498622,8.9343629892284522,8.2748087579075413,7.6152545265871492,6.9557002952672518,6.29519529660137,5.6341783324621124,4.9731613683233995,4.3121444041852088,3.6511274400475249,2.9894660630848895,2.3274944042570942,1.6655227454298591,1.0035510866031685,0.3415794277770382,-0.32083632802622269,-0.98344241710168134,-1.6460485061765802,-2.3086545952508861,-2.9712606843246356,-3.6341826954927723,-4.2972245432979053,-4.960266391102448,-5.6233082389063718,-6.2863500867097128,-6.9496282386325738,-7.6129851615729516,-8.2763420845126809,-8.93969900745181,-9.6030559303902816,-10.266601746405509,-10.930202404649556,-11.593803062892938,-12.257403721135669,-12.921004379377724,-13.584767828265756,-14.248571976738134,-14.912376125209819,-15.5761802736808,-16.239984422151103,-16.903939554945943,-17.567926716447982,-18.231913877949285,-18.895901039449864,-19.559888200949715,-20.224020520571944,-20.888178457946996,-21.552336395321262,-22.216494332694758,-22.880652270067468,-23.544970236988611,-24.209311067001824,-24.87365189701427,-25.537992727025863,-26.202333557036702,-26.866808742412438,-27.531298857572292,-28.19578897273129,-28.860279087889371,-29.52476920304661,-30.189463476800167,-30.854174306038878,-31.518885135276772,-32.183595964513813,-32.848306793750034,-33.513163355902329,-34.1780275896571,-34.84289182341093,-35.507756057163824,-36.1726202909157,-36.837674107666125,-37.502732787356031,-38.167791467044914,-38.832850146732817,-39.49790882641971,0.063649782513281461,0.063649782513281461,0.063649782513281461,0.063649782513281461,0.063649782513281461,0.063649782513281461,0.063649782513281461,0.063649782513281461,0.063649782513281461,0.063649782513281461,0.063649782513281461,0.063649782513281461
DP 125,65.811975768747644,0.0038520640685768088,-182.48666702651678,-177.4113558237847,-172.33604462105038,-167.26073341831389,-162.18542221557527,-157.11136631839759,-152.0862678127867,-147.06116930717386,-142.03607080155885,-137.01097229594174,-131.99110275978478,-127.07058463190847,-122.15006650403018,-117.22954837615012,-112.30903024826827,-107.40007086311311,-102.63367076167107,-97.867270660227121,-93.1008705587812,-88.334470457333367,-83.588140347337884,-79.022442057469419,-74.456743767599221,-69.891045477727275,-65.3253471878535,-60.790002535602284,-56.467135641968241,-52.144268748332458,-47.821401854694962,-43.498534961055732,-39.217684561846411,-35.174930278713106,-31.132175995578095,-27.0894217124415,-23.046667429303174,-19.058484968714911,-15.327572619121455,-11.596660269526367,-7.8657479199296843,-4.1348355703313944,-0.47146701074324165,2.9217231966416164,6.3149134040280446,9.7081036114160515,13.1012938188056,16.414032688859908,19.449658017265595,22.485283345672823,25.5209086740816,28.5565340024919,31.499312336877274,34.163546178783555,36.827780020691371,39.492013862600658,42.1562477045115,44.716148479940188,47.000985766757623,49.285823053576543,51.570660340396984,53.855497627218895,56.025762207144425,57.928686861129364,59.831611515115831,61.734536169103791,63.637460823093249,65.41708246220324,66.940609638180874,68.464136814159971,69.987663990140661,71.511191166122728,72.90438277403949,74.0555190928439,75.20665541164982,76.357791730457336,77.508928049266245,78.524500446566663,79.31412955771107,80.103758668856983,80.893387780004431,81.683016891153486,82.333696158837469,82.77594737790001,83.218198596964157,83.6604498160299,84.102701035097112,84.404428011809969,84.516030829452944,84.627633647097554,84.739236464743655,84.850839282391348,84.822065035093857,84.621715870953082,84.421366706814013,84.221017542676478,84.020668378540591,83.68167997988192,83.189455984259411,82.697231988638549,82.2050079930194,81.712783997401942,79.558677707295374,78.7954794781283,78.032281248962846,77.137976106497717,76.125048062976873,75.112120019457791,74.099191975940585,73.086263932425126,71.947622041452576,70.7061212057227,69.4646203699946,68.223119534268363,66.98161869854404,65.62059965165183,64.17123909268058,62.721878533711369,61.272517974744126,59.823157415778823,58.261064995258195,56.623816224444894,54.986567453633526,53.349318682824304,51.712069912017128,49.969269241898893,48.163135835893975,46.357002429891125,44.550869023890591,42.744735617892076,40.840433636979988,38.88327022665375,36.926106816329877,34.968943406008322,33.01177999568899,30.963868048882091,28.872261091523256,26.78065413416688,24.689047176812849,22.597440219461259,20.422391153141547,18.211580056260328,16.000768959381595,13.789957862505407,11.57914676563167,9.291954882613652,6.9757899814607072,4.6596250803103541,2.3434601791627014,0.027295278017611335,-2.3585445644689065,-4.7676102655007586,-7.1766759665297437,-9.585741667556027,-11.994807368579494,-14.467293613534435,-16.958193047961178,-19.449092482385048,-21.939991916805987,-24.430891351223988,-26.979485957454312,-29.54250503831145,-32.105524119165594,-34.668543200016607,-37.231562280864544,-39.847149456636387,-42.473888042697737,-45.100626628755784,-47.72736521481059,-50.354103800862177,-53.0289212530459,-55.7122237456579,-58.39552623826637,-61.078828730871443,-63.762131223473148,-66.48979803957269,-69.22380309541029,-71.957808151244421,-74.691813207074887,-77.42581826290197,-80.201003159769812,-82.9807640270123,-85.760524894250878,-88.5402857614854,-91.320046628716142,-94.139067086767213,-96.961271156055375,-99.783475225339814,-102.60567929462037,-105.42788336389734,-108.28760239347864,-111.14929626790889,-114.01099014233499,-116.87268401675675,-119.73437789117405,-122.63329115410716,-125.53315912115349,-128.43302708819525,-131.33289505523265,-134.23276302226546,0.28447768450867139,0.28447768450867139,0.28447768450867139,0.28447768450867139,0.28447768450867139,0.28447768450867139,0.28447768450867139,0.28447768450867139,0.28447768450867139,0.28447768450867139,0.28447768450867139,0.28447768450867139
DP 126,76.377167575452816,0.00523237332902705,-273.3954979510068,-265.56504228336746,-257.73458661572556,-249.90413094808039,-242.0736752804323,-234.24535647428584,-226.50037607473681,-218.75539567518473,-211.01041527563007,-203.26543487607231,-195.52932298860884,-187.9617145075168,-180.39410602642218,-172.82649754532491,-165.25888906422534,-157.71082270831315,-150.40377835927188,-143.09673401022775,-135.78968966118114,-128.48264531213189,-121.20938030958034,-114.24013261839556,-107.27088492720821,-100.30163723601862,-93.332389544826441,-86.413958824823681,-79.851250745784355,-73.288542666742671,-66.725834587698586,-60.1631265086522,-53.670304576649606,-47.573508548386123,-41.476712520120408,-35.37991649185242,-29.283120463582147,-23.276423884547722,-17.694486718379185,-12.112549552208451,-6.5306123860355081,-0.94867521986037551,4.5226928337851318,9.5517792117463873,14.580865589709827,19.609951967675368,24.63903834564308,29.537673639528133,33.986971941396313,38.436270243266556,42.885568545138966,47.334866847013394,51.635178134275861,55.488522744729408,59.341867355184952,63.195211965642685,67.048556576102428,70.736377249964335,73.987810947152923,77.239244644343557,80.490678341536125,83.7421120387308,86.8139923434353,89.4669090751305,92.119825806827876,94.772742538527226,97.425659270228621,99.88785312296389,101.95392468020178,104.01999623744165,106.08606779468347,108.15213935192749,110.01938969946816,111.51739528818641,113.01540087690654,114.5134064656288,116.01141205435314,117.30562923840326,118.26019394471363,119.21475865102619,120.16932335734063,121.12388806365708,121.87275907706211,122.31308469049981,122.75341030393955,123.19373591738153,123.63406153082551,123.86967456457582,123.82831896705503,123.78696336953647,123.74560777202001,123.70425217450567,123.4617857699167,122.97351304352129,122.48524031712807,121.99696759073711,121.50869486434846,120.82520953190401,119.92595901345912,119.02670849501639,118.1274579765759,117.22820745813773,113.59353341755696,112.31951319654988,111.04549297554502,109.59346609212007,107.98038235690852,106.36729862169923,104.75421488649253,103.14113115128812,101.36058329181721,99.443016452693726,97.525449613572832,95.607882774454382,93.69031593533839,91.616627628325446,89.427542626472246,87.238457624621688,85.049372622773689,82.8602876209283,80.526883331608829,78.097263910438073,75.667644489270018,73.238025068104577,70.808405646942049,68.246426061190135,65.605028374953321,62.9636306887194,60.322233002488446,57.680835316260264,54.918927962123767,52.092129034390922,49.26533010666116,46.43853117893439,43.61173225121054,40.675945061558082,37.687680515914025,34.699415970273158,31.71115142463546,28.722886879000939,25.636641248531621,22.508402401524226,19.380163554520088,16.251924707519393,13.123685860521883,9.9078186996700683,6.6587120704312905,3.4096054411959487,0.16049881196418428,-3.0886078172641955,-6.4157558376221937,-9.7689186385617877,-13.122081439497604,-16.475244240429824,-19.828407041358307,-23.250867947891035,-26.693448504451883,-30.136029061008895,-33.578609617562059,-37.021190174111361,-40.525224832880127,-44.044623743288909,-47.564022653693776,-51.083421564094508,-54.602820474491189,-58.176768709669226,-61.762288638713976,-65.347808567754313,-68.93332849679048,-72.518848425822313,-76.152953819517663,-79.79563365901474,-83.438313498507185,-87.080993337995167,-90.723673177478574,-94.410045713455688,-98.102660535199831,-101.79527535693948,-105.48789017867415,-109.18050500040431,-112.9126291418516,-116.64914362264761,-120.38565810343867,-124.12217258422412,-127.85868706500463,-131.63214764123677,-135.40860422435884,-139.18506080747594,-142.96151739058817,-146.73797397369555,-150.54899303767297,-154.36183152346783,-158.17467000925706,-161.98750849504029,-165.80034698081812,-169.64715225941362,-173.49482881069881,-177.34250536197828,-181.19018191325191,-185.03785846451959,0.3755993874578461,0.3755993874578461,0.3755993874578461,0.3755993874578461,0.3755993874578461,0.3755993874578461,0.3755993874578461,0.3755993874578461,0.3755993874578461,0.3755993874578461,0.3755993874578461,0.3755993874578461
